$*$$$$$$$$$$$$$$$$$$$$$$$$$$$$$$$$$$$$$$$$$$$$$$$$$$$$$$$$$$$$$$$$$
$*
$*                    Simcenter v12.0.0.27 Translator
$*                    for NX Nastran version 12.0
$*
$*             FEM FILE: C:\Users\brian\Desktop\USB\Semester 8\ENAE484\ENAE484rover\FEMv1\Full_Vehicle_LowFidelityModel.fem
$*             SIM FILE: C:\Users\brian\Desktop\USB\Semester 8\ENAE484\ENAE484rover\FEMv1\Simulations\Full_Vehicle_LowFidelityModel_Modes.sim
$*        ANALYSIS TYPE: Structural
$*        SOLUTION NAME: Solution 1
$*        SOLUTION TYPE: SOL 103 Real Eigenvalues
$*
$*    SOLVER INPUT FILE: full_vehicle_lowfidelitymodel_modes-solution_1.dat
$*        CREATION DATE: 22-Feb-2020
$*        CREATION TIME: 18:32:58
$*             HOSTNAME: DESKTOP-A3VQUJM
$*      NASTRAN LICENSE: Desktop Bundle
$*
$*                UNITS: mm (milli-newton)
$*                      ... LENGTH : mm
$*                      ... TIME   : sec
$*                      ... MASS   : kilogram (kg)
$*                      ... TEMPERATURE : deg Celsius
$*                      ... FORCE  : milli-newton
$*                      ... THERMAL ENERGY : mN-mm (micro-joule)
$*
$* IMPORTANT NOTE:
$*     This banner was generated by Simcenter and altering this 
$*     information may compromise the pre and post processing of results
$*
$*$$$$$$$$$$$$$$$$$$$$$$$$$$$$$$$$$$$$$$$$$$$$$$$$$$$$$$$$$$$$$$$$$
$*
$*$$$$$$$$$$$$$$$$$$$$$$$$$$$$$$$$$$$
$*
$* FILE MANAGEMENT
$*
$*$$$$$$$$$$$$$$$$$$$$$$$$$$$$$$$$$$$
$*
$*
$*$$$$$$$$$$$$$$$$$$$$$$$$$$$$$$$$$$$
$*
$* EXECUTIVE CONTROL
$*
$*$$$$$$$$$$$$$$$$$$$$$$$$$$$$$$$$$$$
$*
ID,NASTRAN,full_vehicle_lowfidelitymodel_modes-solution_1
SOL 103
CEND
$*
$*$$$$$$$$$$$$$$$$$$$$$$$$$$$$$$$$$$$
$*
$* CASE CONTROL
$*
$*$$$$$$$$$$$$$$$$$$$$$$$$$$$$$$$$$$$
$*
ECHO = NONE
OUTPUT
DISPLACEMENT(PLOT,REAL) = ALL
SPCFORCES(PLOT,REAL) = ALL
STRESS(PLOT,REAL,VONMISES,CENTER) = ALL
$*  Step: Subcase - Eigenvalue Method 1
SUBCASE 1
  LABEL = Subcase - Eigenvalue Method 1
  METHOD = 101
$*
$*$$$$$$$$$$$$$$$$$$$$$$$$$$$$$$$$$$$
$*
$* BULK DATA
$*
$*$$$$$$$$$$$$$$$$$$$$$$$$$$$$$$$$$$$
$*
BEGIN BULK
$*
$* SOLUTION CARDS
$*
$*  Modeling Object: Real Eigenvalue - Lanczos1
EIGRL        101                      10       0       7            MASS
$*
$* PARAM CARDS
$*
PARAM      K6ROT100.0000
PARAM     OIBULK     YES
PARAM    OMACHPR     YES
PARAM       POST      -2
PARAM    POSTEXT     YES
PARAM    UNITSYS   MN-MM
$*
$* GRID CARDS
$*
GRID*                  1               00.0000000000E+000.0000000000E+00+
*       0.0000000000E+00               0
GRID*                  2               00.0000000000E+001.9800000000E+03+
*       0.0000000000E+00               0
GRID*                  3               00.0000000000E+009.4285714286E+01+
*       0.0000000000E+00               0
GRID*                  4               00.0000000000E+001.8857142857E+02+
*       0.0000000000E+00               0
GRID*                  5               00.0000000000E+002.8285714286E+02+
*       0.0000000000E+00               0
GRID*                  6               00.0000000000E+003.7714285714E+02+
*       0.0000000000E+00               0
GRID*                  7               00.0000000000E+004.7142857143E+02+
*       0.0000000000E+00               0
GRID*                  8               00.0000000000E+005.6571428571E+02+
*       0.0000000000E+00               0
GRID*                  9               00.0000000000E+006.6000000000E+02+
*       0.0000000000E+00               0
GRID*                 10               00.0000000000E+007.5428571429E+02+
*       0.0000000000E+00               0
GRID*                 11               00.0000000000E+008.4857142857E+02+
*       0.0000000000E+00               0
GRID*                 12               00.0000000000E+009.4285714286E+02+
*       0.0000000000E+00               0
GRID*                 14               00.0000000000E+001.1314285714E+03+
*       0.0000000000E+00               0
GRID*                 15               00.0000000000E+001.2257142857E+03+
*       0.0000000000E+00               0
GRID*                 16               00.0000000000E+001.3200000000E+03+
*       0.0000000000E+00               0
GRID*                 17               00.0000000000E+001.4142857143E+03+
*       0.0000000000E+00               0
GRID*                 18               00.0000000000E+001.5085714286E+03+
*       0.0000000000E+00               0
GRID*                 19               00.0000000000E+001.6028571429E+03+
*       0.0000000000E+00               0
GRID*                 20               00.0000000000E+001.6971428571E+03+
*       0.0000000000E+00               0
GRID*                 21               00.0000000000E+001.7914285714E+03+
*       0.0000000000E+00               0
GRID*                 22               00.0000000000E+001.8857142857E+03+
*       0.0000000000E+00               0
GRID*                 23               00.0000000000E+000.0000000000E+00+
*       4.6000000000E+02               0
GRID*                 25               00.0000000000E+009.4285714286E+01+
*       4.6000000000E+02               0
GRID*                 26               00.0000000000E+001.8857142857E+02+
*       4.6000000000E+02               0
GRID*                 27               00.0000000000E+002.8285714286E+02+
*       4.6000000000E+02               0
GRID*                 29               00.0000000000E+004.7142857143E+02+
*       4.6000000000E+02               0
GRID*                 30               00.0000000000E+005.6571428571E+02+
*       4.6000000000E+02               0
GRID*                 31               00.0000000000E+006.6000000000E+02+
*       4.6000000000E+02               0
GRID*                 32               00.0000000000E+007.5428571429E+02+
*       4.6000000000E+02               0
GRID*                 33               00.0000000000E+008.4857142857E+02+
*       4.6000000000E+02               0
GRID*                 34               00.0000000000E+009.4285714286E+02+
*       4.6000000000E+02               0
GRID*                 36               00.0000000000E+001.1314285714E+03+
*       4.6000000000E+02               0
GRID*                 37               00.0000000000E+001.2257142857E+03+
*       4.6000000000E+02               0
GRID*                 38               00.0000000000E+001.3200000000E+03+
*       4.6000000000E+02               0
GRID*                 39               00.0000000000E+001.4142857143E+03+
*       4.6000000000E+02               0
GRID*                 40               00.0000000000E+001.5085714286E+03+
*       4.6000000000E+02               0
GRID*                 42               00.0000000000E+001.6971428571E+03+
*       4.6000000000E+02               0
GRID*                 43               00.0000000000E+001.7914285714E+03+
*       4.6000000000E+02               0
GRID*                 44               00.0000000000E+001.8857142857E+03+
*       4.6000000000E+02               0
GRID*                 47               01.6500000000E+039.4285714286E+01+
*       0.0000000000E+00               0
GRID*                 48               01.6500000000E+031.8857142857E+02+
*       0.0000000000E+00               0
GRID*                 49               01.6500000000E+032.8285714286E+02+
*       0.0000000000E+00               0
GRID*                 51               01.6500000000E+034.7142857143E+02+
*       0.0000000000E+00               0
GRID*                 52               01.6500000000E+035.6571428571E+02+
*       0.0000000000E+00               0
GRID*                 53               01.6500000000E+036.6000000000E+02+
*       0.0000000000E+00               0
GRID*                 54               01.6500000000E+037.5428571429E+02+
*       0.0000000000E+00               0
GRID*                 55               01.6500000000E+038.4857142857E+02+
*       0.0000000000E+00               0
GRID*                 56               01.6500000000E+039.4285714286E+02+
*       0.0000000000E+00               0
GRID*                 57               01.6500000000E+031.0371428571E+03+
*       0.0000000000E+00               0
GRID*                 58               01.6500000000E+031.1314285714E+03+
*       0.0000000000E+00               0
GRID*                 59               01.6500000000E+031.2257142857E+03+
*       0.0000000000E+00               0
GRID*                 60               01.6500000000E+031.3200000000E+03+
*       0.0000000000E+00               0
GRID*                 61               01.6500000000E+031.4142857143E+03+
*       0.0000000000E+00               0
GRID*                 62               01.6500000000E+031.5085714286E+03+
*       0.0000000000E+00               0
GRID*                 64               01.6500000000E+031.6971428571E+03+
*       0.0000000000E+00               0
GRID*                 65               01.6500000000E+031.7914285714E+03+
*       0.0000000000E+00               0
GRID*                 66               01.6500000000E+031.8857142857E+03+
*       0.0000000000E+00               0
GRID*                 67               01.6500000000E+030.0000000000E+00+
*       4.6000000000E+02               0
GRID*                 69               01.6500000000E+039.4285714286E+01+
*       4.6000000000E+02               0
GRID*                 70               01.6500000000E+031.8857142857E+02+
*       4.6000000000E+02               0
GRID*                 71               01.6500000000E+032.8285714286E+02+
*       4.6000000000E+02               0
GRID*                 73               01.6500000000E+034.7142857143E+02+
*       4.6000000000E+02               0
GRID*                 74               01.6500000000E+035.6571428571E+02+
*       4.6000000000E+02               0
GRID*                 75               01.6500000000E+036.6000000000E+02+
*       4.6000000000E+02               0
GRID*                 76               01.6500000000E+037.5428571429E+02+
*       4.6000000000E+02               0
GRID*                 77               01.6500000000E+038.4857142857E+02+
*       4.6000000000E+02               0
GRID*                 78               01.6500000000E+039.4285714286E+02+
*       4.6000000000E+02               0
GRID*                 80               01.6500000000E+031.1314285714E+03+
*       4.6000000000E+02               0
GRID*                 81               01.6500000000E+031.2257142857E+03+
*       4.6000000000E+02               0
GRID*                 82               01.6500000000E+031.3200000000E+03+
*       4.6000000000E+02               0
GRID*                 83               01.6500000000E+031.4142857143E+03+
*       4.6000000000E+02               0
GRID*                 84               01.6500000000E+031.5085714286E+03+
*       4.6000000000E+02               0
GRID*                 86               01.6500000000E+031.6971428571E+03+
*       4.6000000000E+02               0
GRID*                 87               01.6500000000E+031.7914285714E+03+
*       4.6000000000E+02               0
GRID*                 88               01.6500000000E+031.8857142857E+03+
*       4.6000000000E+02               0
GRID*                111               00.0000000000E+000.0000000000E+00+
*       4.1818181818E+02               0
GRID*                112               00.0000000000E+001.0371428571E+03+
*       0.0000000000E+00               0
GRID*                150               01.6500000000E+033.7714285714E+02+
*       4.1818181818E+01               0
GRID*                151               01.6500000000E+033.7714285714E+02+
*       8.3636363636E+01               0
GRID*                152               01.6500000000E+033.7714285714E+02+
*       1.2545454545E+02               0
GRID*                153               01.6500000000E+033.7714285714E+02+
*       1.6727272727E+02               0
GRID*                154               01.6500000000E+033.7714285714E+02+
*       2.0909090909E+02               0
GRID*                155               01.6500000000E+033.7714285714E+02+
*       2.5090909091E+02               0
GRID*                156               01.6500000000E+033.7714285714E+02+
*       2.9272727273E+02               0
GRID*                157               01.6500000000E+033.7714285714E+02+
*       3.3454545455E+02               0
GRID*                158               01.6500000000E+033.7714285714E+02+
*       3.7636363636E+02               0
GRID*                159               01.6500000000E+033.7714285714E+02+
*       4.1818181818E+02               0
GRID*                162               01.6500000000E+030.0000000000E+00+
*       4.1818181818E+01               0
GRID*                163               01.6500000000E+030.0000000000E+00+
*       8.3636363636E+01               0
GRID*                164               01.6500000000E+030.0000000000E+00+
*       1.2545454545E+02               0
GRID*                165               01.6500000000E+030.0000000000E+00+
*       1.6727272727E+02               0
GRID*                166               01.6500000000E+030.0000000000E+00+
*       2.0909090909E+02               0
GRID*                167               01.6500000000E+030.0000000000E+00+
*       2.5090909091E+02               0
GRID*                168               01.6500000000E+030.0000000000E+00+
*       2.9272727273E+02               0
GRID*                169               01.6500000000E+030.0000000000E+00+
*       3.3454545455E+02               0
GRID*                170               01.6500000000E+030.0000000000E+00+
*       3.7636363636E+02               0
GRID*                171               01.6500000000E+030.0000000000E+00+
*       4.1818181818E+02               0
GRID*                174               01.6500000000E+031.0371428571E+03+
*       4.1818181818E+01               0
GRID*                175               01.6500000000E+031.0371428571E+03+
*       8.3636363636E+01               0
GRID*                176               01.6500000000E+031.0371428571E+03+
*       1.2545454545E+02               0
GRID*                177               01.6500000000E+031.0371428571E+03+
*       1.6727272727E+02               0
GRID*                178               01.6500000000E+031.0371428571E+03+
*       2.0909090909E+02               0
GRID*                179               01.6500000000E+031.0371428571E+03+
*       2.5090909091E+02               0
GRID*                180               01.6500000000E+031.0371428571E+03+
*       2.9272727273E+02               0
GRID*                181               01.6500000000E+031.0371428571E+03+
*       3.3454545455E+02               0
GRID*                182               01.6500000000E+031.0371428571E+03+
*       3.7636363636E+02               0
GRID*                183               01.6500000000E+031.0371428571E+03+
*       4.1818181818E+02               0
GRID*                186               01.6500000000E+031.9800000000E+03+
*       4.1818181818E+01               0
GRID*                187               01.6500000000E+031.9800000000E+03+
*       8.3636363636E+01               0
GRID*                188               01.6500000000E+031.9800000000E+03+
*       1.2545454545E+02               0
GRID*                189               01.6500000000E+031.9800000000E+03+
*       1.6727272727E+02               0
GRID*                190               01.6500000000E+031.9800000000E+03+
*       2.0909090909E+02               0
GRID*                191               01.6500000000E+031.9800000000E+03+
*       2.5090909091E+02               0
GRID*                192               01.6500000000E+031.9800000000E+03+
*       2.9272727273E+02               0
GRID*                193               01.6500000000E+031.9800000000E+03+
*       3.3454545455E+02               0
GRID*                194               01.6500000000E+031.9800000000E+03+
*       3.7636363636E+02               0
GRID*                195               01.6500000000E+031.9800000000E+03+
*       4.1818181818E+02               0
GRID*                198               01.6500000000E+031.6028571429E+03+
*       4.1818181818E+01               0
GRID*                199               01.6500000000E+031.6028571429E+03+
*       8.3636363636E+01               0
GRID*                200               01.6500000000E+031.6028571429E+03+
*       1.2545454545E+02               0
GRID*                201               01.6500000000E+031.6028571429E+03+
*       1.6727272727E+02               0
GRID*                202               01.6500000000E+031.6028571429E+03+
*       2.0909090909E+02               0
GRID*                203               01.6500000000E+031.6028571429E+03+
*       2.5090909091E+02               0
GRID*                204               01.6500000000E+031.6028571429E+03+
*       2.9272727273E+02               0
GRID*                205               01.6500000000E+031.6028571429E+03+
*       3.3454545455E+02               0
GRID*                206               01.6500000000E+031.6028571429E+03+
*       3.7636363636E+02               0
GRID*                207               01.6500000000E+031.6028571429E+03+
*       4.1818181818E+02               0
GRID*                208               08.6842105263E+010.0000000000E+00+
*       4.6000000000E+02               0
GRID*                226               00.0000000000E+003.7714285714E+02+
*       4.6000000000E+02               0
GRID*                227               01.6500000000E+033.7714285714E+02+
*       4.6000000000E+02               0
GRID*                246               00.0000000000E+001.9800000000E+03+
*       4.6000000000E+02               0
GRID*                247               01.6500000000E+031.9800000000E+03+
*       4.6000000000E+02               0
GRID*                266               00.0000000000E+001.0371428571E+03+
*       4.6000000000E+02               0
GRID*                267               01.6500000000E+031.0371428571E+03+
*       4.6000000000E+02               0
GRID*                286               00.0000000000E+001.6028571429E+03+
*       4.6000000000E+02               0
GRID*                287               01.6500000000E+031.6028571429E+03+
*       4.6000000000E+02               0
GRID*                309               01.7368421053E+020.0000000000E+00+
*       4.6000000000E+02               0
GRID*                313               02.6052631579E+020.0000000000E+00+
*       4.6000000000E+02               0
GRID*                317               03.4736842105E+020.0000000000E+00+
*       4.6000000000E+02               0
GRID*                321               04.3421052632E+020.0000000000E+00+
*       4.6000000000E+02               0
GRID*                325               05.2105263158E+020.0000000000E+00+
*       4.6000000000E+02               0
GRID*                329               06.0789473684E+020.0000000000E+00+
*       4.6000000000E+02               0
GRID*                333               06.9473684211E+020.0000000000E+00+
*       4.6000000000E+02               0
GRID*                337               07.8157894737E+020.0000000000E+00+
*       4.6000000000E+02               0
GRID*                341               08.6842105263E+020.0000000000E+00+
*       4.6000000000E+02               0
GRID*                345               09.5526315789E+020.0000000000E+00+
*       4.6000000000E+02               0
GRID*                349               01.0421052632E+030.0000000000E+00+
*       4.6000000000E+02               0
GRID*                353               01.1289473684E+030.0000000000E+00+
*       4.6000000000E+02               0
GRID*                357               01.2157894737E+030.0000000000E+00+
*       4.6000000000E+02               0
GRID*                361               01.3026315789E+030.0000000000E+00+
*       4.6000000000E+02               0
GRID*                365               01.3894736842E+030.0000000000E+00+
*       4.6000000000E+02               0
GRID*                369               01.4763157895E+030.0000000000E+00+
*       4.6000000000E+02               0
GRID*                373               01.5631578947E+030.0000000000E+00+
*       4.6000000000E+02               0
GRID*                380               00.0000000000E+000.0000000000E+00+
*       3.7636363636E+02               0
GRID*                381               08.6842105263E+010.0000000000E+00+
*       4.1818181818E+02               0
GRID*                385               01.7368421053E+020.0000000000E+00+
*       4.1818181818E+02               0
GRID*                389               02.6052631579E+020.0000000000E+00+
*       4.1818181818E+02               0
GRID*                393               03.4736842105E+020.0000000000E+00+
*       4.1818181818E+02               0
GRID*                397               04.3421052632E+020.0000000000E+00+
*       4.1818181818E+02               0
GRID*                401               05.2105263158E+020.0000000000E+00+
*       4.1818181818E+02               0
GRID*                405               06.0789473684E+020.0000000000E+00+
*       4.1818181818E+02               0
GRID*                409               06.9473684211E+020.0000000000E+00+
*       4.1818181818E+02               0
GRID*                413               07.8157894737E+020.0000000000E+00+
*       4.1818181818E+02               0
GRID*                417               08.6842105263E+020.0000000000E+00+
*       4.1818181818E+02               0
GRID*                421               09.5526315789E+020.0000000000E+00+
*       4.1818181818E+02               0
GRID*                425               01.0421052632E+030.0000000000E+00+
*       4.1818181818E+02               0
GRID*                429               01.1289473684E+030.0000000000E+00+
*       4.1818181818E+02               0
GRID*                433               01.2157894737E+030.0000000000E+00+
*       4.1818181818E+02               0
GRID*                437               01.3026315789E+030.0000000000E+00+
*       4.1818181818E+02               0
GRID*                441               01.3894736842E+030.0000000000E+00+
*       4.1818181818E+02               0
GRID*                445               01.4763157895E+030.0000000000E+00+
*       4.1818181818E+02               0
GRID*                449               01.5631578947E+030.0000000000E+00+
*       4.1818181818E+02               0
GRID*                456               00.0000000000E+000.0000000000E+00+
*       3.3454545455E+02               0
GRID*                457               08.6842105263E+010.0000000000E+00+
*       3.7636363636E+02               0
GRID*                461               01.7368421053E+020.0000000000E+00+
*       3.7636363636E+02               0
GRID*                465               02.6052631579E+020.0000000000E+00+
*       3.7636363636E+02               0
GRID*                469               03.4736842105E+020.0000000000E+00+
*       3.7636363636E+02               0
GRID*                473               04.3421052632E+020.0000000000E+00+
*       3.7636363636E+02               0
GRID*                477               05.2105263158E+020.0000000000E+00+
*       3.7636363636E+02               0
GRID*                481               06.0789473684E+020.0000000000E+00+
*       3.7636363636E+02               0
GRID*                485               06.9473684211E+020.0000000000E+00+
*       3.7636363636E+02               0
GRID*                489               07.8157894737E+020.0000000000E+00+
*       3.7636363636E+02               0
GRID*                493               08.6842105263E+020.0000000000E+00+
*       3.7636363636E+02               0
GRID*                497               09.5526315789E+020.0000000000E+00+
*       3.7636363636E+02               0
GRID*                501               01.0421052632E+030.0000000000E+00+
*       3.7636363636E+02               0
GRID*                505               01.1289473684E+030.0000000000E+00+
*       3.7636363636E+02               0
GRID*                509               01.2157894737E+030.0000000000E+00+
*       3.7636363636E+02               0
GRID*                513               01.3026315789E+030.0000000000E+00+
*       3.7636363636E+02               0
GRID*                517               01.3894736842E+030.0000000000E+00+
*       3.7636363636E+02               0
GRID*                521               01.4763157895E+030.0000000000E+00+
*       3.7636363636E+02               0
GRID*                525               01.5631578947E+030.0000000000E+00+
*       3.7636363636E+02               0
GRID*                532               00.0000000000E+000.0000000000E+00+
*       2.9272727273E+02               0
GRID*                533               08.6842105263E+010.0000000000E+00+
*       3.3454545455E+02               0
GRID*                537               01.7368421053E+020.0000000000E+00+
*       3.3454545455E+02               0
GRID*                541               02.6052631579E+020.0000000000E+00+
*       3.3454545455E+02               0
GRID*                545               03.4736842105E+020.0000000000E+00+
*       3.3454545455E+02               0
GRID*                549               04.3421052632E+020.0000000000E+00+
*       3.3454545455E+02               0
GRID*                553               05.2105263158E+020.0000000000E+00+
*       3.3454545455E+02               0
GRID*                557               06.0789473684E+020.0000000000E+00+
*       3.3454545455E+02               0
GRID*                561               06.9473684211E+020.0000000000E+00+
*       3.3454545455E+02               0
GRID*                565               07.8157894737E+020.0000000000E+00+
*       3.3454545455E+02               0
GRID*                569               08.6842105263E+020.0000000000E+00+
*       3.3454545455E+02               0
GRID*                573               09.5526315789E+020.0000000000E+00+
*       3.3454545455E+02               0
GRID*                577               01.0421052632E+030.0000000000E+00+
*       3.3454545455E+02               0
GRID*                581               01.1289473684E+030.0000000000E+00+
*       3.3454545455E+02               0
GRID*                585               01.2157894737E+030.0000000000E+00+
*       3.3454545455E+02               0
GRID*                589               01.3026315789E+030.0000000000E+00+
*       3.3454545455E+02               0
GRID*                593               01.3894736842E+030.0000000000E+00+
*       3.3454545455E+02               0
GRID*                597               01.4763157895E+030.0000000000E+00+
*       3.3454545455E+02               0
GRID*                601               01.5631578947E+030.0000000000E+00+
*       3.3454545455E+02               0
GRID*                608               00.0000000000E+000.0000000000E+00+
*       2.5090909091E+02               0
GRID*                609               08.6842105263E+010.0000000000E+00+
*       2.9272727273E+02               0
GRID*                613               01.7368421053E+020.0000000000E+00+
*       2.9272727273E+02               0
GRID*                625               04.3421052632E+020.0000000000E+00+
*       2.9272727273E+02               0
GRID*                629               05.2105263158E+020.0000000000E+00+
*       2.9272727273E+02               0
GRID*                633               06.0789473684E+020.0000000000E+00+
*       2.9272727273E+02               0
GRID*                653               01.0421052632E+030.0000000000E+00+
*       2.9272727273E+02               0
GRID*                657               01.1289473684E+030.0000000000E+00+
*       2.9272727273E+02               0
GRID*                661               01.2157894737E+030.0000000000E+00+
*       2.9272727273E+02               0
GRID*                673               01.4763157895E+030.0000000000E+00+
*       2.9272727273E+02               0
GRID*                677               01.5631578947E+030.0000000000E+00+
*       2.9272727273E+02               0
GRID*                684               00.0000000000E+000.0000000000E+00+
*       2.0909090909E+02               0
GRID*                685               08.6842105263E+010.0000000000E+00+
*       2.5090909091E+02               0
GRID*                689               01.7368421053E+020.0000000000E+00+
*       2.5090909091E+02               0
GRID*                701               04.3421052632E+020.0000000000E+00+
*       2.5090909091E+02               0
GRID*                705               05.2105263158E+020.0000000000E+00+
*       2.5090909091E+02               0
GRID*                709               06.0789473684E+020.0000000000E+00+
*       2.5090909091E+02               0
GRID*                729               01.0421052632E+030.0000000000E+00+
*       2.5090909091E+02               0
GRID*                733               01.1289473684E+030.0000000000E+00+
*       2.5090909091E+02               0
GRID*                737               01.2157894737E+030.0000000000E+00+
*       2.5090909091E+02               0
GRID*                749               01.4763157895E+030.0000000000E+00+
*       2.5090909091E+02               0
GRID*                753               01.5631578947E+030.0000000000E+00+
*       2.5090909091E+02               0
GRID*                760               00.0000000000E+000.0000000000E+00+
*       1.6727272727E+02               0
GRID*                761               08.6842105263E+010.0000000000E+00+
*       2.0909090909E+02               0
GRID*                765               01.7368421053E+020.0000000000E+00+
*       2.0909090909E+02               0
GRID*                777               04.3421052632E+020.0000000000E+00+
*       2.0909090909E+02               0
GRID*                781               05.2105263158E+020.0000000000E+00+
*       2.0909090909E+02               0
GRID*                785               06.0789473684E+020.0000000000E+00+
*       2.0909090909E+02               0
GRID*                805               01.0421052632E+030.0000000000E+00+
*       2.0909090909E+02               0
GRID*                809               01.1289473684E+030.0000000000E+00+
*       2.0909090909E+02               0
GRID*                813               01.2157894737E+030.0000000000E+00+
*       2.0909090909E+02               0
GRID*                825               01.4763157895E+030.0000000000E+00+
*       2.0909090909E+02               0
GRID*                829               01.5631578947E+030.0000000000E+00+
*       2.0909090909E+02               0
GRID*                836               00.0000000000E+000.0000000000E+00+
*       1.2545454545E+02               0
GRID*                837               08.6842105263E+010.0000000000E+00+
*       1.6727272727E+02               0
GRID*                841               01.7368421053E+020.0000000000E+00+
*       1.6727272727E+02               0
GRID*                853               04.3421052632E+020.0000000000E+00+
*       1.6727272727E+02               0
GRID*                857               05.2105263158E+020.0000000000E+00+
*       1.6727272727E+02               0
GRID*                861               06.0789473684E+020.0000000000E+00+
*       1.6727272727E+02               0
GRID*                881               01.0421052632E+030.0000000000E+00+
*       1.6727272727E+02               0
GRID*                885               01.1289473684E+030.0000000000E+00+
*       1.6727272727E+02               0
GRID*                889               01.2157894737E+030.0000000000E+00+
*       1.6727272727E+02               0
GRID*                901               01.4763157895E+030.0000000000E+00+
*       1.6727272727E+02               0
GRID*                905               01.5631578947E+030.0000000000E+00+
*       1.6727272727E+02               0
GRID*                912               00.0000000000E+000.0000000000E+00+
*       8.3636363636E+01               0
GRID*                913               08.6842105263E+010.0000000000E+00+
*       1.2545454545E+02               0
GRID*                917               01.7368421053E+020.0000000000E+00+
*       1.2545454545E+02               0
GRID*                921               02.6052631579E+020.0000000000E+00+
*       1.2545454545E+02               0
GRID*                925               03.4736842105E+020.0000000000E+00+
*       1.2545454545E+02               0
GRID*                929               04.3421052632E+020.0000000000E+00+
*       1.2545454545E+02               0
GRID*                933               05.2105263158E+020.0000000000E+00+
*       1.2545454545E+02               0
GRID*                937               06.0789473684E+020.0000000000E+00+
*       1.2545454545E+02               0
GRID*                941               06.9473684211E+020.0000000000E+00+
*       1.2545454545E+02               0
GRID*                945               07.8157894737E+020.0000000000E+00+
*       1.2545454545E+02               0
GRID*                949               08.6842105263E+020.0000000000E+00+
*       1.2545454545E+02               0
GRID*                953               09.5526315789E+020.0000000000E+00+
*       1.2545454545E+02               0
GRID*                957               01.0421052632E+030.0000000000E+00+
*       1.2545454545E+02               0
GRID*                961               01.1289473684E+030.0000000000E+00+
*       1.2545454545E+02               0
GRID*                965               01.2157894737E+030.0000000000E+00+
*       1.2545454545E+02               0
GRID*                969               01.3026315789E+030.0000000000E+00+
*       1.2545454545E+02               0
GRID*                973               01.3894736842E+030.0000000000E+00+
*       1.2545454545E+02               0
GRID*                977               01.4763157895E+030.0000000000E+00+
*       1.2545454545E+02               0
GRID*                981               01.5631578947E+030.0000000000E+00+
*       1.2545454545E+02               0
GRID*                988               00.0000000000E+000.0000000000E+00+
*       4.1818181818E+01               0
GRID*                989               08.6842105263E+010.0000000000E+00+
*       8.3636363636E+01               0
GRID*                993               01.7368421053E+020.0000000000E+00+
*       8.3636363636E+01               0
GRID*                997               02.6052631579E+020.0000000000E+00+
*       8.3636363636E+01               0
GRID*               1001               03.4736842105E+020.0000000000E+00+
*       8.3636363636E+01               0
GRID*               1005               04.3421052632E+020.0000000000E+00+
*       8.3636363636E+01               0
GRID*               1009               05.2105263158E+020.0000000000E+00+
*       8.3636363636E+01               0
GRID*               1013               06.0789473684E+020.0000000000E+00+
*       8.3636363636E+01               0
GRID*               1017               06.9473684211E+020.0000000000E+00+
*       8.3636363636E+01               0
GRID*               1021               07.8157894737E+020.0000000000E+00+
*       8.3636363636E+01               0
GRID*               1025               08.6842105263E+020.0000000000E+00+
*       8.3636363636E+01               0
GRID*               1029               09.5526315789E+020.0000000000E+00+
*       8.3636363636E+01               0
GRID*               1033               01.0421052632E+030.0000000000E+00+
*       8.3636363636E+01               0
GRID*               1037               01.1289473684E+030.0000000000E+00+
*       8.3636363636E+01               0
GRID*               1041               01.2157894737E+030.0000000000E+00+
*       8.3636363636E+01               0
GRID*               1045               01.3026315789E+030.0000000000E+00+
*       8.3636363636E+01               0
GRID*               1049               01.3894736842E+030.0000000000E+00+
*       8.3636363636E+01               0
GRID*               1053               01.4763157895E+030.0000000000E+00+
*       8.3636363636E+01               0
GRID*               1057               01.5631578947E+030.0000000000E+00+
*       8.3636363636E+01               0
GRID*               1065               08.6842105263E+010.0000000000E+00+
*       4.1818181818E+01               0
GRID*               1066               08.6842100000E+010.0000000000E+00+
*       -1.818181818E-05               0
GRID*               1069               01.7368421053E+020.0000000000E+00+
*       4.1818181818E+01               0
GRID*               1070               01.7368420526E+020.0000000000E+00+
*       -1.818181818E-05               0
GRID*               1129               01.4763157895E+030.0000000000E+00+
*       4.1818181818E+01               0
GRID*               1130               01.4763157842E+030.0000000000E+00+
*       -1.818181818E-05               0
GRID*               1133               01.5631578947E+030.0000000000E+00+
*       4.1818181818E+01               0
GRID*               1134               01.5631578895E+030.0000000000E+00+
*       -1.818181818E-05               0
GRID*               1138               01.6499999947E+030.0000000000E+00+
*       -1.818181818E-05               0
GRID*               1140               00.0000000000E+003.7714285714E+02+
*       4.1818181818E+02               0
GRID*               1141               08.6842105263E+013.7714285714E+02+
*       4.6000000000E+02               0
GRID*               1145               01.7368421053E+023.7714285714E+02+
*       4.6000000000E+02               0
GRID*               1149               02.6052631579E+023.7714285714E+02+
*       4.6000000000E+02               0
GRID*               1153               03.4736842105E+023.7714285714E+02+
*       4.6000000000E+02               0
GRID*               1157               04.3421052632E+023.7714285714E+02+
*       4.6000000000E+02               0
GRID*               1161               05.2105263158E+023.7714285714E+02+
*       4.6000000000E+02               0
GRID*               1165               06.0789473684E+023.7714285714E+02+
*       4.6000000000E+02               0
GRID*               1169               06.9473684211E+023.7714285714E+02+
*       4.6000000000E+02               0
GRID*               1173               07.8157894737E+023.7714285714E+02+
*       4.6000000000E+02               0
GRID*               1177               08.6842105263E+023.7714285714E+02+
*       4.6000000000E+02               0
GRID*               1181               09.5526315789E+023.7714285714E+02+
*       4.6000000000E+02               0
GRID*               1185               01.0421052632E+033.7714285714E+02+
*       4.6000000000E+02               0
GRID*               1189               01.1289473684E+033.7714285714E+02+
*       4.6000000000E+02               0
GRID*               1193               01.2157894737E+033.7714285714E+02+
*       4.6000000000E+02               0
GRID*               1197               01.3026315789E+033.7714285714E+02+
*       4.6000000000E+02               0
GRID*               1201               01.3894736842E+033.7714285714E+02+
*       4.6000000000E+02               0
GRID*               1205               01.4763157895E+033.7714285714E+02+
*       4.6000000000E+02               0
GRID*               1209               01.5631578947E+033.7714285714E+02+
*       4.6000000000E+02               0
GRID*               1216               00.0000000000E+003.7714285714E+02+
*       3.7636363636E+02               0
GRID*               1217               08.6842105263E+013.7714285714E+02+
*       4.1818181818E+02               0
GRID*               1221               01.7368421053E+023.7714285714E+02+
*       4.1818181818E+02               0
GRID*               1225               02.6052631579E+023.7714285714E+02+
*       4.1818181818E+02               0
GRID*               1229               03.4736842105E+023.7714285714E+02+
*       4.1818181818E+02               0
GRID*               1233               04.3421052632E+023.7714285714E+02+
*       4.1818181818E+02               0
GRID*               1237               05.2105263158E+023.7714285714E+02+
*       4.1818181818E+02               0
GRID*               1241               06.0789473684E+023.7714285714E+02+
*       4.1818181818E+02               0
GRID*               1245               06.9473684211E+023.7714285714E+02+
*       4.1818181818E+02               0
GRID*               1249               07.8157894737E+023.7714285714E+02+
*       4.1818181818E+02               0
GRID*               1253               08.6842105263E+023.7714285714E+02+
*       4.1818181818E+02               0
GRID*               1257               09.5526315789E+023.7714285714E+02+
*       4.1818181818E+02               0
GRID*               1261               01.0421052632E+033.7714285714E+02+
*       4.1818181818E+02               0
GRID*               1265               01.1289473684E+033.7714285714E+02+
*       4.1818181818E+02               0
GRID*               1269               01.2157894737E+033.7714285714E+02+
*       4.1818181818E+02               0
GRID*               1273               01.3026315789E+033.7714285714E+02+
*       4.1818181818E+02               0
GRID*               1277               01.3894736842E+033.7714285714E+02+
*       4.1818181818E+02               0
GRID*               1281               01.4763157895E+033.7714285714E+02+
*       4.1818181818E+02               0
GRID*               1285               01.5631578947E+033.7714285714E+02+
*       4.1818181818E+02               0
GRID*               1292               00.0000000000E+003.7714285714E+02+
*       3.3454545455E+02               0
GRID*               1293               08.6842105263E+013.7714285714E+02+
*       3.7636363636E+02               0
GRID*               1297               01.7368421053E+023.7714285714E+02+
*       3.7636363636E+02               0
GRID*               1301               02.6052631579E+023.7714285714E+02+
*       3.7636363636E+02               0
GRID*               1305               03.4736842105E+023.7714285714E+02+
*       3.7636363636E+02               0
GRID*               1309               04.3421052632E+023.7714285714E+02+
*       3.7636363636E+02               0
GRID*               1313               05.2105263158E+023.7714285714E+02+
*       3.7636363636E+02               0
GRID*               1317               06.0789473684E+023.7714285714E+02+
*       3.7636363636E+02               0
GRID*               1321               06.9473684211E+023.7714285714E+02+
*       3.7636363636E+02               0
GRID*               1325               07.8157894737E+023.7714285714E+02+
*       3.7636363636E+02               0
GRID*               1329               08.6842105263E+023.7714285714E+02+
*       3.7636363636E+02               0
GRID*               1333               09.5526315789E+023.7714285714E+02+
*       3.7636363636E+02               0
GRID*               1337               01.0421052632E+033.7714285714E+02+
*       3.7636363636E+02               0
GRID*               1341               01.1289473684E+033.7714285714E+02+
*       3.7636363636E+02               0
GRID*               1345               01.2157894737E+033.7714285714E+02+
*       3.7636363636E+02               0
GRID*               1349               01.3026315789E+033.7714285714E+02+
*       3.7636363636E+02               0
GRID*               1353               01.3894736842E+033.7714285714E+02+
*       3.7636363636E+02               0
GRID*               1357               01.4763157895E+033.7714285714E+02+
*       3.7636363636E+02               0
GRID*               1361               01.5631578947E+033.7714285714E+02+
*       3.7636363636E+02               0
GRID*               1368               00.0000000000E+003.7714285714E+02+
*       2.9272727273E+02               0
GRID*               1369               08.6842105263E+013.7714285714E+02+
*       3.3454545455E+02               0
GRID*               1373               01.7368421053E+023.7714285714E+02+
*       3.3454545455E+02               0
GRID*               1377               02.6052631579E+023.7714285714E+02+
*       3.3454545455E+02               0
GRID*               1381               03.4736842105E+023.7714285714E+02+
*       3.3454545455E+02               0
GRID*               1385               04.3421052632E+023.7714285714E+02+
*       3.3454545455E+02               0
GRID*               1389               05.2105263158E+023.7714285714E+02+
*       3.3454545455E+02               0
GRID*               1393               06.0789473684E+023.7714285714E+02+
*       3.3454545455E+02               0
GRID*               1397               06.9473684211E+023.7714285714E+02+
*       3.3454545455E+02               0
GRID*               1401               07.8157894737E+023.7714285714E+02+
*       3.3454545455E+02               0
GRID*               1405               08.6842105263E+023.7714285714E+02+
*       3.3454545455E+02               0
GRID*               1409               09.5526315789E+023.7714285714E+02+
*       3.3454545455E+02               0
GRID*               1413               01.0421052632E+033.7714285714E+02+
*       3.3454545455E+02               0
GRID*               1417               01.1289473684E+033.7714285714E+02+
*       3.3454545455E+02               0
GRID*               1421               01.2157894737E+033.7714285714E+02+
*       3.3454545455E+02               0
GRID*               1425               01.3026315789E+033.7714285714E+02+
*       3.3454545455E+02               0
GRID*               1429               01.3894736842E+033.7714285714E+02+
*       3.3454545455E+02               0
GRID*               1433               01.4763157895E+033.7714285714E+02+
*       3.3454545455E+02               0
GRID*               1437               01.5631578947E+033.7714285714E+02+
*       3.3454545455E+02               0
GRID*               1444               00.0000000000E+003.7714285714E+02+
*       2.5090909091E+02               0
GRID*               1445               08.6842105263E+013.7714285714E+02+
*       2.9272727273E+02               0
GRID*               1449               01.7368421053E+023.7714285714E+02+
*       2.9272727273E+02               0
GRID*               1461               04.3421052632E+023.7714285714E+02+
*       2.9272727273E+02               0
GRID*               1465               05.2105263158E+023.7714285714E+02+
*       2.9272727273E+02               0
GRID*               1469               06.0789473684E+023.7714285714E+02+
*       2.9272727273E+02               0
GRID*               1489               01.0421052632E+033.7714285714E+02+
*       2.9272727273E+02               0
GRID*               1493               01.1289473684E+033.7714285714E+02+
*       2.9272727273E+02               0
GRID*               1497               01.2157894737E+033.7714285714E+02+
*       2.9272727273E+02               0
GRID*               1509               01.4763157895E+033.7714285714E+02+
*       2.9272727273E+02               0
GRID*               1513               01.5631578947E+033.7714285714E+02+
*       2.9272727273E+02               0
GRID*               1520               00.0000000000E+003.7714285714E+02+
*       2.0909090909E+02               0
GRID*               1521               08.6842105263E+013.7714285714E+02+
*       2.5090909091E+02               0
GRID*               1525               01.7368421053E+023.7714285714E+02+
*       2.5090909091E+02               0
GRID*               1537               04.3421052632E+023.7714285714E+02+
*       2.5090909091E+02               0
GRID*               1541               05.2105263158E+023.7714285714E+02+
*       2.5090909091E+02               0
GRID*               1545               06.0789473684E+023.7714285714E+02+
*       2.5090909091E+02               0
GRID*               1565               01.0421052632E+033.7714285714E+02+
*       2.5090909091E+02               0
GRID*               1569               01.1289473684E+033.7714285714E+02+
*       2.5090909091E+02               0
GRID*               1573               01.2157894737E+033.7714285714E+02+
*       2.5090909091E+02               0
GRID*               1585               01.4763157895E+033.7714285714E+02+
*       2.5090909091E+02               0
GRID*               1589               01.5631578947E+033.7714285714E+02+
*       2.5090909091E+02               0
GRID*               1596               00.0000000000E+003.7714285714E+02+
*       1.6727272727E+02               0
GRID*               1597               08.6842105263E+013.7714285714E+02+
*       2.0909090909E+02               0
GRID*               1601               01.7368421053E+023.7714285714E+02+
*       2.0909090909E+02               0
GRID*               1613               04.3421052632E+023.7714285714E+02+
*       2.0909090909E+02               0
GRID*               1617               05.2105263158E+023.7714285714E+02+
*       2.0909090909E+02               0
GRID*               1621               06.0789473684E+023.7714285714E+02+
*       2.0909090909E+02               0
GRID*               1641               01.0421052632E+033.7714285714E+02+
*       2.0909090909E+02               0
GRID*               1645               01.1289473684E+033.7714285714E+02+
*       2.0909090909E+02               0
GRID*               1649               01.2157894737E+033.7714285714E+02+
*       2.0909090909E+02               0
GRID*               1661               01.4763157895E+033.7714285714E+02+
*       2.0909090909E+02               0
GRID*               1665               01.5631578947E+033.7714285714E+02+
*       2.0909090909E+02               0
GRID*               1672               00.0000000000E+003.7714285714E+02+
*       1.2545454545E+02               0
GRID*               1673               08.6842105263E+013.7714285714E+02+
*       1.6727272727E+02               0
GRID*               1677               01.7368421053E+023.7714285714E+02+
*       1.6727272727E+02               0
GRID*               1689               04.3421052632E+023.7714285714E+02+
*       1.6727272727E+02               0
GRID*               1693               05.2105263158E+023.7714285714E+02+
*       1.6727272727E+02               0
GRID*               1697               06.0789473684E+023.7714285714E+02+
*       1.6727272727E+02               0
GRID*               1717               01.0421052632E+033.7714285714E+02+
*       1.6727272727E+02               0
GRID*               1721               01.1289473684E+033.7714285714E+02+
*       1.6727272727E+02               0
GRID*               1725               01.2157894737E+033.7714285714E+02+
*       1.6727272727E+02               0
GRID*               1737               01.4763157895E+033.7714285714E+02+
*       1.6727272727E+02               0
GRID*               1741               01.5631578947E+033.7714285714E+02+
*       1.6727272727E+02               0
GRID*               1748               00.0000000000E+003.7714285714E+02+
*       8.3636363636E+01               0
GRID*               1749               08.6842105263E+013.7714285714E+02+
*       1.2545454545E+02               0
GRID*               1753               01.7368421053E+023.7714285714E+02+
*       1.2545454545E+02               0
GRID*               1757               02.6052631579E+023.7714285714E+02+
*       1.2545454545E+02               0
GRID*               1761               03.4736842105E+023.7714285714E+02+
*       1.2545454545E+02               0
GRID*               1765               04.3421052632E+023.7714285714E+02+
*       1.2545454545E+02               0
GRID*               1769               05.2105263158E+023.7714285714E+02+
*       1.2545454545E+02               0
GRID*               1773               06.0789473684E+023.7714285714E+02+
*       1.2545454545E+02               0
GRID*               1777               06.9473684211E+023.7714285714E+02+
*       1.2545454545E+02               0
GRID*               1781               07.8157894737E+023.7714285714E+02+
*       1.2545454545E+02               0
GRID*               1785               08.6842105263E+023.7714285714E+02+
*       1.2545454545E+02               0
GRID*               1789               09.5526315789E+023.7714285714E+02+
*       1.2545454545E+02               0
GRID*               1793               01.0421052632E+033.7714285714E+02+
*       1.2545454545E+02               0
GRID*               1797               01.1289473684E+033.7714285714E+02+
*       1.2545454545E+02               0
GRID*               1801               01.2157894737E+033.7714285714E+02+
*       1.2545454545E+02               0
GRID*               1805               01.3026315789E+033.7714285714E+02+
*       1.2545454545E+02               0
GRID*               1809               01.3894736842E+033.7714285714E+02+
*       1.2545454545E+02               0
GRID*               1813               01.4763157895E+033.7714285714E+02+
*       1.2545454545E+02               0
GRID*               1817               01.5631578947E+033.7714285714E+02+
*       1.2545454545E+02               0
GRID*               1824               00.0000000000E+003.7714285714E+02+
*       4.1818181818E+01               0
GRID*               1825               08.6842105263E+013.7714285714E+02+
*       8.3636363636E+01               0
GRID*               1829               01.7368421053E+023.7714285714E+02+
*       8.3636363636E+01               0
GRID*               1833               02.6052631579E+023.7714285714E+02+
*       8.3636363636E+01               0
GRID*               1837               03.4736842105E+023.7714285714E+02+
*       8.3636363636E+01               0
GRID*               1841               04.3421052632E+023.7714285714E+02+
*       8.3636363636E+01               0
GRID*               1845               05.2105263158E+023.7714285714E+02+
*       8.3636363636E+01               0
GRID*               1849               06.0789473684E+023.7714285714E+02+
*       8.3636363636E+01               0
GRID*               1853               06.9473684211E+023.7714285714E+02+
*       8.3636363636E+01               0
GRID*               1857               07.8157894737E+023.7714285714E+02+
*       8.3636363636E+01               0
GRID*               1861               08.6842105263E+023.7714285714E+02+
*       8.3636363636E+01               0
GRID*               1865               09.5526315789E+023.7714285714E+02+
*       8.3636363636E+01               0
GRID*               1869               01.0421052632E+033.7714285714E+02+
*       8.3636363636E+01               0
GRID*               1873               01.1289473684E+033.7714285714E+02+
*       8.3636363636E+01               0
GRID*               1877               01.2157894737E+033.7714285714E+02+
*       8.3636363636E+01               0
GRID*               1881               01.3026315789E+033.7714285714E+02+
*       8.3636363636E+01               0
GRID*               1885               01.3894736842E+033.7714285714E+02+
*       8.3636363636E+01               0
GRID*               1889               01.4763157895E+033.7714285714E+02+
*       8.3636363636E+01               0
GRID*               1893               01.5631578947E+033.7714285714E+02+
*       8.3636363636E+01               0
GRID*               1901               08.6842105263E+013.7714285714E+02+
*       4.1818181818E+01               0
GRID*               1902               08.6842100000E+013.7714285714E+02+
*       -1.818181818E-05               0
GRID*               1905               01.7368421053E+023.7714285714E+02+
*       4.1818181818E+01               0
GRID*               1906               01.7368420526E+023.7714285714E+02+
*       -1.818181818E-05               0
GRID*               1965               01.4763157895E+033.7714285714E+02+
*       4.1818181818E+01               0
GRID*               1966               01.4763157842E+033.7714285714E+02+
*       -1.818181818E-05               0
GRID*               1969               01.5631578947E+033.7714285714E+02+
*       4.1818181818E+01               0
GRID*               1970               01.5631578895E+033.7714285714E+02+
*       -1.818181818E-05               0
GRID*               1974               01.6499999947E+033.7714285714E+02+
*       -1.818181818E-05               0
GRID*               1977               00.0000000000E+001.0371428571E+03+
*       4.1818181818E+02               0
GRID*               1978               08.6842105263E+011.0371428571E+03+
*       4.6000000000E+02               0
GRID*               1995               01.5631578947E+031.0371428571E+03+
*       4.6000000000E+02               0
GRID*               1999               01.7368421053E+021.0371428571E+03+
*       4.6000000000E+02               0
GRID*               2003               02.6052631579E+021.0371428571E+03+
*       4.6000000000E+02               0
GRID*               2007               03.4736842105E+021.0371428571E+03+
*       4.6000000000E+02               0
GRID*               2011               04.3421052632E+021.0371428571E+03+
*       4.6000000000E+02               0
GRID*               2015               05.2105263158E+021.0371428571E+03+
*       4.6000000000E+02               0
GRID*               2019               06.0789473684E+021.0371428571E+03+
*       4.6000000000E+02               0
GRID*               2023               06.9473684211E+021.0371428571E+03+
*       4.6000000000E+02               0
GRID*               2027               07.8157894737E+021.0371428571E+03+
*       4.6000000000E+02               0
GRID*               2031               08.6842105263E+021.0371428571E+03+
*       4.6000000000E+02               0
GRID*               2035               09.5526315789E+021.0371428571E+03+
*       4.6000000000E+02               0
GRID*               2039               01.0421052632E+031.0371428571E+03+
*       4.6000000000E+02               0
GRID*               2043               01.1289473684E+031.0371428571E+03+
*       4.6000000000E+02               0
GRID*               2047               01.2157894737E+031.0371428571E+03+
*       4.6000000000E+02               0
GRID*               2051               01.3026315789E+031.0371428571E+03+
*       4.6000000000E+02               0
GRID*               2055               01.3894736842E+031.0371428571E+03+
*       4.6000000000E+02               0
GRID*               2059               01.4763157895E+031.0371428571E+03+
*       4.6000000000E+02               0
GRID*               2066               00.0000000000E+001.0371428571E+03+
*       3.7636363636E+02               0
GRID*               2067               08.6842105263E+011.0371428571E+03+
*       4.1818181818E+02               0
GRID*               2071               01.7368421053E+021.0371428571E+03+
*       4.1818181818E+02               0
GRID*               2075               02.6052631579E+021.0371428571E+03+
*       4.1818181818E+02               0
GRID*               2079               03.4736842105E+021.0371428571E+03+
*       4.1818181818E+02               0
GRID*               2083               04.3421052632E+021.0371428571E+03+
*       4.1818181818E+02               0
GRID*               2087               05.2105263158E+021.0371428571E+03+
*       4.1818181818E+02               0
GRID*               2115               01.1289473684E+031.0371428571E+03+
*       4.1818181818E+02               0
GRID*               2119               01.2157894737E+031.0371428571E+03+
*       4.1818181818E+02               0
GRID*               2123               01.3026315789E+031.0371428571E+03+
*       4.1818181818E+02               0
GRID*               2127               01.3894736842E+031.0371428571E+03+
*       4.1818181818E+02               0
GRID*               2131               01.4763157895E+031.0371428571E+03+
*       4.1818181818E+02               0
GRID*               2135               01.5631578947E+031.0371428571E+03+
*       4.1818181818E+02               0
GRID*               2142               00.0000000000E+001.0371428571E+03+
*       3.3454545455E+02               0
GRID*               2143               08.6842105263E+011.0371428571E+03+
*       3.7636363636E+02               0
GRID*               2147               01.7368421053E+021.0371428571E+03+
*       3.7636363636E+02               0
GRID*               2151               02.6052631579E+021.0371428571E+03+
*       3.7636363636E+02               0
GRID*               2155               03.4736842105E+021.0371428571E+03+
*       3.7636363636E+02               0
GRID*               2159               04.3421052632E+021.0371428571E+03+
*       3.7636363636E+02               0
GRID*               2163               05.2105263158E+021.0371428571E+03+
*       3.7636363636E+02               0
GRID*               2191               01.1289473684E+031.0371428571E+03+
*       3.7636363636E+02               0
GRID*               2195               01.2157894737E+031.0371428571E+03+
*       3.7636363636E+02               0
GRID*               2199               01.3026315789E+031.0371428571E+03+
*       3.7636363636E+02               0
GRID*               2203               01.3894736842E+031.0371428571E+03+
*       3.7636363636E+02               0
GRID*               2207               01.4763157895E+031.0371428571E+03+
*       3.7636363636E+02               0
GRID*               2211               01.5631578947E+031.0371428571E+03+
*       3.7636363636E+02               0
GRID*               2218               00.0000000000E+001.0371428571E+03+
*       2.9272727273E+02               0
GRID*               2219               08.6842105263E+011.0371428571E+03+
*       3.3454545455E+02               0
GRID*               2223               01.7368421053E+021.0371428571E+03+
*       3.3454545455E+02               0
GRID*               2227               02.6052631579E+021.0371428571E+03+
*       3.3454545455E+02               0
GRID*               2231               03.4736842105E+021.0371428571E+03+
*       3.3454545455E+02               0
GRID*               2235               04.3421052632E+021.0371428571E+03+
*       3.3454545455E+02               0
GRID*               2239               05.2105263158E+021.0371428571E+03+
*       3.3454545455E+02               0
GRID*               2267               01.1289473684E+031.0371428571E+03+
*       3.3454545455E+02               0
GRID*               2271               01.2157894737E+031.0371428571E+03+
*       3.3454545455E+02               0
GRID*               2275               01.3026315789E+031.0371428571E+03+
*       3.3454545455E+02               0
GRID*               2279               01.3894736842E+031.0371428571E+03+
*       3.3454545455E+02               0
GRID*               2283               01.4763157895E+031.0371428571E+03+
*       3.3454545455E+02               0
GRID*               2287               01.5631578947E+031.0371428571E+03+
*       3.3454545455E+02               0
GRID*               2294               00.0000000000E+001.0371428571E+03+
*       2.5090909091E+02               0
GRID*               2295               08.6842105263E+011.0371428571E+03+
*       2.9272727273E+02               0
GRID*               2299               01.7368421053E+021.0371428571E+03+
*       2.9272727273E+02               0
GRID*               2311               04.3421052632E+021.0371428571E+03+
*       2.9272727273E+02               0
GRID*               2315               05.2105263158E+021.0371428571E+03+
*       2.9272727273E+02               0
GRID*               2343               01.1289473684E+031.0371428571E+03+
*       2.9272727273E+02               0
GRID*               2347               01.2157894737E+031.0371428571E+03+
*       2.9272727273E+02               0
GRID*               2359               01.4763157895E+031.0371428571E+03+
*       2.9272727273E+02               0
GRID*               2363               01.5631578947E+031.0371428571E+03+
*       2.9272727273E+02               0
GRID*               2370               00.0000000000E+001.0371428571E+03+
*       2.0909090909E+02               0
GRID*               2371               08.6842105263E+011.0371428571E+03+
*       2.5090909091E+02               0
GRID*               2375               01.7368421053E+021.0371428571E+03+
*       2.5090909091E+02               0
GRID*               2387               04.3421052632E+021.0371428571E+03+
*       2.5090909091E+02               0
GRID*               2391               05.2105263158E+021.0371428571E+03+
*       2.5090909091E+02               0
GRID*               2395               06.0789473684E+021.0371428571E+03+
*       2.5090909091E+02               0
GRID*               2399               06.9473684211E+021.0371428571E+03+
*       2.5090909091E+02               0
GRID*               2403               07.8157894737E+021.0371428571E+03+
*       2.5090909091E+02               0
GRID*               2407               08.6842105263E+021.0371428571E+03+
*       2.5090909091E+02               0
GRID*               2411               09.5526315789E+021.0371428571E+03+
*       2.5090909091E+02               0
GRID*               2415               01.0421052632E+031.0371428571E+03+
*       2.5090909091E+02               0
GRID*               2419               01.1289473684E+031.0371428571E+03+
*       2.5090909091E+02               0
GRID*               2423               01.2157894737E+031.0371428571E+03+
*       2.5090909091E+02               0
GRID*               2435               01.4763157895E+031.0371428571E+03+
*       2.5090909091E+02               0
GRID*               2439               01.5631578947E+031.0371428571E+03+
*       2.5090909091E+02               0
GRID*               2446               00.0000000000E+001.0371428571E+03+
*       1.6727272727E+02               0
GRID*               2447               08.6842105263E+011.0371428571E+03+
*       2.0909090909E+02               0
GRID*               2451               01.7368421053E+021.0371428571E+03+
*       2.0909090909E+02               0
GRID*               2463               04.3421052632E+021.0371428571E+03+
*       2.0909090909E+02               0
GRID*               2467               05.2105263158E+021.0371428571E+03+
*       2.0909090909E+02               0
GRID*               2471               06.0789473684E+021.0371428571E+03+
*       2.0909090909E+02               0
GRID*               2475               06.9473684211E+021.0371428571E+03+
*       2.0909090909E+02               0
GRID*               2479               07.8157894737E+021.0371428571E+03+
*       2.0909090909E+02               0
GRID*               2483               08.6842105263E+021.0371428571E+03+
*       2.0909090909E+02               0
GRID*               2487               09.5526315789E+021.0371428571E+03+
*       2.0909090909E+02               0
GRID*               2491               01.0421052632E+031.0371428571E+03+
*       2.0909090909E+02               0
GRID*               2495               01.1289473684E+031.0371428571E+03+
*       2.0909090909E+02               0
GRID*               2499               01.2157894737E+031.0371428571E+03+
*       2.0909090909E+02               0
GRID*               2511               01.4763157895E+031.0371428571E+03+
*       2.0909090909E+02               0
GRID*               2515               01.5631578947E+031.0371428571E+03+
*       2.0909090909E+02               0
GRID*               2522               00.0000000000E+001.0371428571E+03+
*       1.2545454545E+02               0
GRID*               2523               08.6842105263E+011.0371428571E+03+
*       1.6727272727E+02               0
GRID*               2527               01.7368421053E+021.0371428571E+03+
*       1.6727272727E+02               0
GRID*               2539               04.3421052632E+021.0371428571E+03+
*       1.6727272727E+02               0
GRID*               2543               05.2105263158E+021.0371428571E+03+
*       1.6727272727E+02               0
GRID*               2547               06.0789473684E+021.0371428571E+03+
*       1.6727272727E+02               0
GRID*               2551               06.9473684211E+021.0371428571E+03+
*       1.6727272727E+02               0
GRID*               2555               07.8157894737E+021.0371428571E+03+
*       1.6727272727E+02               0
GRID*               2559               08.6842105263E+021.0371428571E+03+
*       1.6727272727E+02               0
GRID*               2563               09.5526315789E+021.0371428571E+03+
*       1.6727272727E+02               0
GRID*               2567               01.0421052632E+031.0371428571E+03+
*       1.6727272727E+02               0
GRID*               2571               01.1289473684E+031.0371428571E+03+
*       1.6727272727E+02               0
GRID*               2575               01.2157894737E+031.0371428571E+03+
*       1.6727272727E+02               0
GRID*               2587               01.4763157895E+031.0371428571E+03+
*       1.6727272727E+02               0
GRID*               2591               01.5631578947E+031.0371428571E+03+
*       1.6727272727E+02               0
GRID*               2598               00.0000000000E+001.0371428571E+03+
*       8.3636363636E+01               0
GRID*               2599               08.6842105263E+011.0371428571E+03+
*       1.2545454545E+02               0
GRID*               2603               01.7368421053E+021.0371428571E+03+
*       1.2545454545E+02               0
GRID*               2607               02.6052631579E+021.0371428571E+03+
*       1.2545454545E+02               0
GRID*               2611               03.4736842105E+021.0371428571E+03+
*       1.2545454545E+02               0
GRID*               2615               04.3421052632E+021.0371428571E+03+
*       1.2545454545E+02               0
GRID*               2619               05.2105263158E+021.0371428571E+03+
*       1.2545454545E+02               0
GRID*               2623               06.0789473684E+021.0371428571E+03+
*       1.2545454545E+02               0
GRID*               2627               06.9473684211E+021.0371428571E+03+
*       1.2545454545E+02               0
GRID*               2631               07.8157894737E+021.0371428571E+03+
*       1.2545454545E+02               0
GRID*               2635               08.6842105263E+021.0371428571E+03+
*       1.2545454545E+02               0
GRID*               2639               09.5526315789E+021.0371428571E+03+
*       1.2545454545E+02               0
GRID*               2643               01.0421052632E+031.0371428571E+03+
*       1.2545454545E+02               0
GRID*               2647               01.1289473684E+031.0371428571E+03+
*       1.2545454545E+02               0
GRID*               2651               01.2157894737E+031.0371428571E+03+
*       1.2545454545E+02               0
GRID*               2655               01.3026315789E+031.0371428571E+03+
*       1.2545454545E+02               0
GRID*               2659               01.3894736842E+031.0371428571E+03+
*       1.2545454545E+02               0
GRID*               2663               01.4763157895E+031.0371428571E+03+
*       1.2545454545E+02               0
GRID*               2667               01.5631578947E+031.0371428571E+03+
*       1.2545454545E+02               0
GRID*               2674               00.0000000000E+001.0371428571E+03+
*       4.1818181818E+01               0
GRID*               2675               08.6842105263E+011.0371428571E+03+
*       8.3636363636E+01               0
GRID*               2679               01.7368421053E+021.0371428571E+03+
*       8.3636363636E+01               0
GRID*               2683               02.6052631579E+021.0371428571E+03+
*       8.3636363636E+01               0
GRID*               2687               03.4736842105E+021.0371428571E+03+
*       8.3636363636E+01               0
GRID*               2691               04.3421052632E+021.0371428571E+03+
*       8.3636363636E+01               0
GRID*               2695               05.2105263158E+021.0371428571E+03+
*       8.3636363636E+01               0
GRID*               2699               06.0789473684E+021.0371428571E+03+
*       8.3636363636E+01               0
GRID*               2703               06.9473684211E+021.0371428571E+03+
*       8.3636363636E+01               0
GRID*               2707               07.8157894737E+021.0371428571E+03+
*       8.3636363636E+01               0
GRID*               2711               08.6842105263E+021.0371428571E+03+
*       8.3636363636E+01               0
GRID*               2715               09.5526315789E+021.0371428571E+03+
*       8.3636363636E+01               0
GRID*               2719               01.0421052632E+031.0371428571E+03+
*       8.3636363636E+01               0
GRID*               2723               01.1289473684E+031.0371428571E+03+
*       8.3636363636E+01               0
GRID*               2727               01.2157894737E+031.0371428571E+03+
*       8.3636363636E+01               0
GRID*               2731               01.3026315789E+031.0371428571E+03+
*       8.3636363636E+01               0
GRID*               2735               01.3894736842E+031.0371428571E+03+
*       8.3636363636E+01               0
GRID*               2739               01.4763157895E+031.0371428571E+03+
*       8.3636363636E+01               0
GRID*               2743               01.5631578947E+031.0371428571E+03+
*       8.3636363636E+01               0
GRID*               2751               08.6842105263E+011.0371428571E+03+
*       4.1818181818E+01               0
GRID*               2752               08.6842100000E+011.0371428571E+03+
*       -1.818181818E-05               0
GRID*               2755               01.7368421053E+021.0371428571E+03+
*       4.1818181818E+01               0
GRID*               2756               01.7368420526E+021.0371428571E+03+
*       -1.818181818E-05               0
GRID*               2815               01.4763157895E+031.0371428571E+03+
*       4.1818181818E+01               0
GRID*               2816               01.4763157842E+031.0371428571E+03+
*       -1.818181818E-05               0
GRID*               2819               01.5631578947E+031.0371428571E+03+
*       4.1818181818E+01               0
GRID*               2820               01.5631578895E+031.0371428571E+03+
*       -1.818181818E-05               0
GRID*               2826               00.0000000000E+001.9800000000E+03+
*       4.1818181818E+02               0
GRID*               2827               08.6842105263E+011.9800000000E+03+
*       4.6000000000E+02               0
GRID*               2831               01.7368421053E+021.9800000000E+03+
*       4.6000000000E+02               0
GRID*               2835               02.6052631579E+021.9800000000E+03+
*       4.6000000000E+02               0
GRID*               2839               03.4736842105E+021.9800000000E+03+
*       4.6000000000E+02               0
GRID*               2843               04.3421052632E+021.9800000000E+03+
*       4.6000000000E+02               0
GRID*               2847               05.2105263158E+021.9800000000E+03+
*       4.6000000000E+02               0
GRID*               2851               06.0789473684E+021.9800000000E+03+
*       4.6000000000E+02               0
GRID*               2855               06.9473684211E+021.9800000000E+03+
*       4.6000000000E+02               0
GRID*               2859               07.8157894737E+021.9800000000E+03+
*       4.6000000000E+02               0
GRID*               2863               08.6842105263E+021.9800000000E+03+
*       4.6000000000E+02               0
GRID*               2867               09.5526315789E+021.9800000000E+03+
*       4.6000000000E+02               0
GRID*               2871               01.0421052632E+031.9800000000E+03+
*       4.6000000000E+02               0
GRID*               2875               01.1289473684E+031.9800000000E+03+
*       4.6000000000E+02               0
GRID*               2879               01.2157894737E+031.9800000000E+03+
*       4.6000000000E+02               0
GRID*               2883               01.3026315789E+031.9800000000E+03+
*       4.6000000000E+02               0
GRID*               2887               01.3894736842E+031.9800000000E+03+
*       4.6000000000E+02               0
GRID*               2891               01.4763157895E+031.9800000000E+03+
*       4.6000000000E+02               0
GRID*               2895               01.5631578947E+031.9800000000E+03+
*       4.6000000000E+02               0
GRID*               2902               00.0000000000E+001.9800000000E+03+
*       3.7636363636E+02               0
GRID*               2903               08.6842105263E+011.9800000000E+03+
*       4.1818181818E+02               0
GRID*               2907               01.7368421053E+021.9800000000E+03+
*       4.1818181818E+02               0
GRID*               2911               02.6052631579E+021.9800000000E+03+
*       4.1818181818E+02               0
GRID*               2915               03.4736842105E+021.9800000000E+03+
*       4.1818181818E+02               0
GRID*               2919               04.3421052632E+021.9800000000E+03+
*       4.1818181818E+02               0
GRID*               2923               05.2105263158E+021.9800000000E+03+
*       4.1818181818E+02               0
GRID*               2927               06.0789473684E+021.9800000000E+03+
*       4.1818181818E+02               0
GRID*               2931               06.9473684211E+021.9800000000E+03+
*       4.1818181818E+02               0
GRID*               2935               07.8157894737E+021.9800000000E+03+
*       4.1818181818E+02               0
GRID*               2939               08.6842105263E+021.9800000000E+03+
*       4.1818181818E+02               0
GRID*               2943               09.5526315789E+021.9800000000E+03+
*       4.1818181818E+02               0
GRID*               2947               01.0421052632E+031.9800000000E+03+
*       4.1818181818E+02               0
GRID*               2951               01.1289473684E+031.9800000000E+03+
*       4.1818181818E+02               0
GRID*               2955               01.2157894737E+031.9800000000E+03+
*       4.1818181818E+02               0
GRID*               2959               01.3026315789E+031.9800000000E+03+
*       4.1818181818E+02               0
GRID*               2963               01.3894736842E+031.9800000000E+03+
*       4.1818181818E+02               0
GRID*               2967               01.4763157895E+031.9800000000E+03+
*       4.1818181818E+02               0
GRID*               2971               01.5631578947E+031.9800000000E+03+
*       4.1818181818E+02               0
GRID*               2978               00.0000000000E+001.9800000000E+03+
*       3.3454545455E+02               0
GRID*               2979               08.6842105263E+011.9800000000E+03+
*       3.7636363636E+02               0
GRID*               2983               01.7368421053E+021.9800000000E+03+
*       3.7636363636E+02               0
GRID*               2987               02.6052631579E+021.9800000000E+03+
*       3.7636363636E+02               0
GRID*               2991               03.4736842105E+021.9800000000E+03+
*       3.7636363636E+02               0
GRID*               2995               04.3421052632E+021.9800000000E+03+
*       3.7636363636E+02               0
GRID*               2999               05.2105263158E+021.9800000000E+03+
*       3.7636363636E+02               0
GRID*               3003               06.0789473684E+021.9800000000E+03+
*       3.7636363636E+02               0
GRID*               3007               06.9473684211E+021.9800000000E+03+
*       3.7636363636E+02               0
GRID*               3011               07.8157894737E+021.9800000000E+03+
*       3.7636363636E+02               0
GRID*               3015               08.6842105263E+021.9800000000E+03+
*       3.7636363636E+02               0
GRID*               3019               09.5526315789E+021.9800000000E+03+
*       3.7636363636E+02               0
GRID*               3023               01.0421052632E+031.9800000000E+03+
*       3.7636363636E+02               0
GRID*               3027               01.1289473684E+031.9800000000E+03+
*       3.7636363636E+02               0
GRID*               3031               01.2157894737E+031.9800000000E+03+
*       3.7636363636E+02               0
GRID*               3035               01.3026315789E+031.9800000000E+03+
*       3.7636363636E+02               0
GRID*               3039               01.3894736842E+031.9800000000E+03+
*       3.7636363636E+02               0
GRID*               3043               01.4763157895E+031.9800000000E+03+
*       3.7636363636E+02               0
GRID*               3047               01.5631578947E+031.9800000000E+03+
*       3.7636363636E+02               0
GRID*               3054               00.0000000000E+001.9800000000E+03+
*       2.9272727273E+02               0
GRID*               3055               08.6842105263E+011.9800000000E+03+
*       3.3454545455E+02               0
GRID*               3059               01.7368421053E+021.9800000000E+03+
*       3.3454545455E+02               0
GRID*               3063               02.6052631579E+021.9800000000E+03+
*       3.3454545455E+02               0
GRID*               3067               03.4736842105E+021.9800000000E+03+
*       3.3454545455E+02               0
GRID*               3071               04.3421052632E+021.9800000000E+03+
*       3.3454545455E+02               0
GRID*               3075               05.2105263158E+021.9800000000E+03+
*       3.3454545455E+02               0
GRID*               3079               06.0789473684E+021.9800000000E+03+
*       3.3454545455E+02               0
GRID*               3083               06.9473684211E+021.9800000000E+03+
*       3.3454545455E+02               0
GRID*               3087               07.8157894737E+021.9800000000E+03+
*       3.3454545455E+02               0
GRID*               3091               08.6842105263E+021.9800000000E+03+
*       3.3454545455E+02               0
GRID*               3095               09.5526315789E+021.9800000000E+03+
*       3.3454545455E+02               0
GRID*               3099               01.0421052632E+031.9800000000E+03+
*       3.3454545455E+02               0
GRID*               3103               01.1289473684E+031.9800000000E+03+
*       3.3454545455E+02               0
GRID*               3107               01.2157894737E+031.9800000000E+03+
*       3.3454545455E+02               0
GRID*               3111               01.3026315789E+031.9800000000E+03+
*       3.3454545455E+02               0
GRID*               3115               01.3894736842E+031.9800000000E+03+
*       3.3454545455E+02               0
GRID*               3119               01.4763157895E+031.9800000000E+03+
*       3.3454545455E+02               0
GRID*               3123               01.5631578947E+031.9800000000E+03+
*       3.3454545455E+02               0
GRID*               3130               00.0000000000E+001.9800000000E+03+
*       2.5090909091E+02               0
GRID*               3131               08.6842105263E+011.9800000000E+03+
*       2.9272727273E+02               0
GRID*               3135               01.7368421053E+021.9800000000E+03+
*       2.9272727273E+02               0
GRID*               3147               04.3421052632E+021.9800000000E+03+
*       2.9272727273E+02               0
GRID*               3151               05.2105263158E+021.9800000000E+03+
*       2.9272727273E+02               0
GRID*               3155               06.0789473684E+021.9800000000E+03+
*       2.9272727273E+02               0
GRID*               3175               01.0421052632E+031.9800000000E+03+
*       2.9272727273E+02               0
GRID*               3179               01.1289473684E+031.9800000000E+03+
*       2.9272727273E+02               0
GRID*               3183               01.2157894737E+031.9800000000E+03+
*       2.9272727273E+02               0
GRID*               3195               01.4763157895E+031.9800000000E+03+
*       2.9272727273E+02               0
GRID*               3199               01.5631578947E+031.9800000000E+03+
*       2.9272727273E+02               0
GRID*               3206               00.0000000000E+001.9800000000E+03+
*       2.0909090909E+02               0
GRID*               3207               08.6842105263E+011.9800000000E+03+
*       2.5090909091E+02               0
GRID*               3211               01.7368421053E+021.9800000000E+03+
*       2.5090909091E+02               0
GRID*               3223               04.3421052632E+021.9800000000E+03+
*       2.5090909091E+02               0
GRID*               3227               05.2105263158E+021.9800000000E+03+
*       2.5090909091E+02               0
GRID*               3231               06.0789473684E+021.9800000000E+03+
*       2.5090909091E+02               0
GRID*               3251               01.0421052632E+031.9800000000E+03+
*       2.5090909091E+02               0
GRID*               3255               01.1289473684E+031.9800000000E+03+
*       2.5090909091E+02               0
GRID*               3259               01.2157894737E+031.9800000000E+03+
*       2.5090909091E+02               0
GRID*               3271               01.4763157895E+031.9800000000E+03+
*       2.5090909091E+02               0
GRID*               3275               01.5631578947E+031.9800000000E+03+
*       2.5090909091E+02               0
GRID*               3282               00.0000000000E+001.9800000000E+03+
*       1.6727272727E+02               0
GRID*               3283               08.6842105263E+011.9800000000E+03+
*       2.0909090909E+02               0
GRID*               3287               01.7368421053E+021.9800000000E+03+
*       2.0909090909E+02               0
GRID*               3299               04.3421052632E+021.9800000000E+03+
*       2.0909090909E+02               0
GRID*               3303               05.2105263158E+021.9800000000E+03+
*       2.0909090909E+02               0
GRID*               3307               06.0789473684E+021.9800000000E+03+
*       2.0909090909E+02               0
GRID*               3327               01.0421052632E+031.9800000000E+03+
*       2.0909090909E+02               0
GRID*               3331               01.1289473684E+031.9800000000E+03+
*       2.0909090909E+02               0
GRID*               3335               01.2157894737E+031.9800000000E+03+
*       2.0909090909E+02               0
GRID*               3347               01.4763157895E+031.9800000000E+03+
*       2.0909090909E+02               0
GRID*               3351               01.5631578947E+031.9800000000E+03+
*       2.0909090909E+02               0
GRID*               3358               00.0000000000E+001.9800000000E+03+
*       1.2545454545E+02               0
GRID*               3359               08.6842105263E+011.9800000000E+03+
*       1.6727272727E+02               0
GRID*               3363               01.7368421053E+021.9800000000E+03+
*       1.6727272727E+02               0
GRID*               3375               04.3421052632E+021.9800000000E+03+
*       1.6727272727E+02               0
GRID*               3379               05.2105263158E+021.9800000000E+03+
*       1.6727272727E+02               0
GRID*               3383               06.0789473684E+021.9800000000E+03+
*       1.6727272727E+02               0
GRID*               3403               01.0421052632E+031.9800000000E+03+
*       1.6727272727E+02               0
GRID*               3407               01.1289473684E+031.9800000000E+03+
*       1.6727272727E+02               0
GRID*               3411               01.2157894737E+031.9800000000E+03+
*       1.6727272727E+02               0
GRID*               3423               01.4763157895E+031.9800000000E+03+
*       1.6727272727E+02               0
GRID*               3427               01.5631578947E+031.9800000000E+03+
*       1.6727272727E+02               0
GRID*               3434               00.0000000000E+001.9800000000E+03+
*       8.3636363636E+01               0
GRID*               3435               08.6842105263E+011.9800000000E+03+
*       1.2545454545E+02               0
GRID*               3439               01.7368421053E+021.9800000000E+03+
*       1.2545454545E+02               0
GRID*               3443               02.6052631579E+021.9800000000E+03+
*       1.2545454545E+02               0
GRID*               3447               03.4736842105E+021.9800000000E+03+
*       1.2545454545E+02               0
GRID*               3451               04.3421052632E+021.9800000000E+03+
*       1.2545454545E+02               0
GRID*               3455               05.2105263158E+021.9800000000E+03+
*       1.2545454545E+02               0
GRID*               3459               06.0789473684E+021.9800000000E+03+
*       1.2545454545E+02               0
GRID*               3463               06.9473684211E+021.9800000000E+03+
*       1.2545454545E+02               0
GRID*               3467               07.8157894737E+021.9800000000E+03+
*       1.2545454545E+02               0
GRID*               3471               08.6842105263E+021.9800000000E+03+
*       1.2545454545E+02               0
GRID*               3475               09.5526315789E+021.9800000000E+03+
*       1.2545454545E+02               0
GRID*               3479               01.0421052632E+031.9800000000E+03+
*       1.2545454545E+02               0
GRID*               3483               01.1289473684E+031.9800000000E+03+
*       1.2545454545E+02               0
GRID*               3487               01.2157894737E+031.9800000000E+03+
*       1.2545454545E+02               0
GRID*               3491               01.3026315789E+031.9800000000E+03+
*       1.2545454545E+02               0
GRID*               3495               01.3894736842E+031.9800000000E+03+
*       1.2545454545E+02               0
GRID*               3499               01.4763157895E+031.9800000000E+03+
*       1.2545454545E+02               0
GRID*               3503               01.5631578947E+031.9800000000E+03+
*       1.2545454545E+02               0
GRID*               3510               00.0000000000E+001.9800000000E+03+
*       4.1818181818E+01               0
GRID*               3511               08.6842105263E+011.9800000000E+03+
*       8.3636363636E+01               0
GRID*               3515               01.7368421053E+021.9800000000E+03+
*       8.3636363636E+01               0
GRID*               3519               02.6052631579E+021.9800000000E+03+
*       8.3636363636E+01               0
GRID*               3523               03.4736842105E+021.9800000000E+03+
*       8.3636363636E+01               0
GRID*               3527               04.3421052632E+021.9800000000E+03+
*       8.3636363636E+01               0
GRID*               3531               05.2105263158E+021.9800000000E+03+
*       8.3636363636E+01               0
GRID*               3535               06.0789473684E+021.9800000000E+03+
*       8.3636363636E+01               0
GRID*               3539               06.9473684211E+021.9800000000E+03+
*       8.3636363636E+01               0
GRID*               3543               07.8157894737E+021.9800000000E+03+
*       8.3636363636E+01               0
GRID*               3547               08.6842105263E+021.9800000000E+03+
*       8.3636363636E+01               0
GRID*               3551               09.5526315789E+021.9800000000E+03+
*       8.3636363636E+01               0
GRID*               3555               01.0421052632E+031.9800000000E+03+
*       8.3636363636E+01               0
GRID*               3559               01.1289473684E+031.9800000000E+03+
*       8.3636363636E+01               0
GRID*               3563               01.2157894737E+031.9800000000E+03+
*       8.3636363636E+01               0
GRID*               3567               01.3026315789E+031.9800000000E+03+
*       8.3636363636E+01               0
GRID*               3571               01.3894736842E+031.9800000000E+03+
*       8.3636363636E+01               0
GRID*               3575               01.4763157895E+031.9800000000E+03+
*       8.3636363636E+01               0
GRID*               3579               01.5631578947E+031.9800000000E+03+
*       8.3636363636E+01               0
GRID*               3587               08.6842105263E+011.9800000000E+03+
*       4.1818181818E+01               0
GRID*               3588               08.6842100000E+011.9800000000E+03+
*       -1.818181818E-05               0
GRID*               3591               01.7368421053E+021.9800000000E+03+
*       4.1818181818E+01               0
GRID*               3592               01.7368420526E+021.9800000000E+03+
*       -1.818181818E-05               0
GRID*               3651               01.4763157895E+031.9800000000E+03+
*       4.1818181818E+01               0
GRID*               3652               01.4763157842E+031.9800000000E+03+
*       -1.818181818E-05               0
GRID*               3655               01.5631578947E+031.9800000000E+03+
*       4.1818181818E+01               0
GRID*               3656               01.5631578895E+031.9800000000E+03+
*       -1.818181818E-05               0
GRID*               3660               01.6499999947E+031.9800000000E+03+
*       -1.818181818E-05               0
GRID*               3662               00.0000000000E+001.6028571429E+03+
*       4.1818181818E+02               0
GRID*               3663               08.6842105263E+011.6028571429E+03+
*       4.6000000000E+02               0
GRID*               3667               01.7368421053E+021.6028571429E+03+
*       4.6000000000E+02               0
GRID*               3671               02.6052631579E+021.6028571429E+03+
*       4.6000000000E+02               0
GRID*               3675               03.4736842105E+021.6028571429E+03+
*       4.6000000000E+02               0
GRID*               3679               04.3421052632E+021.6028571429E+03+
*       4.6000000000E+02               0
GRID*               3683               05.2105263158E+021.6028571429E+03+
*       4.6000000000E+02               0
GRID*               3687               06.0789473684E+021.6028571429E+03+
*       4.6000000000E+02               0
GRID*               3691               06.9473684211E+021.6028571429E+03+
*       4.6000000000E+02               0
GRID*               3695               07.8157894737E+021.6028571429E+03+
*       4.6000000000E+02               0
GRID*               3699               08.6842105263E+021.6028571429E+03+
*       4.6000000000E+02               0
GRID*               3703               09.5526315789E+021.6028571429E+03+
*       4.6000000000E+02               0
GRID*               3707               01.0421052632E+031.6028571429E+03+
*       4.6000000000E+02               0
GRID*               3711               01.1289473684E+031.6028571429E+03+
*       4.6000000000E+02               0
GRID*               3715               01.2157894737E+031.6028571429E+03+
*       4.6000000000E+02               0
GRID*               3719               01.3026315789E+031.6028571429E+03+
*       4.6000000000E+02               0
GRID*               3723               01.3894736842E+031.6028571429E+03+
*       4.6000000000E+02               0
GRID*               3727               01.4763157895E+031.6028571429E+03+
*       4.6000000000E+02               0
GRID*               3731               01.5631578947E+031.6028571429E+03+
*       4.6000000000E+02               0
GRID*               3738               00.0000000000E+001.6028571429E+03+
*       3.7636363636E+02               0
GRID*               3739               08.6842105263E+011.6028571429E+03+
*       4.1818181818E+02               0
GRID*               3743               01.7368421053E+021.6028571429E+03+
*       4.1818181818E+02               0
GRID*               3747               02.6052631579E+021.6028571429E+03+
*       4.1818181818E+02               0
GRID*               3751               03.4736842105E+021.6028571429E+03+
*       4.1818181818E+02               0
GRID*               3755               04.3421052632E+021.6028571429E+03+
*       4.1818181818E+02               0
GRID*               3759               05.2105263158E+021.6028571429E+03+
*       4.1818181818E+02               0
GRID*               3763               06.0789473684E+021.6028571429E+03+
*       4.1818181818E+02               0
GRID*               3767               06.9473684211E+021.6028571429E+03+
*       4.1818181818E+02               0
GRID*               3771               07.8157894737E+021.6028571429E+03+
*       4.1818181818E+02               0
GRID*               3775               08.6842105263E+021.6028571429E+03+
*       4.1818181818E+02               0
GRID*               3779               09.5526315789E+021.6028571429E+03+
*       4.1818181818E+02               0
GRID*               3783               01.0421052632E+031.6028571429E+03+
*       4.1818181818E+02               0
GRID*               3787               01.1289473684E+031.6028571429E+03+
*       4.1818181818E+02               0
GRID*               3791               01.2157894737E+031.6028571429E+03+
*       4.1818181818E+02               0
GRID*               3795               01.3026315789E+031.6028571429E+03+
*       4.1818181818E+02               0
GRID*               3799               01.3894736842E+031.6028571429E+03+
*       4.1818181818E+02               0
GRID*               3803               01.4763157895E+031.6028571429E+03+
*       4.1818181818E+02               0
GRID*               3807               01.5631578947E+031.6028571429E+03+
*       4.1818181818E+02               0
GRID*               3814               00.0000000000E+001.6028571429E+03+
*       3.3454545455E+02               0
GRID*               3815               08.6842105263E+011.6028571429E+03+
*       3.7636363636E+02               0
GRID*               3819               01.7368421053E+021.6028571429E+03+
*       3.7636363636E+02               0
GRID*               3823               02.6052631579E+021.6028571429E+03+
*       3.7636363636E+02               0
GRID*               3827               03.4736842105E+021.6028571429E+03+
*       3.7636363636E+02               0
GRID*               3831               04.3421052632E+021.6028571429E+03+
*       3.7636363636E+02               0
GRID*               3835               05.2105263158E+021.6028571429E+03+
*       3.7636363636E+02               0
GRID*               3839               06.0789473684E+021.6028571429E+03+
*       3.7636363636E+02               0
GRID*               3843               06.9473684211E+021.6028571429E+03+
*       3.7636363636E+02               0
GRID*               3847               07.8157894737E+021.6028571429E+03+
*       3.7636363636E+02               0
GRID*               3851               08.6842105263E+021.6028571429E+03+
*       3.7636363636E+02               0
GRID*               3855               09.5526315789E+021.6028571429E+03+
*       3.7636363636E+02               0
GRID*               3859               01.0421052632E+031.6028571429E+03+
*       3.7636363636E+02               0
GRID*               3863               01.1289473684E+031.6028571429E+03+
*       3.7636363636E+02               0
GRID*               3867               01.2157894737E+031.6028571429E+03+
*       3.7636363636E+02               0
GRID*               3871               01.3026315789E+031.6028571429E+03+
*       3.7636363636E+02               0
GRID*               3875               01.3894736842E+031.6028571429E+03+
*       3.7636363636E+02               0
GRID*               3879               01.4763157895E+031.6028571429E+03+
*       3.7636363636E+02               0
GRID*               3883               01.5631578947E+031.6028571429E+03+
*       3.7636363636E+02               0
GRID*               3890               00.0000000000E+001.6028571429E+03+
*       2.9272727273E+02               0
GRID*               3891               08.6842105263E+011.6028571429E+03+
*       3.3454545455E+02               0
GRID*               3895               01.7368421053E+021.6028571429E+03+
*       3.3454545455E+02               0
GRID*               3899               02.6052631579E+021.6028571429E+03+
*       3.3454545455E+02               0
GRID*               3903               03.4736842105E+021.6028571429E+03+
*       3.3454545455E+02               0
GRID*               3907               04.3421052632E+021.6028571429E+03+
*       3.3454545455E+02               0
GRID*               3911               05.2105263158E+021.6028571429E+03+
*       3.3454545455E+02               0
GRID*               3915               06.0789473684E+021.6028571429E+03+
*       3.3454545455E+02               0
GRID*               3919               06.9473684211E+021.6028571429E+03+
*       3.3454545455E+02               0
GRID*               3923               07.8157894737E+021.6028571429E+03+
*       3.3454545455E+02               0
GRID*               3927               08.6842105263E+021.6028571429E+03+
*       3.3454545455E+02               0
GRID*               3931               09.5526315789E+021.6028571429E+03+
*       3.3454545455E+02               0
GRID*               3935               01.0421052632E+031.6028571429E+03+
*       3.3454545455E+02               0
GRID*               3939               01.1289473684E+031.6028571429E+03+
*       3.3454545455E+02               0
GRID*               3943               01.2157894737E+031.6028571429E+03+
*       3.3454545455E+02               0
GRID*               3947               01.3026315789E+031.6028571429E+03+
*       3.3454545455E+02               0
GRID*               3951               01.3894736842E+031.6028571429E+03+
*       3.3454545455E+02               0
GRID*               3955               01.4763157895E+031.6028571429E+03+
*       3.3454545455E+02               0
GRID*               3959               01.5631578947E+031.6028571429E+03+
*       3.3454545455E+02               0
GRID*               3966               00.0000000000E+001.6028571429E+03+
*       2.5090909091E+02               0
GRID*               3967               08.6842105263E+011.6028571429E+03+
*       2.9272727273E+02               0
GRID*               3971               01.7368421053E+021.6028571429E+03+
*       2.9272727273E+02               0
GRID*               3983               04.3421052632E+021.6028571429E+03+
*       2.9272727273E+02               0
GRID*               3987               05.2105263158E+021.6028571429E+03+
*       2.9272727273E+02               0
GRID*               3991               06.0789473684E+021.6028571429E+03+
*       2.9272727273E+02               0
GRID*               4011               01.0421052632E+031.6028571429E+03+
*       2.9272727273E+02               0
GRID*               4015               01.1289473684E+031.6028571429E+03+
*       2.9272727273E+02               0
GRID*               4019               01.2157894737E+031.6028571429E+03+
*       2.9272727273E+02               0
GRID*               4031               01.4763157895E+031.6028571429E+03+
*       2.9272727273E+02               0
GRID*               4035               01.5631578947E+031.6028571429E+03+
*       2.9272727273E+02               0
GRID*               4042               00.0000000000E+001.6028571429E+03+
*       2.0909090909E+02               0
GRID*               4043               08.6842105263E+011.6028571429E+03+
*       2.5090909091E+02               0
GRID*               4047               01.7368421053E+021.6028571429E+03+
*       2.5090909091E+02               0
GRID*               4059               04.3421052632E+021.6028571429E+03+
*       2.5090909091E+02               0
GRID*               4063               05.2105263158E+021.6028571429E+03+
*       2.5090909091E+02               0
GRID*               4067               06.0789473684E+021.6028571429E+03+
*       2.5090909091E+02               0
GRID*               4087               01.0421052632E+031.6028571429E+03+
*       2.5090909091E+02               0
GRID*               4091               01.1289473684E+031.6028571429E+03+
*       2.5090909091E+02               0
GRID*               4095               01.2157894737E+031.6028571429E+03+
*       2.5090909091E+02               0
GRID*               4107               01.4763157895E+031.6028571429E+03+
*       2.5090909091E+02               0
GRID*               4111               01.5631578947E+031.6028571429E+03+
*       2.5090909091E+02               0
GRID*               4118               00.0000000000E+001.6028571429E+03+
*       1.6727272727E+02               0
GRID*               4119               08.6842105263E+011.6028571429E+03+
*       2.0909090909E+02               0
GRID*               4123               01.7368421053E+021.6028571429E+03+
*       2.0909090909E+02               0
GRID*               4135               04.3421052632E+021.6028571429E+03+
*       2.0909090909E+02               0
GRID*               4139               05.2105263158E+021.6028571429E+03+
*       2.0909090909E+02               0
GRID*               4143               06.0789473684E+021.6028571429E+03+
*       2.0909090909E+02               0
GRID*               4163               01.0421052632E+031.6028571429E+03+
*       2.0909090909E+02               0
GRID*               4167               01.1289473684E+031.6028571429E+03+
*       2.0909090909E+02               0
GRID*               4171               01.2157894737E+031.6028571429E+03+
*       2.0909090909E+02               0
GRID*               4183               01.4763157895E+031.6028571429E+03+
*       2.0909090909E+02               0
GRID*               4187               01.5631578947E+031.6028571429E+03+
*       2.0909090909E+02               0
GRID*               4194               00.0000000000E+001.6028571429E+03+
*       1.2545454545E+02               0
GRID*               4195               08.6842105263E+011.6028571429E+03+
*       1.6727272727E+02               0
GRID*               4199               01.7368421053E+021.6028571429E+03+
*       1.6727272727E+02               0
GRID*               4211               04.3421052632E+021.6028571429E+03+
*       1.6727272727E+02               0
GRID*               4215               05.2105263158E+021.6028571429E+03+
*       1.6727272727E+02               0
GRID*               4219               06.0789473684E+021.6028571429E+03+
*       1.6727272727E+02               0
GRID*               4239               01.0421052632E+031.6028571429E+03+
*       1.6727272727E+02               0
GRID*               4243               01.1289473684E+031.6028571429E+03+
*       1.6727272727E+02               0
GRID*               4247               01.2157894737E+031.6028571429E+03+
*       1.6727272727E+02               0
GRID*               4259               01.4763157895E+031.6028571429E+03+
*       1.6727272727E+02               0
GRID*               4263               01.5631578947E+031.6028571429E+03+
*       1.6727272727E+02               0
GRID*               4270               00.0000000000E+001.6028571429E+03+
*       8.3636363636E+01               0
GRID*               4271               08.6842105263E+011.6028571429E+03+
*       1.2545454545E+02               0
GRID*               4275               01.7368421053E+021.6028571429E+03+
*       1.2545454545E+02               0
GRID*               4279               02.6052631579E+021.6028571429E+03+
*       1.2545454545E+02               0
GRID*               4283               03.4736842105E+021.6028571429E+03+
*       1.2545454545E+02               0
GRID*               4287               04.3421052632E+021.6028571429E+03+
*       1.2545454545E+02               0
GRID*               4291               05.2105263158E+021.6028571429E+03+
*       1.2545454545E+02               0
GRID*               4295               06.0789473684E+021.6028571429E+03+
*       1.2545454545E+02               0
GRID*               4299               06.9473684211E+021.6028571429E+03+
*       1.2545454545E+02               0
GRID*               4303               07.8157894737E+021.6028571429E+03+
*       1.2545454545E+02               0
GRID*               4307               08.6842105263E+021.6028571429E+03+
*       1.2545454545E+02               0
GRID*               4311               09.5526315789E+021.6028571429E+03+
*       1.2545454545E+02               0
GRID*               4315               01.0421052632E+031.6028571429E+03+
*       1.2545454545E+02               0
GRID*               4319               01.1289473684E+031.6028571429E+03+
*       1.2545454545E+02               0
GRID*               4323               01.2157894737E+031.6028571429E+03+
*       1.2545454545E+02               0
GRID*               4327               01.3026315789E+031.6028571429E+03+
*       1.2545454545E+02               0
GRID*               4331               01.3894736842E+031.6028571429E+03+
*       1.2545454545E+02               0
GRID*               4335               01.4763157895E+031.6028571429E+03+
*       1.2545454545E+02               0
GRID*               4339               01.5631578947E+031.6028571429E+03+
*       1.2545454545E+02               0
GRID*               4346               00.0000000000E+001.6028571429E+03+
*       4.1818181818E+01               0
GRID*               4347               08.6842105263E+011.6028571429E+03+
*       8.3636363636E+01               0
GRID*               4351               01.7368421053E+021.6028571429E+03+
*       8.3636363636E+01               0
GRID*               4355               02.6052631579E+021.6028571429E+03+
*       8.3636363636E+01               0
GRID*               4359               03.4736842105E+021.6028571429E+03+
*       8.3636363636E+01               0
GRID*               4363               04.3421052632E+021.6028571429E+03+
*       8.3636363636E+01               0
GRID*               4367               05.2105263158E+021.6028571429E+03+
*       8.3636363636E+01               0
GRID*               4371               06.0789473684E+021.6028571429E+03+
*       8.3636363636E+01               0
GRID*               4375               06.9473684211E+021.6028571429E+03+
*       8.3636363636E+01               0
GRID*               4379               07.8157894737E+021.6028571429E+03+
*       8.3636363636E+01               0
GRID*               4383               08.6842105263E+021.6028571429E+03+
*       8.3636363636E+01               0
GRID*               4387               09.5526315789E+021.6028571429E+03+
*       8.3636363636E+01               0
GRID*               4391               01.0421052632E+031.6028571429E+03+
*       8.3636363636E+01               0
GRID*               4395               01.1289473684E+031.6028571429E+03+
*       8.3636363636E+01               0
GRID*               4399               01.2157894737E+031.6028571429E+03+
*       8.3636363636E+01               0
GRID*               4403               01.3026315789E+031.6028571429E+03+
*       8.3636363636E+01               0
GRID*               4407               01.3894736842E+031.6028571429E+03+
*       8.3636363636E+01               0
GRID*               4411               01.4763157895E+031.6028571429E+03+
*       8.3636363636E+01               0
GRID*               4415               01.5631578947E+031.6028571429E+03+
*       8.3636363636E+01               0
GRID*               4423               08.6842105263E+011.6028571429E+03+
*       4.1818181818E+01               0
GRID*               4424               08.6842100000E+011.6028571429E+03+
*       -1.818181818E-05               0
GRID*               4427               01.7368421053E+021.6028571429E+03+
*       4.1818181818E+01               0
GRID*               4428               01.7368420526E+021.6028571429E+03+
*       -1.818181818E-05               0
GRID*               4487               01.4763157895E+031.6028571429E+03+
*       4.1818181818E+01               0
GRID*               4488               01.4763157842E+031.6028571429E+03+
*       -1.818181818E-05               0
GRID*               4491               01.5631578947E+031.6028571429E+03+
*       4.1818181818E+01               0
GRID*               4492               01.5631578895E+031.6028571429E+03+
*       -1.818181818E-05               0
GRID*               4496               01.6499999947E+031.6028571429E+03+
*       -1.818181818E-05               0
GRID*               4498               01.1289473684E+039.4285714286E+01+
*       4.6000000000E+02               0
GRID*               4499               01.1289473684E+031.8857142857E+02+
*       4.6000000000E+02               0
GRID*               4500               01.1289473684E+032.8285714286E+02+
*       4.6000000000E+02               0
GRID*               4501               01.1289473684E+034.7142857143E+02+
*       4.6000000000E+02               0
GRID*               4502               01.1289473684E+035.6571428571E+02+
*       4.6000000000E+02               0
GRID*               4503               01.1289473684E+036.6000000000E+02+
*       4.6000000000E+02               0
GRID*               4504               01.1289473684E+037.5428571429E+02+
*       4.6000000000E+02               0
GRID*               4505               01.1289473684E+038.4857142857E+02+
*       4.6000000000E+02               0
GRID*               4506               01.1289473684E+039.4285714286E+02+
*       4.6000000000E+02               0
GRID*               4507               01.1289473684E+031.1314285714E+03+
*       4.6000000000E+02               0
GRID*               4508               01.1289473684E+031.2257142857E+03+
*       4.6000000000E+02               0
GRID*               4509               01.1289473684E+031.3200000000E+03+
*       4.6000000000E+02               0
GRID*               4510               01.1289473684E+031.4142857143E+03+
*       4.6000000000E+02               0
GRID*               4511               01.1289473684E+031.5085714286E+03+
*       4.6000000000E+02               0
GRID*               4512               01.1289473684E+031.6971428571E+03+
*       4.6000000000E+02               0
GRID*               4513               01.1289473684E+031.7914285714E+03+
*       4.6000000000E+02               0
GRID*               4514               01.1289473684E+031.8857142857E+03+
*       4.6000000000E+02               0
GRID*               4520               05.2105263158E+029.4285714286E+01+
*       4.6000000000E+02               0
GRID*               4521               05.2105263158E+021.8857142857E+02+
*       4.6000000000E+02               0
GRID*               4522               05.2105263158E+022.8285714286E+02+
*       4.6000000000E+02               0
GRID*               4523               05.2105263158E+024.7142857143E+02+
*       4.6000000000E+02               0
GRID*               4524               05.2105263158E+025.6571428571E+02+
*       4.6000000000E+02               0
GRID*               4525               05.2105263158E+026.6000000000E+02+
*       4.6000000000E+02               0
GRID*               4526               05.2105263158E+027.5428571429E+02+
*       4.6000000000E+02               0
GRID*               4527               05.2105263158E+028.4857142857E+02+
*       4.6000000000E+02               0
GRID*               4528               05.2105263158E+029.4285714286E+02+
*       4.6000000000E+02               0
GRID*               4529               05.2105263158E+021.1314285714E+03+
*       4.6000000000E+02               0
GRID*               4530               05.2105263158E+021.2257142857E+03+
*       4.6000000000E+02               0
GRID*               4531               05.2105263158E+021.3200000000E+03+
*       4.6000000000E+02               0
GRID*               4532               05.2105263158E+021.4142857143E+03+
*       4.6000000000E+02               0
GRID*               4533               05.2105263158E+021.5085714286E+03+
*       4.6000000000E+02               0
GRID*               4534               05.2105263158E+021.6971428571E+03+
*       4.6000000000E+02               0
GRID*               4535               05.2105263158E+021.7914285714E+03+
*       4.6000000000E+02               0
GRID*               4536               05.2105263158E+021.8857142857E+03+
*       4.6000000000E+02               0
GRID*               4538               08.2500000000E+021.0371428571E+03+
*       3.9000000000E+02               0
GRID*               4548               0-3.300000000E+021.8857142857E+02+
*       2.3000000000E+02               0
GRID*               4549               0-3.300000000E+021.7914285714E+03+
*       2.3000000000E+02               0
GRID*               4550               01.9799999974E+031.7914285714E+03+
*       2.2999999091E+02               0
GRID*               4551               01.9799999974E+031.8857142857E+02+
*       2.2999999091E+02               0
GRID*               4552               08.2500000000E+022.5400000000E+01+
*       4.3460000000E+02               0
GRID*               4553               08.2500000000E+022.5400000000E+01+
*       3.5994545455E+02               0
GRID*               4554               08.2500000000E+022.5400000000E+01+
*       9.6363613636E+01               0
GRID*               4555               08.2500000000E+022.5400000000E+01+
*       1.4346000000E+03               0
GRID*               4574               02.6052631579E+021.0371428571E+03+
*       9.6000000000E+02               0
GRID*               4575               01.3894736842E+031.0371428571E+03+
*       9.6000000000E+02               0
GRID*               4576               01.3894736842E+031.7914285714E+03+
*       4.6000000000E+02               0
GRID*               4577               08.2500000000E+021.7914285714E+03+
*       4.6000000000E+02               0
GRID*               4578               02.6052631579E+021.7914285714E+03+
*       4.6000000000E+02               0
$*
$* ELEMENT CARDS
$*
$*  Mesh Collector: Length_Wise_Beams
$*  Mesh: 1d_manual_mesh(1)
CBEAM          1       1       1       3-1.00000  0.0000  0.0000
$*  Mesh Collector: Length_Wise_Beams
$*  Mesh: 1d_manual_mesh(2)
CBEAM          2       1       3       4-1.00000  0.0000  0.0000
$*  Mesh Collector: Length_Wise_Beams
$*  Mesh: 1d_manual_mesh(3)
CBEAM          3       1       4       5-1.00000  0.0000  0.0000
$*  Mesh Collector: Length_Wise_Beams
$*  Mesh: 1d_manual_mesh(4)
CBEAM          4       1       5       6-1.00000  0.0000  0.0000
$*  Mesh Collector: Length_Wise_Beams
$*  Mesh: 1d_manual_mesh(5)
CBEAM          5       1       6       7-1.00000  0.0000  0.0000
$*  Mesh Collector: Length_Wise_Beams
$*  Mesh: 1d_manual_mesh(6)
CBEAM          6       1       7       8-1.00000  0.0000  0.0000
$*  Mesh Collector: Length_Wise_Beams
$*  Mesh: 1d_manual_mesh(7)
CBEAM          7       1       9       81.000000  0.0000  0.0000
$*  Mesh Collector: Length_Wise_Beams
$*  Mesh: 1d_manual_mesh(8)
CBEAM          8       1       9      10-1.00000  0.0000  0.0000
$*  Mesh Collector: Length_Wise_Beams
$*  Mesh: 1d_manual_mesh(9)
CBEAM          9       1      10      11-1.00000  0.0000  0.0000
$*  Mesh Collector: Length_Wise_Beams
$*  Mesh: 1d_manual_mesh(10)
CBEAM         10       1      11      12-1.00000  0.0000  0.0000
$*  Mesh Collector: Length_Wise_Beams
$*  Mesh: 1d_manual_mesh(11)
CBEAM         11       1      12     112-1.00000  0.0000  0.0000
$*  Mesh Collector: Length_Wise_Beams
$*  Mesh: 1d_manual_mesh(12)
CBEAM         12       1     112      14-1.00000  0.0000  0.0000
$*  Mesh Collector: Length_Wise_Beams
$*  Mesh: 1d_manual_mesh(13)
CBEAM         13       1      15      141.000000  0.0000  0.0000
$*  Mesh Collector: Length_Wise_Beams
$*  Mesh: 1d_manual_mesh(14)
CBEAM         14       1      15      16-1.00000  0.0000  0.0000
$*  Mesh Collector: Length_Wise_Beams
$*  Mesh: 1d_manual_mesh(15)
CBEAM         15       1      16      17-1.00000  0.0000  0.0000
$*  Mesh Collector: Length_Wise_Beams
$*  Mesh: 1d_manual_mesh(16)
CBEAM         16       1      17      18-1.00000  0.0000  0.0000
$*  Mesh Collector: Length_Wise_Beams
$*  Mesh: 1d_manual_mesh(17)
CBEAM         17       1      18      19-1.00000  0.0000  0.0000
$*  Mesh Collector: Length_Wise_Beams
$*  Mesh: 1d_manual_mesh(18)
CBEAM         18       1      19      20-1.00000  0.0000  0.0000
$*  Mesh Collector: Length_Wise_Beams
$*  Mesh: 1d_manual_mesh(19)
CBEAM         19       1      20      21-1.00000  0.0000  0.0000
$*  Mesh Collector: Length_Wise_Beams
$*  Mesh: 1d_manual_mesh(20)
CBEAM         20       1      22      211.000000  0.0000  0.0000
$*  Mesh Collector: Length_Wise_Beams
$*  Mesh: 1d_manual_mesh(21)
CBEAM         21       1      22       2-1.00000  0.0000  0.0000
$*  Mesh Collector: Length_Wise_Beams
$*  Mesh: 1d_manual_mesh(16)_translated(1)
CBEAM         37       1      39      40-1.00000  0.0000  0.0000
$*  Mesh Collector: Length_Wise_Beams
$*  Mesh: 1d_manual_mesh(5)_translated(1)
CBEAM         27       1     226      29-1.00000  0.0000  0.0000
$*  Mesh Collector: Length_Wise_Beams
$*  Mesh: 1d_manual_mesh(20)_translated(1)
CBEAM         41       1      44      431.000000  0.0000  0.0000
$*  Mesh Collector: Length_Wise_Beams
$*  Mesh: 1d_manual_mesh(15)_translated(1)
CBEAM         36       1      38      39-1.00000  0.0000  0.0000
$*  Mesh Collector: Length_Wise_Beams
$*  Mesh: 1d_manual_mesh(13)_translated(1)
CBEAM         34       1      37      361.000000  0.0000  0.0000
$*  Mesh Collector: Length_Wise_Beams
$*  Mesh: 1d_manual_mesh(7)_translated(1)
CBEAM         26       1      31      301.000000  0.0000  0.0000
$*  Mesh Collector: Length_Wise_Beams
$*  Mesh: 1d_manual_mesh(9)_translated(1)
CBEAM         30       1      32      33-1.00000  0.0000  0.0000
$*  Mesh Collector: Length_Wise_Beams
$*  Mesh: 1d_manual_mesh(11)_translated(1)
CBEAM         32       1      34     266-1.00000  0.0000  0.0000
$*  Mesh Collector: Length_Wise_Beams
$*  Mesh: 1d_manual_mesh(1)_translated(1)
CBEAM         25       1      23      25-1.00000  0.0000  0.0000
$*  Mesh Collector: Length_Wise_Beams
$*  Mesh: 1d_manual_mesh(17)_translated(1)
CBEAM         38       1      40     286-1.00000  0.0000  0.0000
$*  Mesh Collector: Length_Wise_Beams
$*  Mesh: 1d_manual_mesh(19)_translated(1)
CBEAM         40       1      42      43-1.00000  0.0000  0.0000
$*  Mesh Collector: Length_Wise_Beams
$*  Mesh: 1d_manual_mesh(4)_translated(1)
CBEAM         23       1      27     226-1.00000  0.0000  0.0000
$*  Mesh Collector: Length_Wise_Beams
$*  Mesh: 1d_manual_mesh(2)_translated(1)
CBEAM         28       1      25      26-1.00000  0.0000  0.0000
$*  Mesh Collector: Length_Wise_Beams
$*  Mesh: 1d_manual_mesh(10)_translated(1)
CBEAM         31       1      33      34-1.00000  0.0000  0.0000
$*  Mesh Collector: Length_Wise_Beams
$*  Mesh: 1d_manual_mesh(8)_translated(1)
CBEAM         29       1      31      32-1.00000  0.0000  0.0000
$*  Mesh Collector: Length_Wise_Beams
$*  Mesh: 1d_manual_mesh(3)_translated(1)
CBEAM         24       1      26      27-1.00000  0.0000  0.0000
$*  Mesh Collector: Length_Wise_Beams
$*  Mesh: 1d_manual_mesh(12)_translated(1)
CBEAM         33       1     266      36-1.00000  0.0000  0.0000
$*  Mesh Collector: Length_Wise_Beams
$*  Mesh: 1d_manual_mesh(18)_translated(1)
CBEAM         39       1     286      42-1.00000  0.0000  0.0000
$*  Mesh Collector: Length_Wise_Beams
$*  Mesh: 1d_manual_mesh(21)_translated(1)
CBEAM         42       1      44     246-1.00000  0.0000  0.0000
$*  Mesh Collector: Length_Wise_Beams
$*  Mesh: 1d_manual_mesh(14)_translated(1)
CBEAM         35       1      37      38-1.00000  0.0000  0.0000
$*  Mesh Collector: Length_Wise_Beams
$*  Mesh: 1d_manual_mesh(6)_translated(1)
CBEAM         22       1      29      30-1.00000  0.0000  0.0000
$*  Mesh Collector: Length_Wise_Beams
$*  Mesh: 1d_manual_mesh(16)_translated(2)
CBEAM         72       1      61      62-1.00000  0.0000  0.0000
$*  Mesh Collector: Length_Wise_Beams
$*  Mesh: 1d_manual_mesh(5)_translated(2)
CBEAM         62       1    1974      51-1.000005.5821-8  0.0000
$*  Mesh Collector: Length_Wise_Beams
$*  Mesh: 1d_manual_mesh(7)_translated(2)
CBEAM         64       1      53      521.000000  0.0000  0.0000
$*  Mesh Collector: Length_Wise_Beams
$*  Mesh: 1d_manual_mesh(8)_translated(1)_translated(1)
CBEAM         80       1      75      76-1.00000  0.0000  0.0000
$*  Mesh Collector: Length_Wise_Beams
$*  Mesh: 1d_manual_mesh(18)_translated(1)_translated(1)
CBEAM         82       1     287      86-1.00000  0.0000  0.0000
$*  Mesh Collector: Length_Wise_Beams
$*  Mesh: 1d_manual_mesh(15)_translated(2)
CBEAM         53       1      60      61-1.00000  0.0000  0.0000
$*  Mesh Collector: Length_Wise_Beams
$*  Mesh: 1d_manual_mesh(9)_translated(2)
CBEAM         45       1      54      55-1.00000  0.0000  0.0000
$*  Mesh Collector: Length_Wise_Beams
$*  Mesh: 1d_manual_mesh(1)_translated(2)
CBEAM         76       1    1138      47-1.000005.5821-8  0.0000
$*  Mesh Collector: Length_Wise_Beams
$*  Mesh: 1d_manual_mesh(9)_translated(1)_translated(1)
CBEAM         46       1      76      77-1.00000  0.0000  0.0000
$*  Mesh Collector: Length_Wise_Beams
$*  Mesh: 1d_manual_mesh(18)_translated(2)
CBEAM         61       1    4496      64-1.000005.5821-8  0.0000
$*  Mesh Collector: Length_Wise_Beams
$*  Mesh: 1d_manual_mesh(5)_translated(1)_translated(1)
CBEAM         74       1     227      73-1.00000  0.0000  0.0000
$*  Mesh Collector: Length_Wise_Beams
$*  Mesh: 1d_manual_mesh(21)_translated(2)
CBEAM         66       1      66    3660-1.00000-5.582-8  0.0000
$*  Mesh Collector: Length_Wise_Beams
$*  Mesh: 1d_manual_mesh(15)_translated(1)_translated(1)
CBEAM         78       1      82      83-1.00000  0.0000  0.0000
$*  Mesh Collector: Length_Wise_Beams
$*  Mesh: 1d_manual_mesh(8)_translated(2)
CBEAM         47       1      53      54-1.00000  0.0000  0.0000
$*  Mesh Collector: Length_Wise_Beams
$*  Mesh: 1d_manual_mesh(14)_translated(2)
CBEAM         50       1      59      60-1.00000  0.0000  0.0000
$*  Mesh Collector: Length_Wise_Beams
$*  Mesh: 1d_manual_mesh(17)_translated(1)_translated(1)
CBEAM         71       1      84     287-1.00000  0.0000  0.0000
$*  Mesh Collector: Length_Wise_Beams
$*  Mesh: 1d_manual_mesh(16)_translated(1)_translated(1)
CBEAM         56       1      83      84-1.00000  0.0000  0.0000
$*  Mesh Collector: Length_Wise_Beams
$*  Mesh: 1d_manual_mesh(12)_translated(1)_translated(1)
CBEAM         65       1     267      80-1.00000  0.0000  0.0000
$*  Mesh Collector: Length_Wise_Beams
$*  Mesh: 1d_manual_mesh(14)_translated(1)_translated(1)
CBEAM         51       1      81      82-1.00000  0.0000  0.0000
$*  Mesh Collector: Length_Wise_Beams
$*  Mesh: 1d_manual_mesh(2)_translated(2)
CBEAM         57       1      47      48-1.00000  0.0000  0.0000
$*  Mesh Collector: Length_Wise_Beams
$*  Mesh: 1d_manual_mesh(6)_translated(2)
CBEAM         63       1      51      52-1.00000  0.0000  0.0000
$*  Mesh Collector: Length_Wise_Beams
$*  Mesh: 1d_manual_mesh(6)_translated(1)_translated(1)
CBEAM         54       1      73      74-1.00000  0.0000  0.0000
$*  Mesh Collector: Length_Wise_Beams
$*  Mesh: 1d_manual_mesh(7)_translated(1)_translated(1)
CBEAM         49       1      75      741.000000  0.0000  0.0000
$*  Mesh Collector: Length_Wise_Beams
$*  Mesh: 1d_manual_mesh(1)_translated(1)_translated(1)
CBEAM         69       1      67      69-1.00000  0.0000  0.0000
$*  Mesh Collector: Length_Wise_Beams
$*  Mesh: 1d_manual_mesh(4)_translated(1)_translated(1)
CBEAM         73       1      71     227-1.00000  0.0000  0.0000
$*  Mesh Collector: Length_Wise_Beams
$*  Mesh: 1d_manual_mesh(20)_translated(2)
CBEAM         43       1      66      651.000000  0.0000  0.0000
$*  Mesh Collector: Length_Wise_Beams
$*  Mesh: 1d_manual_mesh(13)_translated(2)
CBEAM         48       1      59      581.000000  0.0000  0.0000
$*  Mesh Collector: Length_Wise_Beams
$*  Mesh: 1d_manual_mesh(3)_translated(2)
CBEAM         60       1      48      49-1.00000  0.0000  0.0000
$*  Mesh Collector: Length_Wise_Beams
$*  Mesh: 1d_manual_mesh(11)_translated(2)
CBEAM         44       1      56      57-1.00000  0.0000  0.0000
$*  Mesh Collector: Length_Wise_Beams
$*  Mesh: 1d_manual_mesh(10)_translated(1)_translated(1)
CBEAM         77       1      77      78-1.00000  0.0000  0.0000
$*  Mesh Collector: Length_Wise_Beams
$*  Mesh: 1d_manual_mesh(19)_translated(2)
CBEAM         79       1      64      65-1.00000  0.0000  0.0000
$*  Mesh Collector: Length_Wise_Beams
$*  Mesh: 1d_manual_mesh(2)_translated(1)_translated(1)
CBEAM         59       1      69      70-1.00000  0.0000  0.0000
$*  Mesh Collector: Length_Wise_Beams
$*  Mesh: 1d_manual_mesh(3)_translated(1)_translated(1)
CBEAM         52       1      70      71-1.00000  0.0000  0.0000
$*  Mesh Collector: Length_Wise_Beams
$*  Mesh: 1d_manual_mesh(21)_translated(1)_translated(1)
CBEAM         81       1      88     247-1.00000  0.0000  0.0000
$*  Mesh Collector: Length_Wise_Beams
$*  Mesh: 1d_manual_mesh(10)_translated(2)
CBEAM         55       1      55      56-1.00000  0.0000  0.0000
$*  Mesh Collector: Length_Wise_Beams
$*  Mesh: 1d_manual_mesh(17)_translated(2)
CBEAM         58       1      62    4496-1.00000-5.582-8  0.0000
$*  Mesh Collector: Length_Wise_Beams
$*  Mesh: 1d_manual_mesh(20)_translated(1)_translated(1)
CBEAM         84       1      88      871.000000  0.0000  0.0000
$*  Mesh Collector: Length_Wise_Beams
$*  Mesh: 1d_manual_mesh(4)_translated(2)
CBEAM         75       1      49    1974-1.00000-5.582-8  0.0000
$*  Mesh Collector: Length_Wise_Beams
$*  Mesh: 1d_manual_mesh(13)_translated(1)_translated(1)
CBEAM         70       1      81      801.000000  0.0000  0.0000
$*  Mesh Collector: Length_Wise_Beams
$*  Mesh: 1d_manual_mesh(11)_translated(1)_translated(1)
CBEAM         68       1      78     267-1.00000  0.0000  0.0000
$*  Mesh Collector: Length_Wise_Beams
$*  Mesh: 1d_manual_mesh(19)_translated(1)_translated(1)
CBEAM         83       1      86      87-1.00000  0.0000  0.0000
$*  Mesh Collector: Length_Wise_Beams
$*  Mesh: 1d_manual_mesh(12)_translated(2)
CBEAM         67       1      57      58-1.00000  0.0000  0.0000
$*  Mesh Collector: Length_Wise_Beams
$*  Mesh: 1d_manual_mesh(22)
CBEAM         85       1       6    1824  0.00001.000000  0.0000
$*  Mesh Collector: Length_Wise_Beams
$*  Mesh: 1d_manual_mesh(23)
CBEAM         86       1    1824    1748  0.00001.000000  0.0000
$*  Mesh Collector: Length_Wise_Beams
$*  Mesh: 1d_manual_mesh(24)
CBEAM         87       1    1748    1672  0.00001.000000  0.0000
$*  Mesh Collector: Length_Wise_Beams
$*  Mesh: 1d_manual_mesh(25)
CBEAM         88       1    1672    1596  0.00001.000000  0.0000
$*  Mesh Collector: Length_Wise_Beams
$*  Mesh: 1d_manual_mesh(26)
CBEAM         89       1    1596    1520  0.00001.000000  0.0000
$*  Mesh Collector: Length_Wise_Beams
$*  Mesh: 1d_manual_mesh(27)
CBEAM         90       1    1520    1444  0.00001.000000  0.0000
$*  Mesh Collector: Length_Wise_Beams
$*  Mesh: 1d_manual_mesh(28)
CBEAM         91       1    1444    1368  0.00001.000000  0.0000
$*  Mesh Collector: Length_Wise_Beams
$*  Mesh: 1d_manual_mesh(29)
CBEAM         92       1    1368    1292  0.00001.000000  0.0000
$*  Mesh Collector: Length_Wise_Beams
$*  Mesh: 1d_manual_mesh(30)
CBEAM         93       1    1292    1216  0.00001.000000  0.0000
$*  Mesh Collector: Length_Wise_Beams
$*  Mesh: 1d_manual_mesh(31)
CBEAM         94       1    1216    1140  0.00001.000000  0.0000
$*  Mesh Collector: Length_Wise_Beams
$*  Mesh: 1d_manual_mesh(32)
CBEAM         95       1    1140     226  0.00001.000000  0.0000
$*  Mesh Collector: Length_Wise_Beams
$*  Mesh: 1d_manual_mesh(24)_translated(1)
CBEAM        103       1     912     836  0.00001.000000  0.0000
$*  Mesh Collector: Length_Wise_Beams
$*  Mesh: 1d_manual_mesh(25)_translated(1)
CBEAM        105       1     836     760  0.00001.000000  0.0000
$*  Mesh Collector: Length_Wise_Beams
$*  Mesh: 1d_manual_mesh(28)_translated(1)
CBEAM         98       1     608     532  0.00001.000000  0.0000
$*  Mesh Collector: Length_Wise_Beams
$*  Mesh: 1d_manual_mesh(29)_translated(1)
CBEAM         96       1     532     456  0.00001.000000  0.0000
$*  Mesh Collector: Length_Wise_Beams
$*  Mesh: 1d_manual_mesh(23)_translated(1)
CBEAM        102       1     988     912  0.00001.000000  0.0000
$*  Mesh Collector: Length_Wise_Beams
$*  Mesh: 1d_manual_mesh(30)_translated(1)
CBEAM         97       1     456     380  0.00001.000000  0.0000
$*  Mesh Collector: Length_Wise_Beams
$*  Mesh: 1d_manual_mesh(31)_translated(1)
CBEAM         99       1     380     111  0.00001.000000  0.0000
$*  Mesh Collector: Length_Wise_Beams
$*  Mesh: 1d_manual_mesh(32)_translated(1)
CBEAM        106       1     111      23  0.00001.000000  0.0000
$*  Mesh Collector: Length_Wise_Beams
$*  Mesh: 1d_manual_mesh(22)_translated(1)
CBEAM        101       1       1     988  0.00001.000000  0.0000
$*  Mesh Collector: Length_Wise_Beams
$*  Mesh: 1d_manual_mesh(27)_translated(1)
CBEAM        100       1     684     608  0.00001.000000  0.0000
$*  Mesh Collector: Length_Wise_Beams
$*  Mesh: 1d_manual_mesh(26)_translated(1)
CBEAM        104       1     760     684  0.00001.000000  0.0000
$*  Mesh Collector: Length_Wise_Beams
$*  Mesh: 1d_manual_mesh(22)_translated(1)_translated(1)
CBEAM        115       1     112    2674  0.00001.000000  0.0000
$*  Mesh Collector: Length_Wise_Beams
$*  Mesh: 1d_manual_mesh(32)_translated(1)_translated(1)
CBEAM        114       1    1977     266  0.00001.000000  0.0000
$*  Mesh Collector: Length_Wise_Beams
$*  Mesh: 1d_manual_mesh(30)_translated(1)_translated(1)
CBEAM        112       1    2142    2066  0.00001.000000  0.0000
$*  Mesh Collector: Length_Wise_Beams
$*  Mesh: 1d_manual_mesh(23)_translated(1)_translated(1)
CBEAM        111       1    2674    2598  0.00001.000000  0.0000
$*  Mesh Collector: Length_Wise_Beams
$*  Mesh: 1d_manual_mesh(29)_translated(1)_translated(1)
CBEAM        110       1    2218    2142  0.00001.000000  0.0000
$*  Mesh Collector: Length_Wise_Beams
$*  Mesh: 1d_manual_mesh(28)_translated(1)_translated(1)
CBEAM        109       1    2294    2218  0.00001.000000  0.0000
$*  Mesh Collector: Length_Wise_Beams
$*  Mesh: 1d_manual_mesh(25)_translated(1)_translated(1)
CBEAM        108       1    2522    2446  0.00001.000000  0.0000
$*  Mesh Collector: Length_Wise_Beams
$*  Mesh: 1d_manual_mesh(31)_translated(1)_translated(1)
CBEAM        113       1    2066    1977  0.00001.000000  0.0000
$*  Mesh Collector: Length_Wise_Beams
$*  Mesh: 1d_manual_mesh(27)_translated(1)_translated(1)
CBEAM        116       1    2370    2294  0.00001.000000  0.0000
$*  Mesh Collector: Length_Wise_Beams
$*  Mesh: 1d_manual_mesh(26)_translated(1)_translated(1)
CBEAM        117       1    2446    2370  0.00001.000000  0.0000
$*  Mesh Collector: Length_Wise_Beams
$*  Mesh: 1d_manual_mesh(24)_translated(1)_translated(1)
CBEAM        107       1    2598    2522  0.00001.000000  0.0000
$*  Mesh Collector: Length_Wise_Beams
$*  Mesh: 1d_manual_mesh(22)_translated(1)_translated(2)
CBEAM        126       1       2    3510  0.00001.000000  0.0000
$*  Mesh Collector: Length_Wise_Beams
$*  Mesh: 1d_manual_mesh(32)_translated(1)_translated(2)
CBEAM        125       1    2826     246  0.00001.000000  0.0000
$*  Mesh Collector: Length_Wise_Beams
$*  Mesh: 1d_manual_mesh(30)_translated(1)_translated(2)
CBEAM        123       1    2978    2902  0.00001.000000  0.0000
$*  Mesh Collector: Length_Wise_Beams
$*  Mesh: 1d_manual_mesh(23)_translated(1)_translated(2)
CBEAM        122       1    3510    3434  0.00001.000000  0.0000
$*  Mesh Collector: Length_Wise_Beams
$*  Mesh: 1d_manual_mesh(29)_translated(1)_translated(2)
CBEAM        121       1    3054    2978  0.00001.000000  0.0000
$*  Mesh Collector: Length_Wise_Beams
$*  Mesh: 1d_manual_mesh(28)_translated(1)_translated(2)
CBEAM        120       1    3130    3054  0.00001.000000  0.0000
$*  Mesh Collector: Length_Wise_Beams
$*  Mesh: 1d_manual_mesh(25)_translated(1)_translated(2)
CBEAM        119       1    3358    3282  0.00001.000000  0.0000
$*  Mesh Collector: Length_Wise_Beams
$*  Mesh: 1d_manual_mesh(31)_translated(1)_translated(2)
CBEAM        124       1    2902    2826  0.00001.000000  0.0000
$*  Mesh Collector: Length_Wise_Beams
$*  Mesh: 1d_manual_mesh(27)_translated(1)_translated(2)
CBEAM        127       1    3206    3130  0.00001.000000  0.0000
$*  Mesh Collector: Length_Wise_Beams
$*  Mesh: 1d_manual_mesh(26)_translated(1)_translated(2)
CBEAM        128       1    3282    3206  0.00001.000000  0.0000
$*  Mesh Collector: Length_Wise_Beams
$*  Mesh: 1d_manual_mesh(24)_translated(1)_translated(2)
CBEAM        118       1    3434    3358  0.00001.000000  0.0000
$*  Mesh Collector: Length_Wise_Beams
$*  Mesh: 1d_manual_mesh(22)_translated(1)_translated(3)
CBEAM        137       1      19    4346  0.00001.000000  0.0000
$*  Mesh Collector: Length_Wise_Beams
$*  Mesh: 1d_manual_mesh(32)_translated(1)_translated(3)
CBEAM        136       1    3662     286  0.00001.000000  0.0000
$*  Mesh Collector: Length_Wise_Beams
$*  Mesh: 1d_manual_mesh(30)_translated(1)_translated(3)
CBEAM        134       1    3814    3738  0.00001.000000  0.0000
$*  Mesh Collector: Length_Wise_Beams
$*  Mesh: 1d_manual_mesh(23)_translated(1)_translated(3)
CBEAM        133       1    4346    4270  0.00001.000000  0.0000
$*  Mesh Collector: Length_Wise_Beams
$*  Mesh: 1d_manual_mesh(29)_translated(1)_translated(3)
CBEAM        132       1    3890    3814  0.00001.000000  0.0000
$*  Mesh Collector: Length_Wise_Beams
$*  Mesh: 1d_manual_mesh(28)_translated(1)_translated(3)
CBEAM        131       1    3966    3890  0.00001.000000  0.0000
$*  Mesh Collector: Length_Wise_Beams
$*  Mesh: 1d_manual_mesh(25)_translated(1)_translated(3)
CBEAM        130       1    4194    4118  0.00001.000000  0.0000
$*  Mesh Collector: Length_Wise_Beams
$*  Mesh: 1d_manual_mesh(31)_translated(1)_translated(3)
CBEAM        135       1    3738    3662  0.00001.000000  0.0000
$*  Mesh Collector: Length_Wise_Beams
$*  Mesh: 1d_manual_mesh(27)_translated(1)_translated(3)
CBEAM        138       1    4042    3966  0.00001.000000  0.0000
$*  Mesh Collector: Length_Wise_Beams
$*  Mesh: 1d_manual_mesh(26)_translated(1)_translated(3)
CBEAM        139       1    4118    4042  0.00001.000000  0.0000
$*  Mesh Collector: Length_Wise_Beams
$*  Mesh: 1d_manual_mesh(24)_translated(1)_translated(3)
CBEAM        129       1    4270    4194  0.00001.000000  0.0000
$*  Mesh Collector: Length_Wise_Beams
$*  Mesh: 1d_manual_mesh(27)_translated(2)
CBEAM        184       1     154     155  0.00001.000000  0.0000
$*  Mesh Collector: Length_Wise_Beams
$*  Mesh: 1d_manual_mesh(30)_translated(1)_translated(1)_translated(1)
CBEAM        162       1     181     182  0.00001.000000  0.0000
$*  Mesh Collector: Length_Wise_Beams
$*  Mesh: 1d_manual_mesh(31)_translated(2)
CBEAM        164       1     158     159  0.00001.000000  0.0000
$*  Mesh Collector: Length_Wise_Beams
$*  Mesh: 1d_manual_mesh(28)_translated(1)_translated(1)_translated(1)
CBEAM        155       1     179     180  0.00001.000000  0.0000
$*  Mesh Collector: Length_Wise_Beams
$*  Mesh: 1d_manual_mesh(26)_translated(1)_translated(4)
CBEAM        145       1     165     166  0.00001.000000  0.0000
$*  Mesh Collector: Length_Wise_Beams
$*  Mesh: 1d_manual_mesh(22)_translated(1)_translated(4)
CBEAM        194       1    1138     162  0.00001.000000  0.0000
$*  Mesh Collector: Length_Wise_Beams
$*  Mesh: 1d_manual_mesh(25)_translated(2)
CBEAM        158       1     152     153  0.00001.000000  0.0000
$*  Mesh Collector: Length_Wise_Beams
$*  Mesh: 1d_manual_mesh(27)_translated(1)_translated(1)_translated(1)
CBEAM        169       1     178     179  0.00001.000000  0.0000
$*  Mesh Collector: Length_Wise_Beams
$*  Mesh: 1d_manual_mesh(23)_translated(1)_translated(4)
CBEAM        167       1     162     163  0.00001.000000  0.0000
$*  Mesh Collector: Length_Wise_Beams
$*  Mesh: 1d_manual_mesh(30)_translated(2)
CBEAM        152       1     157     158  0.00001.000000  0.0000
$*  Mesh Collector: Length_Wise_Beams
$*  Mesh: 1d_manual_mesh(23)_translated(1)_translated(2)_translated(1)
CBEAM        175       1     186     187  0.00001.000000  0.0000
$*  Mesh Collector: Length_Wise_Beams
$*  Mesh: 1d_manual_mesh(31)_translated(1)_translated(4)
CBEAM        159       1     170     171  0.00001.000000  0.0000
$*  Mesh Collector: Length_Wise_Beams
$*  Mesh: 1d_manual_mesh(25)_translated(1)_translated(3)_translated(1)
CBEAM        166       1     200     201  0.00001.000000  0.0000
$*  Mesh Collector: Length_Wise_Beams
$*  Mesh: 1d_manual_mesh(25)_translated(1)_translated(2)_translated(1)
CBEAM        181       1     188     189  0.00001.000000  0.0000
$*  Mesh Collector: Length_Wise_Beams
$*  Mesh: 1d_manual_mesh(26)_translated(1)_translated(3)_translated(1)
CBEAM        183       1     201     202  0.00001.000000  0.0000
$*  Mesh Collector: Length_Wise_Beams
$*  Mesh: 1d_manual_mesh(26)_translated(1)_translated(2)_translated(1)
CBEAM        140       1     189     190  0.00001.000000  0.0000
$*  Mesh Collector: Length_Wise_Beams
$*  Mesh: 1d_manual_mesh(28)_translated(2)
CBEAM        160       1     155     156  0.00001.000000  0.0000
$*  Mesh Collector: Length_Wise_Beams
$*  Mesh: 1d_manual_mesh(22)_translated(1)_translated(3)_translated(1)
CBEAM        191       1    4496     198  0.00001.000000  0.0000
$*  Mesh Collector: Length_Wise_Beams
$*  Mesh: 1d_manual_mesh(24)_translated(1)_translated(4)
CBEAM        144       1     163     164  0.00001.000000  0.0000
$*  Mesh Collector: Length_Wise_Beams
$*  Mesh: 1d_manual_mesh(23)_translated(1)_translated(1)_translated(1)
CBEAM        163       1     174     175  0.00001.000000  0.0000
$*  Mesh Collector: Length_Wise_Beams
$*  Mesh: 1d_manual_mesh(32)_translated(2)
CBEAM        186       1     159     227  0.00001.000000  0.0000
$*  Mesh Collector: Length_Wise_Beams
$*  Mesh: 1d_manual_mesh(29)_translated(1)_translated(1)_translated(1)
CBEAM        154       1     180     181  0.00001.000000  0.0000
$*  Mesh Collector: Length_Wise_Beams
$*  Mesh: 1d_manual_mesh(25)_translated(1)_translated(1)_translated(1)
CBEAM        157       1     176     177  0.00001.000000  0.0000
$*  Mesh Collector: Length_Wise_Beams
$*  Mesh: 1d_manual_mesh(32)_translated(1)_translated(3)_translated(1)
CBEAM        188       1     207     287  0.00001.000000  0.0000
$*  Mesh Collector: Length_Wise_Beams
$*  Mesh: 1d_manual_mesh(26)_translated(1)_translated(1)_translated(1)
CBEAM        171       1     177     178  0.00001.000000  0.0000
$*  Mesh Collector: Length_Wise_Beams
$*  Mesh: 1d_manual_mesh(28)_translated(1)_translated(4)
CBEAM        176       1     167     168  0.00001.000000  0.0000
$*  Mesh Collector: Length_Wise_Beams
$*  Mesh: 1d_manual_mesh(29)_translated(1)_translated(3)_translated(1)
CBEAM        142       1     204     205  0.00001.000000  0.0000
$*  Mesh Collector: Length_Wise_Beams
$*  Mesh: 1d_manual_mesh(29)_translated(1)_translated(2)_translated(1)
CBEAM        161       1     192     193  0.00001.000000  0.0000
$*  Mesh Collector: Length_Wise_Beams
$*  Mesh: 1d_manual_mesh(31)_translated(1)_translated(3)_translated(1)
CBEAM        146       1     206     207  0.00001.000000  0.0000
$*  Mesh Collector: Length_Wise_Beams
$*  Mesh: 1d_manual_mesh(31)_translated(1)_translated(2)_translated(1)
CBEAM        180       1     194     195  0.00001.000000  0.0000
$*  Mesh Collector: Length_Wise_Beams
$*  Mesh: 1d_manual_mesh(27)_translated(1)_translated(4)
CBEAM        173       1     166     167  0.00001.000000  0.0000
$*  Mesh Collector: Length_Wise_Beams
$*  Mesh: 1d_manual_mesh(24)_translated(1)_translated(3)_translated(1)
CBEAM        149       1     199     200  0.00001.000000  0.0000
$*  Mesh Collector: Length_Wise_Beams
$*  Mesh: 1d_manual_mesh(32)_translated(1)_translated(4)
CBEAM        185       1     171      67  0.00001.000000  0.0000
$*  Mesh Collector: Length_Wise_Beams
$*  Mesh: 1d_manual_mesh(32)_translated(1)_translated(1)_translated(1)
CBEAM        187       1     183     267  0.00001.000000  0.0000
$*  Mesh Collector: Length_Wise_Beams
$*  Mesh: 1d_manual_mesh(30)_translated(1)_translated(4)
CBEAM        168       1     169     170  0.00001.000000  0.0000
$*  Mesh Collector: Length_Wise_Beams
$*  Mesh: 1d_manual_mesh(29)_translated(1)_translated(4)
CBEAM        156       1     168     169  0.00001.000000  0.0000
$*  Mesh Collector: Length_Wise_Beams
$*  Mesh: 1d_manual_mesh(25)_translated(1)_translated(4)
CBEAM        153       1     164     165  0.00001.000000  0.0000
$*  Mesh Collector: Length_Wise_Beams
$*  Mesh: 1d_manual_mesh(22)_translated(1)_translated(1)_translated(1)
CBEAM        192       1      57     174  0.00001.000000  0.0000
$*  Mesh Collector: Length_Wise_Beams
$*  Mesh: 1d_manual_mesh(23)_translated(1)_translated(3)_translated(1)
CBEAM        177       1     198     199  0.00001.000000  0.0000
$*  Mesh Collector: Length_Wise_Beams
$*  Mesh: 1d_manual_mesh(22)_translated(2)
CBEAM        193       1    1974     150  0.00001.000000  0.0000
$*  Mesh Collector: Length_Wise_Beams
$*  Mesh: 1d_manual_mesh(26)_translated(2)
CBEAM        170       1     153     154  0.00001.000000  0.0000
$*  Mesh Collector: Length_Wise_Beams
$*  Mesh: 1d_manual_mesh(24)_translated(2)
CBEAM        182       1     151     152  0.00001.000000  0.0000
$*  Mesh Collector: Length_Wise_Beams
$*  Mesh: 1d_manual_mesh(24)_translated(1)_translated(2)_translated(1)
CBEAM        147       1     187     188  0.00001.000000  0.0000
$*  Mesh Collector: Length_Wise_Beams
$*  Mesh: 1d_manual_mesh(22)_translated(1)_translated(2)_translated(1)
CBEAM        190       1    3660     186  0.00001.000000  0.0000
$*  Mesh Collector: Length_Wise_Beams
$*  Mesh: 1d_manual_mesh(31)_translated(1)_translated(1)_translated(1)
CBEAM        165       1     182     183  0.00001.000000  0.0000
$*  Mesh Collector: Length_Wise_Beams
$*  Mesh: 1d_manual_mesh(30)_translated(1)_translated(3)_translated(1)
CBEAM        150       1     205     206  0.00001.000000  0.0000
$*  Mesh Collector: Length_Wise_Beams
$*  Mesh: 1d_manual_mesh(30)_translated(1)_translated(2)_translated(1)
CBEAM        151       1     193     194  0.00001.000000  0.0000
$*  Mesh Collector: Length_Wise_Beams
$*  Mesh: 1d_manual_mesh(24)_translated(1)_translated(1)_translated(1)
CBEAM        172       1     175     176  0.00001.000000  0.0000
$*  Mesh Collector: Length_Wise_Beams
$*  Mesh: 1d_manual_mesh(28)_translated(1)_translated(3)_translated(1)
CBEAM        143       1     203     204  0.00001.000000  0.0000
$*  Mesh Collector: Length_Wise_Beams
$*  Mesh: 1d_manual_mesh(28)_translated(1)_translated(2)_translated(1)
CBEAM        179       1     191     192  0.00001.000000  0.0000
$*  Mesh Collector: Length_Wise_Beams
$*  Mesh: 1d_manual_mesh(23)_translated(2)
CBEAM        178       1     150     151  0.00001.000000  0.0000
$*  Mesh Collector: Length_Wise_Beams
$*  Mesh: 1d_manual_mesh(29)_translated(2)
CBEAM        174       1     156     157  0.00001.000000  0.0000
$*  Mesh Collector: Length_Wise_Beams
$*  Mesh: 1d_manual_mesh(27)_translated(1)_translated(3)_translated(1)
CBEAM        141       1     202     203  0.00001.000000  0.0000
$*  Mesh Collector: Length_Wise_Beams
$*  Mesh: 1d_manual_mesh(32)_translated(1)_translated(2)_translated(1)
CBEAM        189       1     195     247  0.00001.000000  0.0000
$*  Mesh Collector: Length_Wise_Beams
$*  Mesh: 1d_manual_mesh(27)_translated(1)_translated(2)_translated(1)
CBEAM        148       1     190     191  0.00001.000000  0.0000
$*  Mesh Collector: Length_Wise_Beams
$*  Mesh: 1d_manual_mesh(33)
CBEAM        195       1      23     208  0.00001.000000  0.0000
$*  Mesh Collector: Length_Wise_Beams
$*  Mesh: 1d_manual_mesh(34)
CBEAM        196       1     208     309  0.00001.000000  0.0000
$*  Mesh Collector: Length_Wise_Beams
$*  Mesh: 1d_manual_mesh(35)
CBEAM        197       1     309     313  0.00001.000000  0.0000
$*  Mesh Collector: Length_Wise_Beams
$*  Mesh: 1d_manual_mesh(36)
CBEAM        198       1     313     317  0.00001.000000  0.0000
$*  Mesh Collector: Length_Wise_Beams
$*  Mesh: 1d_manual_mesh(37)
CBEAM        199       1     317     321  0.00001.000000  0.0000
$*  Mesh Collector: Length_Wise_Beams
$*  Mesh: 1d_manual_mesh(38)
CBEAM        200       1     321     325  0.00001.000000  0.0000
$*  Mesh Collector: Length_Wise_Beams
$*  Mesh: 1d_manual_mesh(39)
CBEAM        201       1     325     329  0.00001.000000  0.0000
$*  Mesh Collector: Length_Wise_Beams
$*  Mesh: 1d_manual_mesh(40)
CBEAM        202       1     329     333  0.00001.000000  0.0000
$*  Mesh Collector: Length_Wise_Beams
$*  Mesh: 1d_manual_mesh(41)
CBEAM        203       1     333     337  0.00001.000000  0.0000
$*  Mesh Collector: Length_Wise_Beams
$*  Mesh: 1d_manual_mesh(42)
CBEAM        204       1     337     341  0.00001.000000  0.0000
$*  Mesh Collector: Length_Wise_Beams
$*  Mesh: 1d_manual_mesh(43)
CBEAM        205       1     341     345  0.00001.000000  0.0000
$*  Mesh Collector: Length_Wise_Beams
$*  Mesh: 1d_manual_mesh(44)
CBEAM        206       1     345     349  0.00001.000000  0.0000
$*  Mesh Collector: Length_Wise_Beams
$*  Mesh: 1d_manual_mesh(45)
CBEAM        207       1     349     353  0.00001.000000  0.0000
$*  Mesh Collector: Length_Wise_Beams
$*  Mesh: 1d_manual_mesh(46)
CBEAM        208       1     353     357  0.00001.000000  0.0000
$*  Mesh Collector: Length_Wise_Beams
$*  Mesh: 1d_manual_mesh(47)
CBEAM        209       1     357     361  0.00001.000000  0.0000
$*  Mesh Collector: Length_Wise_Beams
$*  Mesh: 1d_manual_mesh(48)
CBEAM        210       1     361     365  0.00001.000000  0.0000
$*  Mesh Collector: Length_Wise_Beams
$*  Mesh: 1d_manual_mesh(49)
CBEAM        211       1     365     369  0.00001.000000  0.0000
$*  Mesh Collector: Length_Wise_Beams
$*  Mesh: 1d_manual_mesh(50)
CBEAM        212       1     369     373  0.00001.000000  0.0000
$*  Mesh Collector: Length_Wise_Beams
$*  Mesh: 1d_manual_mesh(51)
CBEAM        213       1     373      67  0.00001.000000  0.0000
$*  Mesh Collector: Length_Wise_Beams
$*  Mesh: 1d_manual_mesh(50)_translated(1)
CBEAM        216       1    1205    1209  0.00001.000000  0.0000
$*  Mesh Collector: Length_Wise_Beams
$*  Mesh: 1d_manual_mesh(44)_translated(1)
CBEAM        224       1    1181    1185  0.00001.000000  0.0000
$*  Mesh Collector: Length_Wise_Beams
$*  Mesh: 1d_manual_mesh(51)_translated(1)
CBEAM        231       1    1209     227  0.00001.000000  0.0000
$*  Mesh Collector: Length_Wise_Beams
$*  Mesh: 1d_manual_mesh(39)_translated(1)
CBEAM        214       1    1161    1165  0.00001.000000  0.0000
$*  Mesh Collector: Length_Wise_Beams
$*  Mesh: 1d_manual_mesh(38)_translated(1)
CBEAM        222       1    1157    1161  0.00001.000000  0.0000
$*  Mesh Collector: Length_Wise_Beams
$*  Mesh: 1d_manual_mesh(49)_translated(1)
CBEAM        221       1    1201    1205  0.00001.000000  0.0000
$*  Mesh Collector: Length_Wise_Beams
$*  Mesh: 1d_manual_mesh(42)_translated(1)
CBEAM        217       1    1173    1177  0.00001.000000  0.0000
$*  Mesh Collector: Length_Wise_Beams
$*  Mesh: 1d_manual_mesh(33)_translated(1)
CBEAM        232       1     226    1141  0.00001.000000  0.0000
$*  Mesh Collector: Length_Wise_Beams
$*  Mesh: 1d_manual_mesh(46)_translated(1)
CBEAM        228       1    1189    1193  0.00001.000000  0.0000
$*  Mesh Collector: Length_Wise_Beams
$*  Mesh: 1d_manual_mesh(37)_translated(1)
CBEAM        219       1    1153    1157  0.00001.000000  0.0000
$*  Mesh Collector: Length_Wise_Beams
$*  Mesh: 1d_manual_mesh(41)_translated(1)
CBEAM        229       1    1169    1173  0.00001.000000  0.0000
$*  Mesh Collector: Length_Wise_Beams
$*  Mesh: 1d_manual_mesh(47)_translated(1)
CBEAM        230       1    1193    1197  0.00001.000000  0.0000
$*  Mesh Collector: Length_Wise_Beams
$*  Mesh: 1d_manual_mesh(36)_translated(1)
CBEAM        227       1    1149    1153  0.00001.000000  0.0000
$*  Mesh Collector: Length_Wise_Beams
$*  Mesh: 1d_manual_mesh(43)_translated(1)
CBEAM        223       1    1177    1181  0.00001.000000  0.0000
$*  Mesh Collector: Length_Wise_Beams
$*  Mesh: 1d_manual_mesh(35)_translated(1)
CBEAM        218       1    1145    1149  0.00001.000000  0.0000
$*  Mesh Collector: Length_Wise_Beams
$*  Mesh: 1d_manual_mesh(40)_translated(1)
CBEAM        220       1    1165    1169  0.00001.000000  0.0000
$*  Mesh Collector: Length_Wise_Beams
$*  Mesh: 1d_manual_mesh(34)_translated(1)
CBEAM        226       1    1141    1145  0.00001.000000  0.0000
$*  Mesh Collector: Length_Wise_Beams
$*  Mesh: 1d_manual_mesh(45)_translated(1)
CBEAM        225       1    1185    1189  0.00001.000000  0.0000
$*  Mesh Collector: Length_Wise_Beams
$*  Mesh: 1d_manual_mesh(48)_translated(1)
CBEAM        215       1    1197    1201  0.00001.000000  0.0000
$*  Mesh Collector: Length_Wise_Beams
$*  Mesh: 1d_manual_mesh(50)_translated(2)
CBEAM        235       1    2891    2895  0.00001.000000  0.0000
$*  Mesh Collector: Length_Wise_Beams
$*  Mesh: 1d_manual_mesh(44)_translated(2)
CBEAM        243       1    2867    2871  0.00001.000000  0.0000
$*  Mesh Collector: Length_Wise_Beams
$*  Mesh: 1d_manual_mesh(51)_translated(2)
CBEAM        250       1    2895     247  0.00001.000000  0.0000
$*  Mesh Collector: Length_Wise_Beams
$*  Mesh: 1d_manual_mesh(39)_translated(2)
CBEAM        233       1    2847    2851  0.00001.000000  0.0000
$*  Mesh Collector: Length_Wise_Beams
$*  Mesh: 1d_manual_mesh(38)_translated(2)
CBEAM        241       1    2843    2847  0.00001.000000  0.0000
$*  Mesh Collector: Length_Wise_Beams
$*  Mesh: 1d_manual_mesh(49)_translated(2)
CBEAM        240       1    2887    2891  0.00001.000000  0.0000
$*  Mesh Collector: Length_Wise_Beams
$*  Mesh: 1d_manual_mesh(42)_translated(2)
CBEAM        236       1    2859    2863  0.00001.000000  0.0000
$*  Mesh Collector: Length_Wise_Beams
$*  Mesh: 1d_manual_mesh(33)_translated(2)
CBEAM        251       1     246    2827  0.00001.000000  0.0000
$*  Mesh Collector: Length_Wise_Beams
$*  Mesh: 1d_manual_mesh(46)_translated(2)
CBEAM        247       1    2875    2879  0.00001.000000  0.0000
$*  Mesh Collector: Length_Wise_Beams
$*  Mesh: 1d_manual_mesh(37)_translated(2)
CBEAM        238       1    2839    2843  0.00001.000000  0.0000
$*  Mesh Collector: Length_Wise_Beams
$*  Mesh: 1d_manual_mesh(41)_translated(2)
CBEAM        248       1    2855    2859  0.00001.000000  0.0000
$*  Mesh Collector: Length_Wise_Beams
$*  Mesh: 1d_manual_mesh(47)_translated(2)
CBEAM        249       1    2879    2883  0.00001.000000  0.0000
$*  Mesh Collector: Length_Wise_Beams
$*  Mesh: 1d_manual_mesh(36)_translated(2)
CBEAM        246       1    2835    2839  0.00001.000000  0.0000
$*  Mesh Collector: Length_Wise_Beams
$*  Mesh: 1d_manual_mesh(43)_translated(2)
CBEAM        242       1    2863    2867  0.00001.000000  0.0000
$*  Mesh Collector: Length_Wise_Beams
$*  Mesh: 1d_manual_mesh(35)_translated(2)
CBEAM        237       1    2831    2835  0.00001.000000  0.0000
$*  Mesh Collector: Length_Wise_Beams
$*  Mesh: 1d_manual_mesh(40)_translated(2)
CBEAM        239       1    2851    2855  0.00001.000000  0.0000
$*  Mesh Collector: Length_Wise_Beams
$*  Mesh: 1d_manual_mesh(34)_translated(2)
CBEAM        245       1    2827    2831  0.00001.000000  0.0000
$*  Mesh Collector: Length_Wise_Beams
$*  Mesh: 1d_manual_mesh(45)_translated(2)
CBEAM        244       1    2871    2875  0.00001.000000  0.0000
$*  Mesh Collector: Length_Wise_Beams
$*  Mesh: 1d_manual_mesh(48)_translated(2)
CBEAM        234       1    2883    2887  0.00001.000000  0.0000
$*  Mesh Collector: Length_Wise_Beams
$*  Mesh: 1d_manual_mesh(33)_translated(3)
CBEAM        270       1     266    1978  0.00001.000000  0.0000
$*  Mesh Collector: Length_Wise_Beams
$*  Mesh: 1d_manual_mesh(50)_translated(4)
CBEAM        280       1    3727    3731  0.00001.000000  0.0000
$*  Mesh Collector: Length_Wise_Beams
$*  Mesh: 1d_manual_mesh(44)_translated(4)
CBEAM        283       1    3703    3707  0.00001.000000  0.0000
$*  Mesh Collector: Length_Wise_Beams
$*  Mesh: 1d_manual_mesh(51)_translated(4)
CBEAM        288       1    3731     287  0.00001.000000  0.0000
$*  Mesh Collector: Length_Wise_Beams
$*  Mesh: 1d_manual_mesh(40)_translated(4)
CBEAM        274       1    3687    3691  0.00001.000000  0.0000
$*  Mesh Collector: Length_Wise_Beams
$*  Mesh: 1d_manual_mesh(39)_translated(4)
CBEAM        271       1    3683    3687  0.00001.000000  0.0000
$*  Mesh Collector: Length_Wise_Beams
$*  Mesh: 1d_manual_mesh(49)_translated(4)
CBEAM        281       1    3723    3727  0.00001.000000  0.0000
$*  Mesh Collector: Length_Wise_Beams
$*  Mesh: 1d_manual_mesh(42)_translated(4)
CBEAM        287       1    3695    3699  0.00001.000000  0.0000
$*  Mesh Collector: Length_Wise_Beams
$*  Mesh: 1d_manual_mesh(33)_translated(4)
CBEAM        289       1     286    3663  0.00001.000000  0.0000
$*  Mesh Collector: Length_Wise_Beams
$*  Mesh: 1d_manual_mesh(46)_translated(4)
CBEAM        285       1    3711    3715  0.00001.000000  0.0000
$*  Mesh Collector: Length_Wise_Beams
$*  Mesh: 1d_manual_mesh(37)_translated(4)
CBEAM        273       1    3675    3679  0.00001.000000  0.0000
$*  Mesh Collector: Length_Wise_Beams
$*  Mesh: 1d_manual_mesh(41)_translated(4)
CBEAM        278       1    3691    3695  0.00001.000000  0.0000
$*  Mesh Collector: Length_Wise_Beams
$*  Mesh: 1d_manual_mesh(47)_translated(4)
CBEAM        286       1    3715    3719  0.00001.000000  0.0000
$*  Mesh Collector: Length_Wise_Beams
$*  Mesh: 1d_manual_mesh(36)_translated(4)
CBEAM        277       1    3671    3675  0.00001.000000  0.0000
$*  Mesh Collector: Length_Wise_Beams
$*  Mesh: 1d_manual_mesh(43)_translated(4)
CBEAM        282       1    3699    3703  0.00001.000000  0.0000
$*  Mesh Collector: Length_Wise_Beams
$*  Mesh: 1d_manual_mesh(35)_translated(4)
CBEAM        272       1    3667    3671  0.00001.000000  0.0000
$*  Mesh Collector: Length_Wise_Beams
$*  Mesh: 1d_manual_mesh(38)_translated(4)
CBEAM        275       1    3679    3683  0.00001.000000  0.0000
$*  Mesh Collector: Length_Wise_Beams
$*  Mesh: 1d_manual_mesh(34)_translated(4)
CBEAM        276       1    3663    3667  0.00001.000000  0.0000
$*  Mesh Collector: Length_Wise_Beams
$*  Mesh: 1d_manual_mesh(45)_translated(4)
CBEAM        284       1    3707    3711  0.00001.000000  0.0000
$*  Mesh Collector: Length_Wise_Beams
$*  Mesh: 1d_manual_mesh(48)_translated(4)
CBEAM        279       1    3719    3723  0.00001.000000  0.0000
$*  Mesh Collector: Length_Wise_Beams
$*  Mesh: 1d_manual_mesh(50)_translated(5)
CBEAM        863       1    2059    1995  0.00001.000000  0.0000
$*  Mesh Collector: Length_Wise_Beams
$*  Mesh: 1d_manual_mesh(36)_translated(5)
CBEAM        740       1    2003    2007  0.00001.000000  0.0000
$*  Mesh Collector: Length_Wise_Beams
$*  Mesh: 1d_manual_mesh(45)_translated(5)
CBEAM        824       1    2039    2043  0.00001.000000  0.0000
$*  Mesh Collector: Length_Wise_Beams
$*  Mesh: 1d_manual_mesh(46)_translated(5)
CBEAM        825       1    2043    2047  0.00001.000000  0.0000
$*  Mesh Collector: Length_Wise_Beams
$*  Mesh: 1d_manual_mesh(42)_translated(5)
CBEAM        905       1    2027    2031  0.00001.000000  0.0000
$*  Mesh Collector: Length_Wise_Beams
$*  Mesh: 1d_manual_mesh(41)_translated(5)
CBEAM        753       1    2023    2027  0.00001.000000  0.0000
$*  Mesh Collector: Length_Wise_Beams
$*  Mesh: 1d_manual_mesh(34)_translated(5)
CBEAM        738       1    1978    1999  0.00001.000000  0.0000
$*  Mesh Collector: Length_Wise_Beams
$*  Mesh: 1d_manual_mesh(49)_translated(5)
CBEAM        861       1    2055    2059  0.00001.000000  0.0000
$*  Mesh Collector: Length_Wise_Beams
$*  Mesh: 1d_manual_mesh(40)_translated(5)
CBEAM        779       1    2019    2023  0.00001.000000  0.0000
$*  Mesh Collector: Length_Wise_Beams
$*  Mesh: 1d_manual_mesh(39)_translated(5)
CBEAM        766       1    2015    2019  0.00001.000000  0.0000
$*  Mesh Collector: Length_Wise_Beams
$*  Mesh: 1d_manual_mesh(51)_translated(5)
CBEAM        922       1    1995     267  0.00001.000000  0.0000
$*  Mesh Collector: Length_Wise_Beams
$*  Mesh: 1d_manual_mesh(43)_translated(5)
CBEAM        823       1    2031    2035  0.00001.000000  0.0000
$*  Mesh Collector: Length_Wise_Beams
$*  Mesh: 1d_manual_mesh(35)_translated(5)
CBEAM        714       1    1999    2003  0.00001.000000  0.0000
$*  Mesh Collector: Length_Wise_Beams
$*  Mesh: 1d_manual_mesh(37)_translated(5)
CBEAM        795       1    2007    2011  0.00001.000000  0.0000
$*  Mesh Collector: Length_Wise_Beams
$*  Mesh: 1d_manual_mesh(47)_translated(5)
CBEAM        892       1    2047    2051  0.00001.000000  0.0000
$*  Mesh Collector: Length_Wise_Beams
$*  Mesh: 1d_manual_mesh(48)_translated(5)
CBEAM        857       1    2051    2055  0.00001.000000  0.0000
$*  Mesh Collector: Length_Wise_Beams
$*  Mesh: 1d_manual_mesh(44)_translated(5)
CBEAM        820       1    2035    2039  0.00001.000000  0.0000
$*  Mesh Collector: Length_Wise_Beams
$*  Mesh: 1d_manual_mesh(38)_translated(5)
CBEAM        765       1    2011    2015  0.00001.000000  0.0000
$*  Mesh Collector: Length_Wise_Beams
$*  Mesh: 1d_manual_mesh(17)_translated(1)_translated(1)_translated(1)
CBEAM       1368       1    4511    3711-1.00000  0.0000  0.0000
$*  Mesh Collector: Length_Wise_Beams
$*  Mesh: 1d_manual_mesh(6)_translated(1)_translated(1)_translated(1)
CBEAM       1361       1    4501    4502-1.00000  0.0000  0.0000
$*  Mesh Collector: Length_Wise_Beams
$*  Mesh: 1d_manual_mesh(1)_translated(1)_translated(1)_translated(1)
CBEAM       1355       1     353    4498-1.00000  0.0000  0.0000
$*  Mesh Collector: Length_Wise_Beams
$*  Mesh: 1d_manual_mesh(5)_translated(1)_translated(1)_translated(1)
CBEAM       1363       1    1189    4501-1.00000  0.0000  0.0000
$*  Mesh Collector: Length_Wise_Beams
$*  Mesh: 1d_manual_mesh(15)_translated(1)_translated(1)_translated(1)
CBEAM       1366       1    4509    4510-1.00000  0.0000  0.0000
$*  Mesh Collector: Length_Wise_Beams
$*  Mesh: 1d_manual_mesh(21)_translated(1)_translated(1)_translated(1)
CBEAM       1372       1    4514    2875-1.00000  0.0000  0.0000
$*  Mesh Collector: Length_Wise_Beams
$*  Mesh: 1d_manual_mesh(14)_translated(1)_translated(1)_translated(1)
CBEAM       1364       1    4508    4509-1.00000  0.0000  0.0000
$*  Mesh Collector: Length_Wise_Beams
$*  Mesh: 1d_manual_mesh(8)_translated(1)_translated(1)_translated(1)
CBEAM       1357       1    4503    4504-1.00000  0.0000  0.0000
$*  Mesh Collector: Length_Wise_Beams
$*  Mesh: 1d_manual_mesh(19)_translated(1)_translated(1)_translated(1)
CBEAM       1371       1    4512    4513-1.00000  0.0000  0.0000
$*  Mesh Collector: Length_Wise_Beams
$*  Mesh: 1d_manual_mesh(4)_translated(1)_translated(1)_translated(1)
CBEAM       1356       1    4500    1189-1.00000  0.0000  0.0000
$*  Mesh Collector: Length_Wise_Beams
$*  Mesh: 1d_manual_mesh(3)_translated(1)_translated(1)_translated(1)
CBEAM       1354       1    4499    4500-1.00000  0.0000  0.0000
$*  Mesh Collector: Length_Wise_Beams
$*  Mesh: 1d_manual_mesh(12)_translated(1)_translated(1)_translated(1)
CBEAM       1369       1    2043    4507-1.00000  0.0000  0.0000
$*  Mesh Collector: Length_Wise_Beams
$*  Mesh: 1d_manual_mesh(7)_translated(1)_translated(1)_translated(1)
CBEAM       1358       1    4503    45021.000000  0.0000  0.0000
$*  Mesh Collector: Length_Wise_Beams
$*  Mesh: 1d_manual_mesh(10)_translated(1)_translated(1)_translated(1)
CBEAM       1360       1    4505    4506-1.00000  0.0000  0.0000
$*  Mesh Collector: Length_Wise_Beams
$*  Mesh: 1d_manual_mesh(11)_translated(1)_translated(1)_translated(1)
CBEAM       1362       1    4506    2043-1.00000  0.0000  0.0000
$*  Mesh Collector: Length_Wise_Beams
$*  Mesh: 1d_manual_mesh(9)_translated(1)_translated(1)_translated(1)
CBEAM       1359       1    4504    4505-1.00000  0.0000  0.0000
$*  Mesh Collector: Length_Wise_Beams
$*  Mesh: 1d_manual_mesh(2)_translated(1)_translated(1)_translated(1)
CBEAM       1353       1    4498    4499-1.00000  0.0000  0.0000
$*  Mesh Collector: Length_Wise_Beams
$*  Mesh: 1d_manual_mesh(20)_translated(1)_translated(1)_translated(1)
CBEAM       1370       1    4514    45131.000000  0.0000  0.0000
$*  Mesh Collector: Length_Wise_Beams
$*  Mesh: 1d_manual_mesh(16)_translated(1)_translated(1)_translated(1)
CBEAM       1367       1    4510    4511-1.00000  0.0000  0.0000
$*  Mesh Collector: Length_Wise_Beams
$*  Mesh: 1d_manual_mesh(18)_translated(1)_translated(1)_translated(1)
CBEAM       1373       1    3711    4512-1.00000  0.0000  0.0000
$*  Mesh Collector: Length_Wise_Beams
$*  Mesh: 1d_manual_mesh(13)_translated(1)_translated(1)_translated(1)
CBEAM       1365       1    4508    45071.000000  0.0000  0.0000
$*  Mesh Collector: Length_Wise_Beams
$*  Mesh: 1d_manual_mesh(20)_translated(1)_translated(2)
CBEAM       1392       1    4536    45351.000000  0.0000  0.0000
$*  Mesh Collector: Length_Wise_Beams
$*  Mesh: 1d_manual_mesh(7)_translated(1)_translated(2)
CBEAM       1379       1    4525    45241.000000  0.0000  0.0000
$*  Mesh Collector: Length_Wise_Beams
$*  Mesh: 1d_manual_mesh(1)_translated(1)_translated(2)
CBEAM       1374       1     325    4520-1.00000  0.0000  0.0000
$*  Mesh Collector: Length_Wise_Beams
$*  Mesh: 1d_manual_mesh(4)_translated(1)_translated(2)
CBEAM       1377       1    4522    1161-1.00000  0.0000  0.0000
$*  Mesh Collector: Length_Wise_Beams
$*  Mesh: 1d_manual_mesh(8)_translated(1)_translated(2)
CBEAM       1381       1    4525    4526-1.00000  0.0000  0.0000
$*  Mesh Collector: Length_Wise_Beams
$*  Mesh: 1d_manual_mesh(18)_translated(1)_translated(2)
CBEAM       1393       1    3683    4534-1.00000  0.0000  0.0000
$*  Mesh Collector: Length_Wise_Beams
$*  Mesh: 1d_manual_mesh(6)_translated(1)_translated(2)
CBEAM       1378       1    4523    4524-1.00000  0.0000  0.0000
$*  Mesh Collector: Length_Wise_Beams
$*  Mesh: 1d_manual_mesh(21)_translated(1)_translated(2)
CBEAM       1394       1    4536    2847-1.00000  0.0000  0.0000
$*  Mesh Collector: Length_Wise_Beams
$*  Mesh: 1d_manual_mesh(15)_translated(1)_translated(2)
CBEAM       1387       1    4531    4532-1.00000  0.0000  0.0000
$*  Mesh Collector: Length_Wise_Beams
$*  Mesh: 1d_manual_mesh(9)_translated(1)_translated(2)
CBEAM       1380       1    4526    4527-1.00000  0.0000  0.0000
$*  Mesh Collector: Length_Wise_Beams
$*  Mesh: 1d_manual_mesh(17)_translated(1)_translated(2)
CBEAM       1390       1    4533    3683-1.00000  0.0000  0.0000
$*  Mesh Collector: Length_Wise_Beams
$*  Mesh: 1d_manual_mesh(2)_translated(1)_translated(2)
CBEAM       1375       1    4520    4521-1.00000  0.0000  0.0000
$*  Mesh Collector: Length_Wise_Beams
$*  Mesh: 1d_manual_mesh(3)_translated(1)_translated(2)
CBEAM       1376       1    4521    4522-1.00000  0.0000  0.0000
$*  Mesh Collector: Length_Wise_Beams
$*  Mesh: 1d_manual_mesh(5)_translated(1)_translated(2)
CBEAM       1384       1    1161    4523-1.00000  0.0000  0.0000
$*  Mesh Collector: Length_Wise_Beams
$*  Mesh: 1d_manual_mesh(16)_translated(1)_translated(2)
CBEAM       1388       1    4532    4533-1.00000  0.0000  0.0000
$*  Mesh Collector: Length_Wise_Beams
$*  Mesh: 1d_manual_mesh(13)_translated(1)_translated(2)
CBEAM       1386       1    4530    45291.000000  0.0000  0.0000
$*  Mesh Collector: Length_Wise_Beams
$*  Mesh: 1d_manual_mesh(11)_translated(1)_translated(2)
CBEAM       1383       1    4528    2015-1.00000  0.0000  0.0000
$*  Mesh Collector: Length_Wise_Beams
$*  Mesh: 1d_manual_mesh(19)_translated(1)_translated(2)
CBEAM       1391       1    4534    4535-1.00000  0.0000  0.0000
$*  Mesh Collector: Length_Wise_Beams
$*  Mesh: 1d_manual_mesh(10)_translated(1)_translated(2)
CBEAM       1382       1    4527    4528-1.00000  0.0000  0.0000
$*  Mesh Collector: Length_Wise_Beams
$*  Mesh: 1d_manual_mesh(12)_translated(1)_translated(2)
CBEAM       1389       1    2015    4529-1.00000  0.0000  0.0000
$*  Mesh Collector: Length_Wise_Beams
$*  Mesh: 1d_manual_mesh(14)_translated(1)_translated(2)
CBEAM       1385       1    4530    4531-1.00000  0.0000  0.0000
$*  Mesh Collector: BulkHeads
$*  Mesh: 2d_manual_mesh(1)
CQUAD4       290       2     111     381     208      23
CQUAD4      1352       2    2135    1995     267     183
$*  Mesh Collector: BulkHeads
$*  Mesh: 2d_manual_mesh(1)_translated(1)
CQUAD4       291       2     381     385     309     208
$*  Mesh Collector: BulkHeads
$*  Mesh: 2d_manual_mesh(1)_translated(2)
CQUAD4       292       2     385     389     313     309
$*  Mesh Collector: BulkHeads
$*  Mesh: 2d_manual_mesh(1)_translated(3)
CQUAD4       293       2     389     393     317     313
$*  Mesh Collector: BulkHeads
$*  Mesh: 2d_manual_mesh(1)_translated(4)
CQUAD4       294       2     393     397     321     317
$*  Mesh Collector: BulkHeads
$*  Mesh: 2d_manual_mesh(1)_translated(5)
CQUAD4       295       2     397     401     325     321
$*  Mesh Collector: BulkHeads
$*  Mesh: 2d_manual_mesh(1)_translated(6)
CQUAD4       296       2     401     405     329     325
$*  Mesh Collector: BulkHeads
$*  Mesh: 2d_manual_mesh(1)_translated(7)
CQUAD4       297       2     405     409     333     329
$*  Mesh Collector: BulkHeads
$*  Mesh: 2d_manual_mesh(1)_translated(8)
CQUAD4       298       2     409     413     337     333
$*  Mesh Collector: BulkHeads
$*  Mesh: 2d_manual_mesh(1)_translated(9)
CQUAD4       299       2     413     417     341     337
$*  Mesh Collector: BulkHeads
$*  Mesh: 2d_manual_mesh(1)_translated(10)
CQUAD4       300       2     417     421     345     341
$*  Mesh Collector: BulkHeads
$*  Mesh: 2d_manual_mesh(1)_translated(11)
CQUAD4       301       2     421     425     349     345
$*  Mesh Collector: BulkHeads
$*  Mesh: 2d_manual_mesh(1)_translated(12)
CQUAD4       302       2     425     429     353     349
$*  Mesh Collector: BulkHeads
$*  Mesh: 2d_manual_mesh(1)_translated(13)
CQUAD4       303       2     429     433     357     353
$*  Mesh Collector: BulkHeads
$*  Mesh: 2d_manual_mesh(1)_translated(14)
CQUAD4       304       2     433     437     361     357
$*  Mesh Collector: BulkHeads
$*  Mesh: 2d_manual_mesh(1)_translated(15)
CQUAD4       305       2     437     441     365     361
$*  Mesh Collector: BulkHeads
$*  Mesh: 2d_manual_mesh(1)_translated(16)
CQUAD4       306       2     441     445     369     365
$*  Mesh Collector: BulkHeads
$*  Mesh: 2d_manual_mesh(1)_translated(17)
CQUAD4       307       2     445     449     373     369
$*  Mesh Collector: BulkHeads
$*  Mesh: 2d_manual_mesh(1)_translated(18)
CQUAD4       308       2     449     171      67     373
$*  Mesh Collector: BulkHeads
$*  Mesh: 2d_manual_mesh(1)_translated(13)_translated(1)
CQUAD4       429       2     505     509     433     429
$*  Mesh Collector: BulkHeads
$*  Mesh: 2d_manual_mesh(1)_translated(13)_translated(2)
CQUAD4       430       2     581     585     509     505
$*  Mesh Collector: BulkHeads
$*  Mesh: 2d_manual_mesh(1)_translated(13)_translated(3)
CQUAD4       431       2     657     661     585     581
$*  Mesh Collector: BulkHeads
$*  Mesh: 2d_manual_mesh(1)_translated(13)_translated(4)
CQUAD4       432       2     733     737     661     657
$*  Mesh Collector: BulkHeads
$*  Mesh: 2d_manual_mesh(1)_translated(13)_translated(5)
CQUAD4       433       2     809     813     737     733
$*  Mesh Collector: BulkHeads
$*  Mesh: 2d_manual_mesh(1)_translated(13)_translated(6)
CQUAD4       434       2     885     889     813     809
$*  Mesh Collector: BulkHeads
$*  Mesh: 2d_manual_mesh(1)_translated(13)_translated(7)
CQUAD4       435       2     961     965     889     885
$*  Mesh Collector: BulkHeads
$*  Mesh: 2d_manual_mesh(1)_translated(13)_translated(8)
CQUAD4       436       2    1037    1041     965     961
$*  Mesh Collector: BulkHeads
$*  Mesh: 2d_manual_mesh(1)_translated(16)_translated(1)
CQUAD4       459       2     517     521     445     441
$*  Mesh Collector: BulkHeads
$*  Mesh: 2d_manual_mesh(1)_translated(16)_translated(2)
CQUAD4       460       2     593     597     521     517
$*  Mesh Collector: BulkHeads
$*  Mesh: 2d_manual_mesh(1)_translated(16)_translated(8)
CQUAD4       466       2    1049    1053     977     973
$*  Mesh Collector: BulkHeads
$*  Mesh: 2d_manual_mesh(1)_translated(14)_translated(1)
CQUAD4       439       2     509     513     437     433
$*  Mesh Collector: BulkHeads
$*  Mesh: 2d_manual_mesh(1)_translated(14)_translated(2)
CQUAD4       440       2     585     589     513     509
$*  Mesh Collector: BulkHeads
$*  Mesh: 2d_manual_mesh(1)_translated(14)_translated(8)
CQUAD4       446       2    1041    1045     969     965
$*  Mesh Collector: BulkHeads
$*  Mesh: 2d_manual_mesh(1)_translated(18)_translated(1)
CQUAD4       479       2     525     170     171     449
$*  Mesh Collector: BulkHeads
$*  Mesh: 2d_manual_mesh(1)_translated(18)_translated(2)
CQUAD4       480       2     601     169     170     525
$*  Mesh Collector: BulkHeads
$*  Mesh: 2d_manual_mesh(1)_translated(18)_translated(3)
CQUAD4       481       2     677     168     169     601
$*  Mesh Collector: BulkHeads
$*  Mesh: 2d_manual_mesh(1)_translated(18)_translated(4)
CQUAD4       482       2     753     167     168     677
$*  Mesh Collector: BulkHeads
$*  Mesh: 2d_manual_mesh(1)_translated(18)_translated(5)
CQUAD4       483       2     829     166     167     753
$*  Mesh Collector: BulkHeads
$*  Mesh: 2d_manual_mesh(1)_translated(18)_translated(6)
CQUAD4       484       2     905     165     166     829
$*  Mesh Collector: BulkHeads
$*  Mesh: 2d_manual_mesh(1)_translated(18)_translated(7)
CQUAD4       485       2     981     164     165     905
$*  Mesh Collector: BulkHeads
$*  Mesh: 2d_manual_mesh(1)_translated(18)_translated(8)
CQUAD4       486       2    1057     163     164     981
$*  Mesh Collector: BulkHeads
$*  Mesh: 2d_manual_mesh(1)_translated(18)_translated(9)
CQUAD4       487       2    1133     162     163    1057
$*  Mesh Collector: BulkHeads
$*  Mesh: 2d_manual_mesh(1)_translated(18)_translated(10)
CQUAD4       488       2    1134    1138     162    1133
$*  Mesh Collector: BulkHeads
$*  Mesh: 2d_manual_mesh(1)_translated(11)_translated(1)
CQUAD4       489       2     497     501     425     421
$*  Mesh Collector: BulkHeads
$*  Mesh: 2d_manual_mesh(1)_translated(11)_translated(2)
CQUAD4       490       2     573     577     501     497
$*  Mesh Collector: BulkHeads
$*  Mesh: 2d_manual_mesh(1)_translated(11)_translated(8)
CQUAD4       496       2    1029    1033     957     953
$*  Mesh Collector: BulkHeads
$*  Mesh: 2d_manual_mesh(1)_translated(8)_translated(1)
CQUAD4       399       2     485     489     413     409
$*  Mesh Collector: BulkHeads
$*  Mesh: 2d_manual_mesh(1)_translated(8)_translated(2)
CQUAD4       400       2     561     565     489     485
$*  Mesh Collector: BulkHeads
$*  Mesh: 2d_manual_mesh(1)_translated(8)_translated(8)
CQUAD4       406       2    1017    1021     945     941
$*  Mesh Collector: BulkHeads
$*  Mesh: 2d_manual_mesh(1)_translated(5)_translated(1)
CQUAD4       359       2     473     477     401     397
$*  Mesh Collector: BulkHeads
$*  Mesh: 2d_manual_mesh(1)_translated(5)_translated(2)
CQUAD4       360       2     549     553     477     473
$*  Mesh Collector: BulkHeads
$*  Mesh: 2d_manual_mesh(1)_translated(5)_translated(3)
CQUAD4       361       2     625     629     553     549
$*  Mesh Collector: BulkHeads
$*  Mesh: 2d_manual_mesh(1)_translated(5)_translated(4)
CQUAD4       362       2     701     705     629     625
$*  Mesh Collector: BulkHeads
$*  Mesh: 2d_manual_mesh(1)_translated(5)_translated(5)
CQUAD4       363       2     777     781     705     701
$*  Mesh Collector: BulkHeads
$*  Mesh: 2d_manual_mesh(1)_translated(5)_translated(6)
CQUAD4       364       2     853     857     781     777
$*  Mesh Collector: BulkHeads
$*  Mesh: 2d_manual_mesh(1)_translated(5)_translated(7)
CQUAD4       365       2     929     933     857     853
$*  Mesh Collector: BulkHeads
$*  Mesh: 2d_manual_mesh(1)_translated(5)_translated(8)
CQUAD4       366       2    1005    1009     933     929
$*  Mesh Collector: BulkHeads
$*  Mesh: 2d_manual_mesh(1)_translated(12)_translated(1)
CQUAD4       419       2     501     505     429     425
$*  Mesh Collector: BulkHeads
$*  Mesh: 2d_manual_mesh(1)_translated(12)_translated(2)
CQUAD4       420       2     577     581     505     501
$*  Mesh Collector: BulkHeads
$*  Mesh: 2d_manual_mesh(1)_translated(12)_translated(3)
CQUAD4       421       2     653     657     581     577
$*  Mesh Collector: BulkHeads
$*  Mesh: 2d_manual_mesh(1)_translated(12)_translated(4)
CQUAD4       422       2     729     733     657     653
$*  Mesh Collector: BulkHeads
$*  Mesh: 2d_manual_mesh(1)_translated(12)_translated(5)
CQUAD4       423       2     805     809     733     729
$*  Mesh Collector: BulkHeads
$*  Mesh: 2d_manual_mesh(1)_translated(12)_translated(6)
CQUAD4       424       2     881     885     809     805
$*  Mesh Collector: BulkHeads
$*  Mesh: 2d_manual_mesh(1)_translated(12)_translated(7)
CQUAD4       425       2     957     961     885     881
$*  Mesh Collector: BulkHeads
$*  Mesh: 2d_manual_mesh(1)_translated(12)_translated(8)
CQUAD4       426       2    1033    1037     961     957
$*  Mesh Collector: BulkHeads
$*  Mesh: 2d_manual_mesh(1)_translated(3)_translated(1)
CQUAD4       339       2     465     469     393     389
$*  Mesh Collector: BulkHeads
$*  Mesh: 2d_manual_mesh(1)_translated(3)_translated(2)
CQUAD4       340       2     541     545     469     465
$*  Mesh Collector: BulkHeads
$*  Mesh: 2d_manual_mesh(1)_translated(3)_translated(8)
CQUAD4       346       2     997    1001     925     921
$*  Mesh Collector: BulkHeads
$*  Mesh: 2d_manual_mesh(1)_translated(10)_translated(1)
CQUAD4       409       2     493     497     421     417
$*  Mesh Collector: BulkHeads
$*  Mesh: 2d_manual_mesh(1)_translated(10)_translated(2)
CQUAD4       410       2     569     573     497     493
$*  Mesh Collector: BulkHeads
$*  Mesh: 2d_manual_mesh(1)_translated(10)_translated(8)
CQUAD4       416       2    1025    1029     953     949
$*  Mesh Collector: BulkHeads
$*  Mesh: 2d_manual_mesh(1)_translated(17)_translated(1)
CQUAD4       469       2     521     525     449     445
$*  Mesh Collector: BulkHeads
$*  Mesh: 2d_manual_mesh(1)_translated(17)_translated(2)
CQUAD4       470       2     597     601     525     521
$*  Mesh Collector: BulkHeads
$*  Mesh: 2d_manual_mesh(1)_translated(17)_translated(3)
CQUAD4       471       2     673     677     601     597
$*  Mesh Collector: BulkHeads
$*  Mesh: 2d_manual_mesh(1)_translated(17)_translated(4)
CQUAD4       472       2     749     753     677     673
$*  Mesh Collector: BulkHeads
$*  Mesh: 2d_manual_mesh(1)_translated(17)_translated(5)
CQUAD4       473       2     825     829     753     749
$*  Mesh Collector: BulkHeads
$*  Mesh: 2d_manual_mesh(1)_translated(17)_translated(6)
CQUAD4       474       2     901     905     829     825
$*  Mesh Collector: BulkHeads
$*  Mesh: 2d_manual_mesh(1)_translated(17)_translated(7)
CQUAD4       475       2     977     981     905     901
$*  Mesh Collector: BulkHeads
$*  Mesh: 2d_manual_mesh(1)_translated(17)_translated(8)
CQUAD4       476       2    1053    1057     981     977
$*  Mesh Collector: BulkHeads
$*  Mesh: 2d_manual_mesh(1)_translated(17)_translated(9)
CQUAD4       477       2    1129    1133    1057    1053
$*  Mesh Collector: BulkHeads
$*  Mesh: 2d_manual_mesh(1)_translated(17)_translated(10)
CQUAD4       478       2    1130    1134    1133    1129
$*  Mesh Collector: BulkHeads
$*  Mesh: 2d_manual_mesh(1)_translated(6)_translated(1)
CQUAD4       369       2     477     481     405     401
$*  Mesh Collector: BulkHeads
$*  Mesh: 2d_manual_mesh(1)_translated(6)_translated(2)
CQUAD4       370       2     553     557     481     477
$*  Mesh Collector: BulkHeads
$*  Mesh: 2d_manual_mesh(1)_translated(6)_translated(3)
CQUAD4       371       2     629     633     557     553
$*  Mesh Collector: BulkHeads
$*  Mesh: 2d_manual_mesh(1)_translated(6)_translated(4)
CQUAD4       372       2     705     709     633     629
$*  Mesh Collector: BulkHeads
$*  Mesh: 2d_manual_mesh(1)_translated(6)_translated(5)
CQUAD4       373       2     781     785     709     705
$*  Mesh Collector: BulkHeads
$*  Mesh: 2d_manual_mesh(1)_translated(6)_translated(6)
CQUAD4       374       2     857     861     785     781
$*  Mesh Collector: BulkHeads
$*  Mesh: 2d_manual_mesh(1)_translated(6)_translated(7)
CQUAD4       375       2     933     937     861     857
$*  Mesh Collector: BulkHeads
$*  Mesh: 2d_manual_mesh(1)_translated(6)_translated(8)
CQUAD4       376       2    1009    1013     937     933
$*  Mesh Collector: BulkHeads
$*  Mesh: 2d_manual_mesh(1)_translated(1)_translated(1)
CQUAD4       319       2     457     461     385     381
$*  Mesh Collector: BulkHeads
$*  Mesh: 2d_manual_mesh(1)_translated(1)_translated(2)
CQUAD4       320       2     533     537     461     457
$*  Mesh Collector: BulkHeads
$*  Mesh: 2d_manual_mesh(1)_translated(1)_translated(3)
CQUAD4       321       2     609     613     537     533
$*  Mesh Collector: BulkHeads
$*  Mesh: 2d_manual_mesh(1)_translated(1)_translated(4)
CQUAD4       322       2     685     689     613     609
$*  Mesh Collector: BulkHeads
$*  Mesh: 2d_manual_mesh(1)_translated(1)_translated(5)
CQUAD4       323       2     761     765     689     685
$*  Mesh Collector: BulkHeads
$*  Mesh: 2d_manual_mesh(1)_translated(1)_translated(6)
CQUAD4       324       2     837     841     765     761
$*  Mesh Collector: BulkHeads
$*  Mesh: 2d_manual_mesh(1)_translated(1)_translated(7)
CQUAD4       325       2     913     917     841     837
$*  Mesh Collector: BulkHeads
$*  Mesh: 2d_manual_mesh(1)_translated(1)_translated(8)
CQUAD4       326       2     989     993     917     913
$*  Mesh Collector: BulkHeads
$*  Mesh: 2d_manual_mesh(1)_translated(1)_translated(9)
CQUAD4       327       2    1065    1069     993     989
$*  Mesh Collector: BulkHeads
$*  Mesh: 2d_manual_mesh(1)_translated(1)_translated(10)
CQUAD4       328       2    1066    1070    1069    1065
$*  Mesh Collector: BulkHeads
$*  Mesh: 2d_manual_mesh(1)_translated(2)_translated(1)
CQUAD4       329       2     461     465     389     385
$*  Mesh Collector: BulkHeads
$*  Mesh: 2d_manual_mesh(1)_translated(2)_translated(2)
CQUAD4       330       2     537     541     465     461
$*  Mesh Collector: BulkHeads
$*  Mesh: 2d_manual_mesh(1)_translated(2)_translated(8)
CQUAD4       336       2     993     997     921     917
$*  Mesh Collector: BulkHeads
$*  Mesh: 2d_manual_mesh(1)_translated(9)_translated(1)
CQUAD4       389       2     489     493     417     413
$*  Mesh Collector: BulkHeads
$*  Mesh: 2d_manual_mesh(1)_translated(9)_translated(2)
CQUAD4       390       2     565     569     493     489
$*  Mesh Collector: BulkHeads
$*  Mesh: 2d_manual_mesh(1)_translated(9)_translated(8)
CQUAD4       396       2    1021    1025     949     945
$*  Mesh Collector: BulkHeads
$*  Mesh: 2d_manual_mesh(1)_translated(19)
CQUAD4       309       2     380     457     381     111
$*  Mesh Collector: BulkHeads
$*  Mesh: 2d_manual_mesh(1)_translated(20)
CQUAD4       310       2     456     533     457     380
$*  Mesh Collector: BulkHeads
$*  Mesh: 2d_manual_mesh(1)_translated(21)
CQUAD4       311       2     532     609     533     456
$*  Mesh Collector: BulkHeads
$*  Mesh: 2d_manual_mesh(1)_translated(22)
CQUAD4       312       2     608     685     609     532
$*  Mesh Collector: BulkHeads
$*  Mesh: 2d_manual_mesh(1)_translated(23)
CQUAD4       313       2     684     761     685     608
$*  Mesh Collector: BulkHeads
$*  Mesh: 2d_manual_mesh(1)_translated(24)
CQUAD4       314       2     760     837     761     684
$*  Mesh Collector: BulkHeads
$*  Mesh: 2d_manual_mesh(1)_translated(25)
CQUAD4       315       2     836     913     837     760
$*  Mesh Collector: BulkHeads
$*  Mesh: 2d_manual_mesh(1)_translated(26)
CQUAD4       316       2     912     989     913     836
$*  Mesh Collector: BulkHeads
$*  Mesh: 2d_manual_mesh(1)_translated(27)
CQUAD4       317       2     988    1065     989     912
$*  Mesh Collector: BulkHeads
$*  Mesh: 2d_manual_mesh(1)_translated(28)
CQUAD4       318       2       1    1066    1065     988
$*  Mesh Collector: BulkHeads
$*  Mesh: 2d_manual_mesh(1)_translated(4)_translated(1)
CQUAD4       349       2     469     473     397     393
$*  Mesh Collector: BulkHeads
$*  Mesh: 2d_manual_mesh(1)_translated(4)_translated(2)
CQUAD4       350       2     545     549     473     469
$*  Mesh Collector: BulkHeads
$*  Mesh: 2d_manual_mesh(1)_translated(4)_translated(8)
CQUAD4       356       2    1001    1005     929     925
$*  Mesh Collector: BulkHeads
$*  Mesh: 2d_manual_mesh(1)_translated(7)_translated(1)
CQUAD4       379       2     481     485     409     405
$*  Mesh Collector: BulkHeads
$*  Mesh: 2d_manual_mesh(1)_translated(7)_translated(2)
CQUAD4       380       2     557     561     485     481
$*  Mesh Collector: BulkHeads
$*  Mesh: 2d_manual_mesh(1)_translated(7)_translated(8)
CQUAD4       386       2    1013    1017     941     937
$*  Mesh Collector: BulkHeads
$*  Mesh: 2d_manual_mesh(1)_translated(15)_translated(1)
CQUAD4       449       2     513     517     441     437
$*  Mesh Collector: BulkHeads
$*  Mesh: 2d_manual_mesh(1)_translated(15)_translated(2)
CQUAD4       450       2     589     593     517     513
$*  Mesh Collector: BulkHeads
$*  Mesh: 2d_manual_mesh(1)_translated(15)_translated(8)
CQUAD4       456       2    1045    1049     973     969
$*  Mesh Collector: BulkHeads
$*  Mesh: 2d_manual_mesh(1)_translated(16)_translated(11)
CQUAD4       694       2    1277    1281    1205    1201
$*  Mesh Collector: BulkHeads
$*  Mesh: 2d_manual_mesh(1)_translated(24)_translated(1)
CQUAD4       572       2    1596    1673    1597    1520
$*  Mesh Collector: BulkHeads
$*  Mesh: 2d_manual_mesh(1)_translated(3)_translated(2)_translated(1)
CQUAD4       515       2    1377    1381    1305    1301
$*  Mesh Collector: BulkHeads
$*  Mesh: 2d_manual_mesh(1)_translated(9)_translated(2)_translated(1)
CQUAD4       525       2    1401    1405    1329    1325
$*  Mesh Collector: BulkHeads
$*  Mesh: 2d_manual_mesh(1)_translated(5)_translated(4)_translated(1)
CQUAD4       574       2    1537    1541    1465    1461
$*  Mesh Collector: BulkHeads
$*  Mesh: 2d_manual_mesh(1)_translated(18)_translated(5)_translated(1)
CQUAD4       676       2    1665     154     155    1589
$*  Mesh Collector: BulkHeads
$*  Mesh: 2d_manual_mesh(1)_translated(6)_translated(7)_translated(1)
CQUAD4       607       2    1769    1773    1697    1693
$*  Mesh Collector: BulkHeads
$*  Mesh: 2d_manual_mesh(1)_translated(18)_translated(6)_translated(1)
CQUAD4       660       2    1741     153     154    1665
$*  Mesh Collector: BulkHeads
$*  Mesh: 2d_manual_mesh(1)_translated(6)_translated(8)_translated(1)
CQUAD4       652       2    1845    1849    1773    1769
$*  Mesh Collector: BulkHeads
$*  Mesh: 2d_manual_mesh(1)_translated(17)_translated(1)_translated(1)
CQUAD4       586       2    1357    1361    1285    1281
$*  Mesh Collector: BulkHeads
$*  Mesh: 2d_manual_mesh(1)_translated(1)_translated(11)
CQUAD4       567       2    1217    1221    1145    1141
$*  Mesh Collector: BulkHeads
$*  Mesh: 2d_manual_mesh(1)_translated(18)_translated(3)_translated(1)
CQUAD4       591       2    1513     156     157    1437
$*  Mesh Collector: BulkHeads
$*  Mesh: 2d_manual_mesh(1)_translated(6)_translated(5)_translated(1)
CQUAD4       570       2    1617    1621    1545    1541
$*  Mesh Collector: BulkHeads
$*  Mesh: 2d_manual_mesh(1)_translated(1)_translated(7)_translated(1)
CQUAD4       502       2    1749    1753    1677    1673
$*  Mesh Collector: BulkHeads
$*  Mesh: 2d_manual_mesh(1)_translated(20)_translated(1)
CQUAD4       544       2    1292    1369    1293    1216
$*  Mesh Collector: BulkHeads
$*  Mesh: 2d_manual_mesh(1)_translated(2)_translated(8)_translated(1)
CQUAD4       682       2    1829    1833    1757    1753
$*  Mesh Collector: BulkHeads
$*  Mesh: 2d_manual_mesh(1)_translated(9)_translated(8)_translated(1)
CQUAD4       582       2    1857    1861    1785    1781
$*  Mesh Collector: BulkHeads
$*  Mesh: 2d_manual_mesh(1)_translated(12)_translated(7)_translated(1)
CQUAD4       614       2    1793    1797    1721    1717
$*  Mesh Collector: BulkHeads
$*  Mesh: 2d_manual_mesh(1)_translated(18)_translated(4)_translated(1)
CQUAD4       592       2    1589     155     156    1513
$*  Mesh Collector: BulkHeads
$*  Mesh: 2d_manual_mesh(1)_translated(6)_translated(6)_translated(1)
CQUAD4       688       2    1693    1697    1621    1617
$*  Mesh Collector: BulkHeads
$*  Mesh: 2d_manual_mesh(1)_translated(12)_translated(3)_translated(1)
CQUAD4       706       2    1489    1493    1417    1413
$*  Mesh Collector: BulkHeads
$*  Mesh: 2d_manual_mesh(1)_translated(13)_translated(3)_translated(1)
CQUAD4       585       2    1493    1497    1421    1417
$*  Mesh Collector: BulkHeads
$*  Mesh: 2d_manual_mesh(1)_translated(12)_translated(8)_translated(1)
CQUAD4       616       2    1869    1873    1797    1793
$*  Mesh Collector: BulkHeads
$*  Mesh: 2d_manual_mesh(1)_translated(8)_translated(1)_translated(1)
CQUAD4       537       2    1321    1325    1249    1245
$*  Mesh Collector: BulkHeads
$*  Mesh: 2d_manual_mesh(1)_translated(17)_translated(11)
CQUAD4       703       2    1281    1285    1209    1205
$*  Mesh Collector: BulkHeads
$*  Mesh: 2d_manual_mesh(1)_translated(22)_translated(1)
CQUAD4       524       2    1444    1521    1445    1368
$*  Mesh Collector: BulkHeads
$*  Mesh: 2d_manual_mesh(1)_translated(13)_translated(11)
CQUAD4       558       2    1265    1269    1193    1189
$*  Mesh Collector: BulkHeads
$*  Mesh: 2d_manual_mesh(1)_translated(12)_translated(5)_translated(1)
CQUAD4       589       2    1641    1645    1569    1565
$*  Mesh Collector: BulkHeads
$*  Mesh: 2d_manual_mesh(1)_translated(18)_translated(2)_translated(1)
CQUAD4       655       2    1437     157     158    1361
$*  Mesh Collector: BulkHeads
$*  Mesh: 2d_manual_mesh(1)_translated(6)_translated(4)_translated(1)
CQUAD4       507       2    1541    1545    1469    1465
$*  Mesh Collector: BulkHeads
$*  Mesh: 2d_manual_mesh(1)_translated(11)_translated(2)_translated(1)
CQUAD4       509       2    1409    1413    1337    1333
$*  Mesh Collector: BulkHeads
$*  Mesh: 2d_manual_mesh(1)_translated(12)_translated(6)_translated(1)
CQUAD4       659       2    1717    1721    1645    1641
$*  Mesh Collector: BulkHeads
$*  Mesh: 2d_manual_mesh(1)_translated(8)_translated(11)
CQUAD4       555       2    1245    1249    1173    1169
$*  Mesh Collector: BulkHeads
$*  Mesh: 2d_manual_mesh(1)_translated(17)_translated(3)_translated(1)
CQUAD4       611       2    1509    1513    1437    1433
$*  Mesh Collector: BulkHeads
$*  Mesh: 2d_manual_mesh(1)_translated(5)_translated(3)_translated(1)
CQUAD4       508       2    1461    1465    1389    1385
$*  Mesh Collector: BulkHeads
$*  Mesh: 2d_manual_mesh(1)_translated(6)_translated(2)_translated(1)
CQUAD4       529       2    1389    1393    1317    1313
$*  Mesh Collector: BulkHeads
$*  Mesh: 2d_manual_mesh(1)_translated(5)_translated(2)_translated(1)
CQUAD4       561       2    1385    1389    1313    1309
$*  Mesh Collector: BulkHeads
$*  Mesh: 2d_manual_mesh(1)_translated(18)_translated(10)_translated(1)
CQUAD4       628       2    1970    1974     150    1969
$*  Mesh Collector: BulkHeads
$*  Mesh: 2d_manual_mesh(1)_translated(5)_translated(11)
CQUAD4       512       2    1233    1237    1161    1157
$*  Mesh Collector: BulkHeads
$*  Mesh: 2d_manual_mesh(1)_translated(21)_translated(1)
CQUAD4       552       2    1368    1445    1369    1292
$*  Mesh Collector: BulkHeads
$*  Mesh: 2d_manual_mesh(1)_translated(9)_translated(1)_translated(1)
CQUAD4       522       2    1325    1329    1253    1249
$*  Mesh Collector: BulkHeads
$*  Mesh: 2d_manual_mesh(1)_translated(5)_translated(1)_translated(1)
CQUAD4       533       2    1309    1313    1237    1233
$*  Mesh Collector: BulkHeads
$*  Mesh: 2d_manual_mesh(1)_translated(14)_translated(8)_translated(1)
CQUAD4       674       2    1877    1881    1805    1801
$*  Mesh Collector: BulkHeads
$*  Mesh: 2d_manual_mesh(1)_translated(17)_translated(10)_translated(1)
CQUAD4       643       2    1966    1970    1969    1965
$*  Mesh Collector: BulkHeads
$*  Mesh: 2d_manual_mesh(1)_translated(13)_translated(6)_translated(1)
CQUAD4       658       2    1721    1725    1649    1645
$*  Mesh Collector: BulkHeads
$*  Mesh: 2d_manual_mesh(1)_translated(17)_translated(9)_translated(1)
CQUAD4       598       2    1965    1969    1893    1889
$*  Mesh Collector: BulkHeads
$*  Mesh: 2d_manual_mesh(1)_translated(15)_translated(1)_translated(1)
CQUAD4       697       2    1349    1353    1277    1273
$*  Mesh Collector: BulkHeads
$*  Mesh: 2d_manual_mesh(1)_translated(17)_translated(2)_translated(1)
CQUAD4       587       2    1433    1437    1361    1357
$*  Mesh Collector: BulkHeads
$*  Mesh: 2d_manual_mesh(1)_translated(12)_translated(2)_translated(1)
CQUAD4       679       2    1413    1417    1341    1337
$*  Mesh Collector: BulkHeads
$*  Mesh: 2d_manual_mesh(1)_translated(18)_translated(1)_translated(1)
CQUAD4       654       2    1361     158     159    1285
$*  Mesh Collector: BulkHeads
$*  Mesh: 2d_manual_mesh(1)_translated(12)_translated(11)
CQUAD4       504       2    1261    1265    1189    1185
$*  Mesh Collector: BulkHeads
$*  Mesh: 2d_manual_mesh(1)_translated(17)_translated(7)_translated(1)
CQUAD4       633       2    1813    1817    1741    1737
$*  Mesh Collector: BulkHeads
$*  Mesh: 2d_manual_mesh(1)_translated(11)_translated(8)_translated(1)
CQUAD4       612       2    1865    1869    1793    1789
$*  Mesh Collector: BulkHeads
$*  Mesh: 2d_manual_mesh(1)_translated(12)_translated(1)_translated(1)
CQUAD4       546       2    1337    1341    1265    1261
$*  Mesh Collector: BulkHeads
$*  Mesh: 2d_manual_mesh(1)_translated(13)_translated(2)_translated(1)
CQUAD4       690       2    1417    1421    1345    1341
$*  Mesh Collector: BulkHeads
$*  Mesh: 2d_manual_mesh(1)_translated(17)_translated(4)_translated(1)
CQUAD4       606       2    1585    1589    1513    1509
$*  Mesh Collector: BulkHeads
$*  Mesh: 2d_manual_mesh(1)_translated(5)_translated(7)_translated(1)
CQUAD4       696       2    1765    1769    1693    1689
$*  Mesh Collector: BulkHeads
$*  Mesh: 2d_manual_mesh(1)_translated(5)_translated(8)_translated(1)
CQUAD4       630       2    1841    1845    1769    1765
$*  Mesh Collector: BulkHeads
$*  Mesh: 2d_manual_mesh(1)_translated(27)_translated(1)
CQUAD4       683       2    1824    1901    1825    1748
$*  Mesh Collector: BulkHeads
$*  Mesh: 2d_manual_mesh(1)_translated(6)_translated(3)_translated(1)
CQUAD4       530       2    1465    1469    1393    1389
$*  Mesh Collector: BulkHeads
$*  Mesh: 2d_manual_mesh(1)_translated(17)_translated(5)_translated(1)
CQUAD4       590       2    1661    1665    1589    1585
$*  Mesh Collector: BulkHeads
$*  Mesh: 2d_manual_mesh(1)_translated(14)_translated(11)
CQUAD4       573       2    1269    1273    1197    1193
$*  Mesh Collector: BulkHeads
$*  Mesh: 2d_manual_mesh(1)_translated(15)_translated(8)_translated(1)
CQUAD4       613       2    1881    1885    1809    1805
$*  Mesh Collector: BulkHeads
$*  Mesh: 2d_manual_mesh(1)_translated(19)_translated(1)
CQUAD4       536       2    1216    1293    1217    1140
$*  Mesh Collector: BulkHeads
$*  Mesh: 2d_manual_mesh(1)_translated(17)_translated(6)_translated(1)
CQUAD4       636       2    1737    1741    1665    1661
$*  Mesh Collector: BulkHeads
$*  Mesh: 2d_manual_mesh(1)_translated(13)_translated(1)_translated(1)
CQUAD4       534       2    1341    1345    1269    1265
$*  Mesh Collector: BulkHeads
$*  Mesh: 2d_manual_mesh(1)_translated(2)_translated(2)_translated(1)
CQUAD4       553       2    1373    1377    1301    1297
$*  Mesh Collector: BulkHeads
$*  Mesh: 2d_manual_mesh(1)_translated(10)_translated(8)_translated(1)
CQUAD4       619       2    1861    1865    1789    1785
$*  Mesh Collector: BulkHeads
$*  Mesh: 2d_manual_mesh(1)_translated(8)_translated(8)_translated(1)
CQUAD4       665       2    1853    1857    1781    1777
$*  Mesh Collector: BulkHeads
$*  Mesh: 2d_manual_mesh(1)_translated(7)_translated(11)
CQUAD4       554       2    1241    1245    1169    1165
$*  Mesh Collector: BulkHeads
$*  Mesh: 2d_manual_mesh(1)_translated(25)_translated(1)
CQUAD4       519       2    1672    1749    1673    1596
$*  Mesh Collector: BulkHeads
$*  Mesh: 2d_manual_mesh(1)_translated(7)_translated(2)_translated(1)
CQUAD4       521       2    1393    1397    1321    1317
$*  Mesh Collector: BulkHeads
$*  Mesh: 2d_manual_mesh(1)_translated(7)_translated(1)_translated(1)
CQUAD4       564       2    1317    1321    1245    1241
$*  Mesh Collector: BulkHeads
$*  Mesh: 2d_manual_mesh(1)_translated(9)_translated(11)
CQUAD4       511       2    1249    1253    1177    1173
$*  Mesh Collector: BulkHeads
$*  Mesh: 2d_manual_mesh(1)_translated(1)_translated(5)_translated(1)
CQUAD4       545       2    1597    1601    1525    1521
$*  Mesh Collector: BulkHeads
$*  Mesh: 2d_manual_mesh(1)_translated(26)_translated(1)
CQUAD4       539       2    1748    1825    1749    1672
$*  Mesh Collector: BulkHeads
$*  Mesh: 2d_manual_mesh(1)_translated(13)_translated(4)_translated(1)
CQUAD4       605       2    1569    1573    1497    1493
$*  Mesh Collector: BulkHeads
$*  Mesh: 2d_manual_mesh(1)_translated(14)_translated(2)_translated(1)
CQUAD4       686       2    1421    1425    1349    1345
$*  Mesh Collector: BulkHeads
$*  Mesh: 2d_manual_mesh(1)_translated(1)_translated(6)_translated(1)
CQUAD4       571       2    1673    1677    1601    1597
$*  Mesh Collector: BulkHeads
$*  Mesh: 2d_manual_mesh(1)_translated(8)_translated(2)_translated(1)
CQUAD4       518       2    1397    1401    1325    1321
$*  Mesh Collector: BulkHeads
$*  Mesh: 2d_manual_mesh(1)_translated(23)_translated(1)
CQUAD4       550       2    1520    1597    1521    1444
$*  Mesh Collector: BulkHeads
$*  Mesh: 2d_manual_mesh(1)_translated(6)_translated(11)
CQUAD4       568       2    1237    1241    1165    1161
$*  Mesh Collector: BulkHeads
$*  Mesh: 2d_manual_mesh(1)_translated(17)_translated(8)_translated(1)
CQUAD4       667       2    1889    1893    1817    1813
$*  Mesh Collector: BulkHeads
$*  Mesh: 2d_manual_mesh(1)_translated(1)_translated(3)_translated(1)
CQUAD4       514       2    1445    1449    1373    1369
$*  Mesh Collector: BulkHeads
$*  Mesh: 2d_manual_mesh(1)_translated(15)_translated(11)
CQUAD4       531       2    1273    1277    1201    1197
$*  Mesh Collector: BulkHeads
$*  Mesh: 2d_manual_mesh(1)_translated(13)_translated(7)_translated(1)
CQUAD4       666       2    1797    1801    1725    1721
$*  Mesh Collector: BulkHeads
$*  Mesh: 2d_manual_mesh(1)_translated(1)_translated(4)_translated(1)
CQUAD4       563       2    1521    1525    1449    1445
$*  Mesh Collector: BulkHeads
$*  Mesh: 2d_manual_mesh(1)_translated(3)_translated(11)
CQUAD4       557       2    1225    1229    1153    1149
$*  Mesh Collector: BulkHeads
$*  Mesh: 2d_manual_mesh(1)_translated(2)_translated(1)_translated(1)
CQUAD4       540       2    1297    1301    1225    1221
$*  Mesh Collector: BulkHeads
$*  Mesh: 2d_manual_mesh(1)_translated(4)_translated(11)
CQUAD4       523       2    1229    1233    1157    1153
$*  Mesh Collector: BulkHeads
$*  Mesh: 2d_manual_mesh(1)_translated(10)_translated(1)_translated(1)
CQUAD4       547       2    1329    1333    1257    1253
$*  Mesh Collector: BulkHeads
$*  Mesh: 2d_manual_mesh(1)_translated(15)_translated(2)_translated(1)
CQUAD4       638       2    1425    1429    1353    1349
$*  Mesh Collector: BulkHeads
$*  Mesh: 2d_manual_mesh(1)_translated(1)_translated(1)_translated(1)
CQUAD4       499       2    1293    1297    1221    1217
$*  Mesh Collector: BulkHeads
$*  Mesh: 2d_manual_mesh(1)_translated(3)_translated(1)_translated(1)
CQUAD4       516       2    1301    1305    1229    1225
$*  Mesh Collector: BulkHeads
$*  Mesh: 2d_manual_mesh(1)_translated(16)_translated(8)_translated(1)
CQUAD4       623       2    1885    1889    1813    1809
$*  Mesh Collector: BulkHeads
$*  Mesh: 2d_manual_mesh(1)_translated(5)_translated(6)_translated(1)
CQUAD4       692       2    1689    1693    1617    1613
$*  Mesh Collector: BulkHeads
$*  Mesh: 2d_manual_mesh(1)_translated(5)_translated(5)_translated(1)
CQUAD4       527       2    1613    1617    1541    1537
$*  Mesh Collector: BulkHeads
$*  Mesh: 2d_manual_mesh(1)_translated(10)_translated(2)_translated(1)
CQUAD4       548       2    1405    1409    1333    1329
$*  Mesh Collector: BulkHeads
$*  Mesh: 2d_manual_mesh(1)_translated(14)_translated(1)_translated(1)
CQUAD4       705       2    1345    1349    1273    1269
$*  Mesh Collector: BulkHeads
$*  Mesh: 2d_manual_mesh(1)_translated(1)_translated(2)_translated(1)
CQUAD4       542       2    1369    1373    1297    1293
$*  Mesh Collector: BulkHeads
$*  Mesh: 2d_manual_mesh(1)_translated(4)_translated(8)_translated(1)
CQUAD4       641       2    1837    1841    1765    1761
$*  Mesh Collector: BulkHeads
$*  Mesh: 2d_manual_mesh(1)_translated(3)_translated(8)_translated(1)
CQUAD4       707       2    1833    1837    1761    1757
$*  Mesh Collector: BulkHeads
$*  Mesh: 2d_manual_mesh(1)_translated(1)_translated(9)_translated(1)
CQUAD4       687       2    1901    1905    1829    1825
$*  Mesh Collector: BulkHeads
$*  Mesh: 2d_manual_mesh(1)_translated(28)_translated(1)
CQUAD4       684       2       6    1902    1901    1824
$*  Mesh Collector: BulkHeads
$*  Mesh: 2d_manual_mesh(1)_translated(11)_translated(1)_translated(1)
CQUAD4       513       2    1333    1337    1261    1257
$*  Mesh Collector: BulkHeads
$*  Mesh: 2d_manual_mesh(1)_translated(1)_translated(10)_translated(1)
CQUAD4       597       2    1902    1906    1905    1901
$*  Mesh Collector: BulkHeads
$*  Mesh: 2d_manual_mesh(1)_translated(11)_translated(11)
CQUAD4       503       2    1257    1261    1185    1181
$*  Mesh Collector: BulkHeads
$*  Mesh: 2d_manual_mesh(1)_translated(13)_translated(8)_translated(1)
CQUAD4       609       2    1873    1877    1801    1797
$*  Mesh Collector: BulkHeads
$*  Mesh: 2d_manual_mesh(1)_translated(18)_translated(9)_translated(1)
CQUAD4       622       2    1969     150     151    1893
$*  Mesh Collector: BulkHeads
$*  Mesh: 2d_manual_mesh(1)_translated(7)_translated(8)_translated(1)
CQUAD4       595       2    1849    1853    1777    1773
$*  Mesh Collector: BulkHeads
$*  Mesh: 2d_manual_mesh(1)_translated(10)_translated(11)
CQUAD4       535       2    1253    1257    1181    1177
$*  Mesh Collector: BulkHeads
$*  Mesh: 2d_manual_mesh(1)_translated(1)_translated(8)_translated(1)
CQUAD4       689       2    1825    1829    1753    1749
$*  Mesh Collector: BulkHeads
$*  Mesh: 2d_manual_mesh(1)_translated(13)_translated(5)_translated(1)
CQUAD4       656       2    1645    1649    1573    1569
$*  Mesh Collector: BulkHeads
$*  Mesh: 2d_manual_mesh(1)_translated(18)_translated(11)
CQUAD4       685       2    1285     159     227    1209
$*  Mesh Collector: BulkHeads
$*  Mesh: 2d_manual_mesh(1)_translated(4)_translated(1)_translated(1)
CQUAD4       532       2    1305    1309    1233    1229
$*  Mesh Collector: BulkHeads
$*  Mesh: 2d_manual_mesh(1)_translated(4)_translated(2)_translated(1)
CQUAD4       565       2    1381    1385    1309    1305
$*  Mesh Collector: BulkHeads
$*  Mesh: 2d_manual_mesh(1)_translated(6)_translated(1)_translated(1)
CQUAD4       575       2    1313    1317    1241    1237
$*  Mesh Collector: BulkHeads
$*  Mesh: 2d_manual_mesh(1)_translated(18)_translated(7)_translated(1)
CQUAD4       677       2    1817     152     153    1741
$*  Mesh Collector: BulkHeads
$*  Mesh: 2d_manual_mesh(1)_translated(2)_translated(11)
CQUAD4       556       2    1221    1225    1149    1145
$*  Mesh Collector: BulkHeads
$*  Mesh: 2d_manual_mesh(1)_translated(29)
CQUAD4       506       2    1140    1217    1141     226
$*  Mesh Collector: BulkHeads
$*  Mesh: 2d_manual_mesh(1)_translated(12)_translated(4)_translated(1)
CQUAD4       675       2    1565    1569    1493    1489
$*  Mesh Collector: BulkHeads
$*  Mesh: 2d_manual_mesh(1)_translated(18)_translated(8)_translated(1)
CQUAD4       678       2    1893     151     152    1817
$*  Mesh Collector: BulkHeads
$*  Mesh: 2d_manual_mesh(1)_translated(16)_translated(2)_translated(1)
CQUAD4       626       2    1429    1433    1357    1353
$*  Mesh Collector: BulkHeads
$*  Mesh: 2d_manual_mesh(1)_translated(16)_translated(1)_translated(1)
CQUAD4       702       2    1353    1357    1281    1277
$*  Mesh Collector: BulkHeads
$*  Mesh: 2d_manual_mesh(1)_translated(16)_translated(12)
CQUAD4       854       2    2127    2131    2059    2055
$*  Mesh Collector: BulkHeads
$*  Mesh: 2d_manual_mesh(1)_translated(24)_translated(2)
CQUAD4       929       2    2446    2523    2447    2370
$*  Mesh Collector: BulkHeads
$*  Mesh: 2d_manual_mesh(1)_translated(3)_translated(2)_translated(2)
CQUAD4       716       2    2227    2231    2155    2151
$*  Mesh Collector: BulkHeads
$*  Mesh: 2d_manual_mesh(1)_translated(5)_translated(4)_translated(2)
CQUAD4       745       2    2387    2391    2315    2311
$*  Mesh Collector: BulkHeads
$*  Mesh: 2d_manual_mesh(1)_translated(6)_translated(7)_translated(2)
CQUAD4       752       2    2619    2623    2547    2543
$*  Mesh Collector: BulkHeads
$*  Mesh: 2d_manual_mesh(1)_translated(18)_translated(6)_translated(2)
CQUAD4       916       2    2591     177     178    2515
$*  Mesh Collector: BulkHeads
$*  Mesh: 2d_manual_mesh(1)_translated(6)_translated(8)_translated(2)
CQUAD4       772       2    2695    2699    2623    2619
$*  Mesh Collector: BulkHeads
$*  Mesh: 2d_manual_mesh(1)_translated(17)_translated(1)_translated(2)
CQUAD4       856       2    2207    2211    2135    2131
$*  Mesh Collector: BulkHeads
$*  Mesh: 2d_manual_mesh(1)_translated(1)_translated(12)
CQUAD4       729       2    2067    2071    1999    1978
$*  Mesh Collector: BulkHeads
$*  Mesh: 2d_manual_mesh(1)_translated(21)_translated(2)
CQUAD4       926       2    2218    2295    2219    2142
$*  Mesh Collector: BulkHeads
$*  Mesh: 2d_manual_mesh(1)_translated(6)_translated(5)_translated(2)
CQUAD4       788       2    2467    2471    2395    2391
$*  Mesh Collector: BulkHeads
$*  Mesh: 2d_manual_mesh(1)_translated(1)_translated(7)_translated(2)
CQUAD4       709       2    2599    2603    2527    2523
$*  Mesh Collector: BulkHeads
$*  Mesh: 2d_manual_mesh(1)_translated(4)_translated(8)_translated(2)
CQUAD4       798       2    2687    2691    2615    2611
$*  Mesh Collector: BulkHeads
$*  Mesh: 2d_manual_mesh(1)_translated(20)_translated(2)
CQUAD4       925       2    2142    2219    2143    2066
$*  Mesh Collector: BulkHeads
$*  Mesh: 2d_manual_mesh(1)_translated(18)_translated(3)_translated(2)
CQUAD4       919       2    2363     180     181    2287
$*  Mesh Collector: BulkHeads
$*  Mesh: 2d_manual_mesh(1)_translated(9)_translated(8)_translated(2)
CQUAD4       906       2    2707    2711    2635    2631
$*  Mesh Collector: BulkHeads
$*  Mesh: 2d_manual_mesh(1)_translated(12)_translated(7)_translated(2)
CQUAD4       827       2    2643    2647    2571    2567
$*  Mesh Collector: BulkHeads
$*  Mesh: 2d_manual_mesh(1)_translated(18)_translated(4)_translated(2)
CQUAD4       918       2    2439     179     180    2363
$*  Mesh Collector: BulkHeads
$*  Mesh: 2d_manual_mesh(1)_translated(6)_translated(6)_translated(2)
CQUAD4       751       2    2543    2547    2471    2467
$*  Mesh Collector: BulkHeads
$*  Mesh: 2d_manual_mesh(1)_translated(13)_translated(3)_translated(2)
CQUAD4       815       2    2343    2347    2271    2267
$*  Mesh Collector: BulkHeads
$*  Mesh: 2d_manual_mesh(1)_translated(12)_translated(8)_translated(2)
CQUAD4       829       2    2719    2723    2647    2643
$*  Mesh Collector: BulkHeads
$*  Mesh: 2d_manual_mesh(1)_translated(17)_translated(12)
CQUAD4       882       2    2131    2135    1995    2059
$*  Mesh Collector: BulkHeads
$*  Mesh: 2d_manual_mesh(1)_translated(18)_translated(1)_translated(2)
CQUAD4       921       2    2211     182     183    2135
$*  Mesh Collector: BulkHeads
$*  Mesh: 2d_manual_mesh(1)_translated(13)_translated(12)
CQUAD4       848       2    2115    2119    2047    2043
$*  Mesh Collector: BulkHeads
$*  Mesh: 2d_manual_mesh(1)_translated(13)_translated(5)_translated(2)
CQUAD4       843       2    2495    2499    2423    2419
$*  Mesh Collector: BulkHeads
$*  Mesh: 2d_manual_mesh(1)_translated(5)_translated(5)_translated(2)
CQUAD4       756       2    2463    2467    2391    2387
$*  Mesh Collector: BulkHeads
$*  Mesh: 2d_manual_mesh(1)_translated(13)_translated(2)_translated(2)
CQUAD4       826       2    2267    2271    2195    2191
$*  Mesh Collector: BulkHeads
$*  Mesh: 2d_manual_mesh(1)_translated(5)_translated(6)_translated(2)
CQUAD4       757       2    2539    2543    2467    2463
$*  Mesh Collector: BulkHeads
$*  Mesh: 2d_manual_mesh(1)_translated(17)_translated(3)_translated(2)
CQUAD4       864       2    2359    2363    2287    2283
$*  Mesh Collector: BulkHeads
$*  Mesh: 2d_manual_mesh(1)_translated(5)_translated(3)_translated(2)
CQUAD4       744       2    2311    2315    2239    2235
$*  Mesh Collector: BulkHeads
$*  Mesh: 2d_manual_mesh(1)_translated(18)_translated(10)_translated(2)
CQUAD4       912       2    2820      57     174    2819
$*  Mesh Collector: BulkHeads
$*  Mesh: 2d_manual_mesh(1)_translated(18)_translated(9)_translated(2)
CQUAD4       913       2    2819     174     175    2743
$*  Mesh Collector: BulkHeads
$*  Mesh: 2d_manual_mesh(1)_translated(9)_translated(5)_translated(2)
CQUAD4       903       2    2479    2483    2407    2403
$*  Mesh Collector: BulkHeads
$*  Mesh: 2d_manual_mesh(1)_translated(16)_translated(8)_translated(2)
CQUAD4       869       2    2735    2739    2663    2659
$*  Mesh Collector: BulkHeads
$*  Mesh: 2d_manual_mesh(1)_translated(5)_translated(12)
CQUAD4       763       2    2083    2087    2015    2011
$*  Mesh Collector: BulkHeads
$*  Mesh: 2d_manual_mesh(1)_translated(17)_translated(9)_translated(2)
CQUAD4       862       2    2815    2819    2743    2739
$*  Mesh Collector: BulkHeads
$*  Mesh: 2d_manual_mesh(1)_translated(22)_translated(2)
CQUAD4       927       2    2294    2371    2295    2218
$*  Mesh Collector: BulkHeads
$*  Mesh: 2d_manual_mesh(1)_translated(5)_translated(1)_translated(2)
CQUAD4       762       2    2159    2163    2087    2083
$*  Mesh Collector: BulkHeads
$*  Mesh: 2d_manual_mesh(1)_translated(7)_translated(7)_translated(2)
CQUAD4       770       2    2623    2627    2551    2547
$*  Mesh Collector: BulkHeads
$*  Mesh: 2d_manual_mesh(1)_translated(14)_translated(8)_translated(2)
CQUAD4       898       2    2727    2731    2655    2651
$*  Mesh Collector: BulkHeads
$*  Mesh: 2d_manual_mesh(1)_translated(17)_translated(10)_translated(2)
CQUAD4       878       2    2816    2820    2819    2815
$*  Mesh Collector: BulkHeads
$*  Mesh: 2d_manual_mesh(1)_translated(13)_translated(6)_translated(2)
CQUAD4       816       2    2571    2575    2499    2495
$*  Mesh Collector: BulkHeads
$*  Mesh: 2d_manual_mesh(1)_translated(17)_translated(2)_translated(2)
CQUAD4       865       2    2283    2287    2211    2207
$*  Mesh Collector: BulkHeads
$*  Mesh: 2d_manual_mesh(1)_translated(5)_translated(2)_translated(2)
CQUAD4       784       2    2235    2239    2163    2159
$*  Mesh Collector: BulkHeads
$*  Mesh: 2d_manual_mesh(1)_translated(18)_translated(2)_translated(2)
CQUAD4       920       2    2287     181     182    2211
$*  Mesh Collector: BulkHeads
$*  Mesh: 2d_manual_mesh(1)_translated(17)_translated(7)_translated(2)
CQUAD4       883       2    2663    2667    2591    2587
$*  Mesh Collector: BulkHeads
$*  Mesh: 2d_manual_mesh(1)_translated(11)_translated(8)_translated(2)
CQUAD4       817       2    2715    2719    2643    2639
$*  Mesh Collector: BulkHeads
$*  Mesh: 2d_manual_mesh(1)_translated(7)_translated(5)_translated(2)
CQUAD4       750       2    2471    2475    2399    2395
$*  Mesh Collector: BulkHeads
$*  Mesh: 2d_manual_mesh(1)_translated(17)_translated(4)_translated(2)
CQUAD4       871       2    2435    2439    2363    2359
$*  Mesh Collector: BulkHeads
$*  Mesh: 2d_manual_mesh(1)_translated(7)_translated(6)_translated(2)
CQUAD4       769       2    2547    2551    2475    2471
$*  Mesh Collector: BulkHeads
$*  Mesh: 2d_manual_mesh(1)_translated(5)_translated(7)_translated(2)
CQUAD4       768       2    2615    2619    2543    2539
$*  Mesh Collector: BulkHeads
$*  Mesh: 2d_manual_mesh(1)_translated(5)_translated(8)_translated(2)
CQUAD4       764       2    2691    2695    2619    2615
$*  Mesh Collector: BulkHeads
$*  Mesh: 2d_manual_mesh(1)_translated(27)_translated(2)
CQUAD4       932       2    2674    2751    2675    2598
$*  Mesh Collector: BulkHeads
$*  Mesh: 2d_manual_mesh(1)_translated(17)_translated(5)_translated(2)
CQUAD4       859       2    2511    2515    2439    2435
$*  Mesh Collector: BulkHeads
$*  Mesh: 2d_manual_mesh(1)_translated(30)
CQUAD4       923       2    1977    2067    1978     266
$*  Mesh Collector: BulkHeads
$*  Mesh: 2d_manual_mesh(1)_translated(14)_translated(12)
CQUAD4       899       2    2119    2123    2051    2047
$*  Mesh Collector: BulkHeads
$*  Mesh: 2d_manual_mesh(1)_translated(10)_translated(7)_translated(2)
CQUAD4       845       2    2635    2639    2563    2559
$*  Mesh Collector: BulkHeads
$*  Mesh: 2d_manual_mesh(1)_translated(15)_translated(8)_translated(2)
CQUAD4       855       2    2731    2735    2659    2655
$*  Mesh Collector: BulkHeads
$*  Mesh: 2d_manual_mesh(1)_translated(8)_translated(7)_translated(2)
CQUAD4       783       2    2627    2631    2555    2551
$*  Mesh Collector: BulkHeads
$*  Mesh: 2d_manual_mesh(1)_translated(2)_translated(8)_translated(2)
CQUAD4       713       2    2679    2683    2607    2603
$*  Mesh Collector: BulkHeads
$*  Mesh: 2d_manual_mesh(1)_translated(13)_translated(1)_translated(2)
CQUAD4       832       2    2191    2195    2119    2115
$*  Mesh Collector: BulkHeads
$*  Mesh: 2d_manual_mesh(1)_translated(10)_translated(8)_translated(2)
CQUAD4       830       2    2711    2715    2639    2635
$*  Mesh Collector: BulkHeads
$*  Mesh: 2d_manual_mesh(1)_translated(8)_translated(8)_translated(2)
CQUAD4       781       2    2703    2707    2631    2627
$*  Mesh Collector: BulkHeads
$*  Mesh: 2d_manual_mesh(1)_translated(26)_translated(2)
CQUAD4       931       2    2598    2675    2599    2522
$*  Mesh Collector: BulkHeads
$*  Mesh: 2d_manual_mesh(1)_translated(25)_translated(2)
CQUAD4       930       2    2522    2599    2523    2446
$*  Mesh Collector: BulkHeads
$*  Mesh: 2d_manual_mesh(1)_translated(10)_translated(5)_translated(2)
CQUAD4       844       2    2483    2487    2411    2407
$*  Mesh Collector: BulkHeads
$*  Mesh: 2d_manual_mesh(1)_translated(1)_translated(5)_translated(2)
CQUAD4       736       2    2447    2451    2375    2371
$*  Mesh Collector: BulkHeads
$*  Mesh: 2d_manual_mesh(1)_translated(8)_translated(5)_translated(2)
CQUAD4       755       2    2475    2479    2403    2399
$*  Mesh Collector: BulkHeads
$*  Mesh: 2d_manual_mesh(1)_translated(13)_translated(4)_translated(2)
CQUAD4       839       2    2419    2423    2347    2343
$*  Mesh Collector: BulkHeads
$*  Mesh: 2d_manual_mesh(1)_translated(10)_translated(6)_translated(2)
CQUAD4       828       2    2559    2563    2487    2483
$*  Mesh Collector: BulkHeads
$*  Mesh: 2d_manual_mesh(1)_translated(1)_translated(6)_translated(2)
CQUAD4       723       2    2523    2527    2451    2447
$*  Mesh Collector: BulkHeads
$*  Mesh: 2d_manual_mesh(1)_translated(8)_translated(6)_translated(2)
CQUAD4       780       2    2551    2555    2479    2475
$*  Mesh Collector: BulkHeads
$*  Mesh: 2d_manual_mesh(1)_translated(23)_translated(2)
CQUAD4       928       2    2370    2447    2371    2294
$*  Mesh Collector: BulkHeads
$*  Mesh: 2d_manual_mesh(1)_translated(11)_translated(6)_translated(2)
CQUAD4       813       2    2563    2567    2491    2487
$*  Mesh Collector: BulkHeads
$*  Mesh: 2d_manual_mesh(1)_translated(17)_translated(8)_translated(2)
CQUAD4       853       2    2739    2743    2667    2663
$*  Mesh Collector: BulkHeads
$*  Mesh: 2d_manual_mesh(1)_translated(1)_translated(3)_translated(2)
CQUAD4       715       2    2295    2299    2223    2219
$*  Mesh Collector: BulkHeads
$*  Mesh: 2d_manual_mesh(1)_translated(28)_translated(2)
CQUAD4       933       2     112    2752    2751    2674
$*  Mesh Collector: BulkHeads
$*  Mesh: 2d_manual_mesh(1)_translated(15)_translated(12)
CQUAD4       868       2    2123    2127    2055    2051
$*  Mesh Collector: BulkHeads
$*  Mesh: 2d_manual_mesh(1)_translated(2)_translated(12)
CQUAD4       733       2    2071    2075    2003    1999
$*  Mesh Collector: BulkHeads
$*  Mesh: 2d_manual_mesh(1)_translated(13)_translated(7)_translated(2)
CQUAD4       849       2    2647    2651    2575    2571
$*  Mesh Collector: BulkHeads
$*  Mesh: 2d_manual_mesh(1)_translated(1)_translated(4)_translated(2)
CQUAD4       712       2    2371    2375    2299    2295
$*  Mesh Collector: BulkHeads
$*  Mesh: 2d_manual_mesh(1)_translated(15)_translated(1)_translated(2)
CQUAD4       877       2    2199    2203    2127    2123
$*  Mesh Collector: BulkHeads
$*  Mesh: 2d_manual_mesh(1)_translated(3)_translated(12)
CQUAD4       743       2    2075    2079    2007    2003
$*  Mesh Collector: BulkHeads
$*  Mesh: 2d_manual_mesh(1)_translated(2)_translated(1)_translated(2)
CQUAD4       734       2    2147    2151    2075    2071
$*  Mesh Collector: BulkHeads
$*  Mesh: 2d_manual_mesh(1)_translated(19)_translated(2)
CQUAD4       924       2    2066    2143    2067    1977
$*  Mesh Collector: BulkHeads
$*  Mesh: 2d_manual_mesh(1)_translated(4)_translated(12)
CQUAD4       799       2    2079    2083    2011    2007
$*  Mesh Collector: BulkHeads
$*  Mesh: 2d_manual_mesh(1)_translated(11)_translated(5)_translated(2)
CQUAD4       814       2    2487    2491    2415    2411
$*  Mesh Collector: BulkHeads
$*  Mesh: 2d_manual_mesh(1)_translated(15)_translated(2)_translated(2)
CQUAD4       876       2    2275    2279    2203    2199
$*  Mesh Collector: BulkHeads
$*  Mesh: 2d_manual_mesh(1)_translated(1)_translated(1)_translated(2)
CQUAD4       710       2    2143    2147    2071    2067
$*  Mesh Collector: BulkHeads
$*  Mesh: 2d_manual_mesh(1)_translated(3)_translated(1)_translated(2)
CQUAD4       732       2    2151    2155    2079    2075
$*  Mesh Collector: BulkHeads
$*  Mesh: 2d_manual_mesh(1)_translated(2)_translated(2)_translated(2)
CQUAD4       720       2    2223    2227    2151    2147
$*  Mesh Collector: BulkHeads
$*  Mesh: 2d_manual_mesh(1)_translated(9)_translated(7)_translated(2)
CQUAD4       908       2    2631    2635    2559    2555
$*  Mesh Collector: BulkHeads
$*  Mesh: 2d_manual_mesh(1)_translated(14)_translated(1)_translated(2)
CQUAD4       893       2    2195    2199    2123    2119
$*  Mesh Collector: BulkHeads
$*  Mesh: 2d_manual_mesh(1)_translated(1)_translated(2)_translated(2)
CQUAD4       730       2    2219    2223    2147    2143
$*  Mesh Collector: BulkHeads
$*  Mesh: 2d_manual_mesh(1)_translated(1)_translated(9)_translated(2)
CQUAD4       718       2    2751    2755    2679    2675
$*  Mesh Collector: BulkHeads
$*  Mesh: 2d_manual_mesh(1)_translated(1)_translated(10)_translated(2)
CQUAD4       719       2    2752    2756    2755    2751
$*  Mesh Collector: BulkHeads
$*  Mesh: 2d_manual_mesh(1)_translated(18)_translated(5)_translated(2)
CQUAD4       917       2    2515     178     179    2439
$*  Mesh Collector: BulkHeads
$*  Mesh: 2d_manual_mesh(1)_translated(13)_translated(8)_translated(2)
CQUAD4       822       2    2723    2727    2651    2647
$*  Mesh Collector: BulkHeads
$*  Mesh: 2d_manual_mesh(1)_translated(9)_translated(6)_translated(2)
CQUAD4       911       2    2555    2559    2483    2479
$*  Mesh Collector: BulkHeads
$*  Mesh: 2d_manual_mesh(1)_translated(12)_translated(6)_translated(2)
CQUAD4       847       2    2567    2571    2495    2491
$*  Mesh Collector: BulkHeads
$*  Mesh: 2d_manual_mesh(1)_translated(12)_translated(5)_translated(2)
CQUAD4       811       2    2491    2495    2419    2415
$*  Mesh Collector: BulkHeads
$*  Mesh: 2d_manual_mesh(1)_translated(7)_translated(8)_translated(2)
CQUAD4       778       2    2699    2703    2627    2623
$*  Mesh Collector: BulkHeads
$*  Mesh: 2d_manual_mesh(1)_translated(1)_translated(8)_translated(2)
CQUAD4       724       2    2675    2679    2603    2599
$*  Mesh Collector: BulkHeads
$*  Mesh: 2d_manual_mesh(1)_translated(3)_translated(8)_translated(2)
CQUAD4       742       2    2683    2687    2611    2607
$*  Mesh Collector: BulkHeads
$*  Mesh: 2d_manual_mesh(1)_translated(17)_translated(6)_translated(2)
CQUAD4       875       2    2587    2591    2515    2511
$*  Mesh Collector: BulkHeads
$*  Mesh: 2d_manual_mesh(1)_translated(14)_translated(2)_translated(2)
CQUAD4       888       2    2271    2275    2199    2195
$*  Mesh Collector: BulkHeads
$*  Mesh: 2d_manual_mesh(1)_translated(4)_translated(2)_translated(2)
CQUAD4       803       2    2231    2235    2159    2155
$*  Mesh Collector: BulkHeads
$*  Mesh: 2d_manual_mesh(1)_translated(18)_translated(7)_translated(2)
CQUAD4       915       2    2667     176     177    2591
$*  Mesh Collector: BulkHeads
$*  Mesh: 2d_manual_mesh(1)_translated(11)_translated(7)_translated(2)
CQUAD4       818       2    2639    2643    2567    2563
$*  Mesh Collector: BulkHeads
$*  Mesh: 2d_manual_mesh(1)_translated(4)_translated(1)_translated(2)
CQUAD4       796       2    2155    2159    2083    2079
$*  Mesh Collector: BulkHeads
$*  Mesh: 2d_manual_mesh(1)_translated(18)_translated(8)_translated(2)
CQUAD4       914       2    2743     175     176    2667
$*  Mesh Collector: BulkHeads
$*  Mesh: 2d_manual_mesh(1)_translated(16)_translated(2)_translated(2)
CQUAD4       870       2    2279    2283    2207    2203
$*  Mesh Collector: BulkHeads
$*  Mesh: 2d_manual_mesh(1)_translated(16)_translated(1)_translated(2)
CQUAD4       886       2    2203    2207    2131    2127
$*  Mesh Collector: BulkHeads
$*  Mesh: 2d_manual_mesh(1)_translated(16)_translated(13)
CQUAD4      1084       2    2963    2967    2891    2887
$*  Mesh Collector: BulkHeads
$*  Mesh: 2d_manual_mesh(1)_translated(24)_translated(3)
CQUAD4       960       2    3282    3359    3283    3206
$*  Mesh Collector: BulkHeads
$*  Mesh: 2d_manual_mesh(1)_translated(3)_translated(2)_translated(3)
CQUAD4       941       2    3063    3067    2991    2987
$*  Mesh Collector: BulkHeads
$*  Mesh: 2d_manual_mesh(1)_translated(9)_translated(2)_translated(3)
CQUAD4      1133       2    3087    3091    3015    3011
$*  Mesh Collector: BulkHeads
$*  Mesh: 2d_manual_mesh(1)_translated(5)_translated(3)_translated(3)
CQUAD4      1002       2    3147    3151    3075    3071
$*  Mesh Collector: BulkHeads
$*  Mesh: 2d_manual_mesh(1)_translated(5)_translated(4)_translated(3)
CQUAD4      1000       2    3223    3227    3151    3147
$*  Mesh Collector: BulkHeads
$*  Mesh: 2d_manual_mesh(1)_translated(18)_translated(5)_translated(3)
CQUAD4      1099       2    3351     190     191    3275
$*  Mesh Collector: BulkHeads
$*  Mesh: 2d_manual_mesh(1)_translated(6)_translated(7)_translated(3)
CQUAD4      1004       2    3455    3459    3383    3379
$*  Mesh Collector: BulkHeads
$*  Mesh: 2d_manual_mesh(1)_translated(18)_translated(6)_translated(3)
CQUAD4      1097       2    3427     189     190    3351
$*  Mesh Collector: BulkHeads
$*  Mesh: 2d_manual_mesh(1)_translated(6)_translated(8)_translated(3)
CQUAD4       993       2    3531    3535    3459    3455
$*  Mesh Collector: BulkHeads
$*  Mesh: 2d_manual_mesh(1)_translated(17)_translated(1)_translated(3)
CQUAD4      1080       2    3043    3047    2971    2967
$*  Mesh Collector: BulkHeads
$*  Mesh: 2d_manual_mesh(1)_translated(1)_translated(13)
CQUAD4       955       2    2903    2907    2831    2827
$*  Mesh Collector: BulkHeads
$*  Mesh: 2d_manual_mesh(1)_translated(18)_translated(3)_translated(3)
CQUAD4      1105       2    3199     192     193    3123
$*  Mesh Collector: BulkHeads
$*  Mesh: 2d_manual_mesh(1)_translated(6)_translated(5)_translated(3)
CQUAD4      1020       2    3303    3307    3231    3227
$*  Mesh Collector: BulkHeads
$*  Mesh: 2d_manual_mesh(1)_translated(1)_translated(7)_translated(3)
CQUAD4       935       2    3435    3439    3363    3359
$*  Mesh Collector: BulkHeads
$*  Mesh: 2d_manual_mesh(1)_translated(4)_translated(8)_translated(3)
CQUAD4      1023       2    3523    3527    3451    3447
$*  Mesh Collector: BulkHeads
$*  Mesh: 2d_manual_mesh(1)_translated(20)_translated(3)
CQUAD4       948       2    2978    3055    2979    2902
$*  Mesh Collector: BulkHeads
$*  Mesh: 2d_manual_mesh(1)_translated(9)_translated(8)_translated(3)
CQUAD4      1139       2    3543    3547    3471    3467
$*  Mesh Collector: BulkHeads
$*  Mesh: 2d_manual_mesh(1)_translated(12)_translated(7)_translated(3)
CQUAD4      1038       2    3479    3483    3407    3403
$*  Mesh Collector: BulkHeads
$*  Mesh: 2d_manual_mesh(1)_translated(18)_translated(4)_translated(3)
CQUAD4      1081       2    3275     191     192    3199
$*  Mesh Collector: BulkHeads
$*  Mesh: 2d_manual_mesh(1)_translated(6)_translated(6)_translated(3)
CQUAD4       981       2    3379    3383    3307    3303
$*  Mesh Collector: BulkHeads
$*  Mesh: 2d_manual_mesh(1)_translated(13)_translated(3)_translated(3)
CQUAD4      1055       2    3179    3183    3107    3103
$*  Mesh Collector: BulkHeads
$*  Mesh: 2d_manual_mesh(1)_translated(12)_translated(8)_translated(3)
CQUAD4      1066       2    3555    3559    3483    3479
$*  Mesh Collector: BulkHeads
$*  Mesh: 2d_manual_mesh(1)_translated(8)_translated(1)_translated(3)
CQUAD4       988       2    3007    3011    2935    2931
$*  Mesh Collector: BulkHeads
$*  Mesh: 2d_manual_mesh(1)_translated(17)_translated(13)
CQUAD4      1096       2    2967    2971    2895    2891
$*  Mesh Collector: BulkHeads
$*  Mesh: 2d_manual_mesh(1)_translated(22)_translated(3)
CQUAD4       950       2    3130    3207    3131    3054
$*  Mesh Collector: BulkHeads
$*  Mesh: 2d_manual_mesh(1)_translated(6)_translated(3)_translated(3)
CQUAD4      1007       2    3151    3155    3079    3075
$*  Mesh Collector: BulkHeads
$*  Mesh: 2d_manual_mesh(1)_translated(13)_translated(5)_translated(3)
CQUAD4      1047       2    3331    3335    3259    3255
$*  Mesh Collector: BulkHeads
$*  Mesh: 2d_manual_mesh(1)_translated(13)_translated(13)
CQUAD4      1049       2    2951    2955    2879    2875
$*  Mesh Collector: BulkHeads
$*  Mesh: 2d_manual_mesh(1)_translated(16)_translated(1)_translated(3)
CQUAD4      1100       2    3039    3043    2967    2963
$*  Mesh Collector: BulkHeads
$*  Mesh: 2d_manual_mesh(1)_translated(18)_translated(2)_translated(3)
CQUAD4      1093       2    3123     193     194    3047
$*  Mesh Collector: BulkHeads
$*  Mesh: 2d_manual_mesh(1)_translated(6)_translated(4)_translated(3)
CQUAD4      1010       2    3227    3231    3155    3151
$*  Mesh Collector: BulkHeads
$*  Mesh: 2d_manual_mesh(1)_translated(12)_translated(6)_translated(3)
CQUAD4      1073       2    3403    3407    3331    3327
$*  Mesh Collector: BulkHeads
$*  Mesh: 2d_manual_mesh(1)_translated(8)_translated(13)
CQUAD4      1016       2    2931    2935    2859    2855
$*  Mesh Collector: BulkHeads
$*  Mesh: 2d_manual_mesh(1)_translated(17)_translated(3)_translated(3)
CQUAD4      1112       2    3195    3199    3123    3119
$*  Mesh Collector: BulkHeads
$*  Mesh: 2d_manual_mesh(1)_translated(12)_translated(3)_translated(3)
CQUAD4      1075       2    3175    3179    3103    3099
$*  Mesh Collector: BulkHeads
$*  Mesh: 2d_manual_mesh(1)_translated(6)_translated(2)_translated(3)
CQUAD4       985       2    3075    3079    3003    2999
$*  Mesh Collector: BulkHeads
$*  Mesh: 2d_manual_mesh(1)_translated(5)_translated(2)_translated(3)
CQUAD4       999       2    3071    3075    2999    2995
$*  Mesh Collector: BulkHeads
$*  Mesh: 2d_manual_mesh(1)_translated(18)_translated(10)_translated(3)
CQUAD4      1114       2    3656    3660     186    3655
$*  Mesh Collector: BulkHeads
$*  Mesh: 2d_manual_mesh(1)_translated(10)_translated(1)_translated(3)
CQUAD4      1053       2    3015    3019    2943    2939
$*  Mesh Collector: BulkHeads
$*  Mesh: 2d_manual_mesh(1)_translated(5)_translated(13)
CQUAD4       980       2    2919    2923    2847    2843
$*  Mesh Collector: BulkHeads
$*  Mesh: 2d_manual_mesh(1)_translated(17)_translated(9)_translated(3)
CQUAD4      1118       2    3651    3655    3579    3575
$*  Mesh Collector: BulkHeads
$*  Mesh: 2d_manual_mesh(1)_translated(5)_translated(1)_translated(3)
CQUAD4       986       2    2995    2999    2923    2919
$*  Mesh Collector: BulkHeads
$*  Mesh: 2d_manual_mesh(1)_translated(9)_translated(1)_translated(3)
CQUAD4      1138       2    3011    3015    2939    2935
$*  Mesh Collector: BulkHeads
$*  Mesh: 2d_manual_mesh(1)_translated(14)_translated(8)_translated(3)
CQUAD4      1131       2    3563    3567    3491    3487
$*  Mesh Collector: BulkHeads
$*  Mesh: 2d_manual_mesh(1)_translated(17)_translated(10)_translated(3)
CQUAD4      1092       2    3652    3656    3655    3651
$*  Mesh Collector: BulkHeads
$*  Mesh: 2d_manual_mesh(1)_translated(13)_translated(6)_translated(3)
CQUAD4      1072       2    3407    3411    3335    3331
$*  Mesh Collector: BulkHeads
$*  Mesh: 2d_manual_mesh(1)_translated(17)_translated(2)_translated(3)
CQUAD4      1083       2    3119    3123    3047    3043
$*  Mesh Collector: BulkHeads
$*  Mesh: 2d_manual_mesh(1)_translated(12)_translated(13)
CQUAD4      1054       2    2947    2951    2875    2871
$*  Mesh Collector: BulkHeads
$*  Mesh: 2d_manual_mesh(1)_translated(12)_translated(2)_translated(3)
CQUAD4      1056       2    3099    3103    3027    3023
$*  Mesh Collector: BulkHeads
$*  Mesh: 2d_manual_mesh(1)_translated(18)_translated(1)_translated(3)
CQUAD4      1117       2    3047     194     195    2971
$*  Mesh Collector: BulkHeads
$*  Mesh: 2d_manual_mesh(1)_translated(17)_translated(7)_translated(3)
CQUAD4      1077       2    3499    3503    3427    3423
$*  Mesh Collector: BulkHeads
$*  Mesh: 2d_manual_mesh(1)_translated(11)_translated(8)_translated(3)
CQUAD4      1068       2    3551    3555    3479    3475
$*  Mesh Collector: BulkHeads
$*  Mesh: 2d_manual_mesh(1)_translated(12)_translated(1)_translated(3)
CQUAD4      1071       2    3023    3027    2951    2947
$*  Mesh Collector: BulkHeads
$*  Mesh: 2d_manual_mesh(1)_translated(13)_translated(2)_translated(3)
CQUAD4      1052       2    3103    3107    3031    3027
$*  Mesh Collector: BulkHeads
$*  Mesh: 2d_manual_mesh(1)_translated(17)_translated(4)_translated(3)
CQUAD4      1087       2    3271    3275    3199    3195
$*  Mesh Collector: BulkHeads
$*  Mesh: 2d_manual_mesh(1)_translated(8)_translated(2)_translated(3)
CQUAD4      1018       2    3083    3087    3011    3007
$*  Mesh Collector: BulkHeads
$*  Mesh: 2d_manual_mesh(1)_translated(5)_translated(7)_translated(3)
CQUAD4       989       2    3451    3455    3379    3375
$*  Mesh Collector: BulkHeads
$*  Mesh: 2d_manual_mesh(1)_translated(5)_translated(8)_translated(3)
CQUAD4       987       2    3527    3531    3455    3451
$*  Mesh Collector: BulkHeads
$*  Mesh: 2d_manual_mesh(1)_translated(27)_translated(3)
CQUAD4       959       2    3510    3587    3511    3434
$*  Mesh Collector: BulkHeads
$*  Mesh: 2d_manual_mesh(1)_translated(17)_translated(5)_translated(3)
CQUAD4      1103       2    3347    3351    3275    3271
$*  Mesh Collector: BulkHeads
$*  Mesh: 2d_manual_mesh(1)_translated(18)_translated(12)
CQUAD4      1106       2    2971     195     247    2895
$*  Mesh Collector: BulkHeads
$*  Mesh: 2d_manual_mesh(1)_translated(14)_translated(13)
CQUAD4      1129       2    2955    2959    2883    2879
$*  Mesh Collector: BulkHeads
$*  Mesh: 2d_manual_mesh(1)_translated(15)_translated(8)_translated(3)
CQUAD4      1079       2    3567    3571    3495    3491
$*  Mesh Collector: BulkHeads
$*  Mesh: 2d_manual_mesh(1)_translated(19)_translated(3)
CQUAD4       965       2    2902    2979    2903    2826
$*  Mesh Collector: BulkHeads
$*  Mesh: 2d_manual_mesh(1)_translated(17)_translated(6)_translated(3)
CQUAD4      1115       2    3423    3427    3351    3347
$*  Mesh Collector: BulkHeads
$*  Mesh: 2d_manual_mesh(1)_translated(13)_translated(1)_translated(3)
CQUAD4      1076       2    3027    3031    2955    2951
$*  Mesh Collector: BulkHeads
$*  Mesh: 2d_manual_mesh(1)_translated(2)_translated(2)_translated(3)
CQUAD4       952       2    3059    3063    2987    2983
$*  Mesh Collector: BulkHeads
$*  Mesh: 2d_manual_mesh(1)_translated(10)_translated(8)_translated(3)
CQUAD4      1040       2    3547    3551    3475    3471
$*  Mesh Collector: BulkHeads
$*  Mesh: 2d_manual_mesh(1)_translated(8)_translated(8)_translated(3)
CQUAD4       996       2    3539    3543    3467    3463
$*  Mesh Collector: BulkHeads
$*  Mesh: 2d_manual_mesh(1)_translated(7)_translated(13)
CQUAD4       994       2    2927    2931    2855    2851
$*  Mesh Collector: BulkHeads
$*  Mesh: 2d_manual_mesh(1)_translated(25)_translated(3)
CQUAD4       942       2    3358    3435    3359    3282
$*  Mesh Collector: BulkHeads
$*  Mesh: 2d_manual_mesh(1)_translated(7)_translated(2)_translated(3)
CQUAD4      1019       2    3079    3083    3007    3003
$*  Mesh Collector: BulkHeads
$*  Mesh: 2d_manual_mesh(1)_translated(7)_translated(1)_translated(3)
CQUAD4       997       2    3003    3007    2931    2927
$*  Mesh Collector: BulkHeads
$*  Mesh: 2d_manual_mesh(1)_translated(9)_translated(13)
CQUAD4      1135       2    2935    2939    2863    2859
$*  Mesh Collector: BulkHeads
$*  Mesh: 2d_manual_mesh(1)_translated(21)_translated(3)
CQUAD4       968       2    3054    3131    3055    2978
$*  Mesh Collector: BulkHeads
$*  Mesh: 2d_manual_mesh(1)_translated(1)_translated(5)_translated(3)
CQUAD4       951       2    3283    3287    3211    3207
$*  Mesh Collector: BulkHeads
$*  Mesh: 2d_manual_mesh(1)_translated(26)_translated(3)
CQUAD4       962       2    3434    3511    3435    3358
$*  Mesh Collector: BulkHeads
$*  Mesh: 2d_manual_mesh(1)_translated(13)_translated(4)_translated(3)
CQUAD4      1063       2    3255    3259    3183    3179
$*  Mesh Collector: BulkHeads
$*  Mesh: 2d_manual_mesh(1)_translated(14)_translated(2)_translated(3)
CQUAD4      1125       2    3107    3111    3035    3031
$*  Mesh Collector: BulkHeads
$*  Mesh: 2d_manual_mesh(1)_translated(1)_translated(6)_translated(3)
CQUAD4       976       2    3359    3363    3287    3283
$*  Mesh Collector: BulkHeads
$*  Mesh: 2d_manual_mesh(1)_translated(23)_translated(3)
CQUAD4       970       2    3206    3283    3207    3130
$*  Mesh Collector: BulkHeads
$*  Mesh: 2d_manual_mesh(1)_translated(6)_translated(13)
CQUAD4      1015       2    2923    2927    2851    2847
$*  Mesh Collector: BulkHeads
$*  Mesh: 2d_manual_mesh(1)_translated(17)_translated(8)_translated(3)
CQUAD4      1098       2    3575    3579    3503    3499
$*  Mesh Collector: BulkHeads
$*  Mesh: 2d_manual_mesh(1)_translated(1)_translated(3)_translated(3)
CQUAD4       964       2    3131    3135    3059    3055
$*  Mesh Collector: BulkHeads
$*  Mesh: 2d_manual_mesh(1)_translated(15)_translated(13)
CQUAD4      1109       2    2959    2963    2887    2883
$*  Mesh Collector: BulkHeads
$*  Mesh: 2d_manual_mesh(1)_translated(13)_translated(7)_translated(3)
CQUAD4      1074       2    3483    3487    3411    3407
$*  Mesh Collector: BulkHeads
$*  Mesh: 2d_manual_mesh(1)_translated(1)_translated(4)_translated(3)
CQUAD4       947       2    3207    3211    3135    3131
$*  Mesh Collector: BulkHeads
$*  Mesh: 2d_manual_mesh(1)_translated(15)_translated(1)_translated(3)
CQUAD4      1090       2    3035    3039    2963    2959
$*  Mesh Collector: BulkHeads
$*  Mesh: 2d_manual_mesh(1)_translated(3)_translated(13)
CQUAD4       969       2    2911    2915    2839    2835
$*  Mesh Collector: BulkHeads
$*  Mesh: 2d_manual_mesh(1)_translated(2)_translated(1)_translated(3)
CQUAD4       967       2    2983    2987    2911    2907
$*  Mesh Collector: BulkHeads
$*  Mesh: 2d_manual_mesh(1)_translated(4)_translated(13)
CQUAD4      1028       2    2915    2919    2843    2839
$*  Mesh Collector: BulkHeads
$*  Mesh: 2d_manual_mesh(1)_translated(15)_translated(2)_translated(3)
CQUAD4      1110       2    3111    3115    3039    3035
$*  Mesh Collector: BulkHeads
$*  Mesh: 2d_manual_mesh(1)_translated(1)_translated(1)_translated(3)
CQUAD4       977       2    2979    2983    2907    2903
$*  Mesh Collector: BulkHeads
$*  Mesh: 2d_manual_mesh(1)_translated(3)_translated(1)_translated(3)
CQUAD4       953       2    2987    2991    2915    2911
$*  Mesh Collector: BulkHeads
$*  Mesh: 2d_manual_mesh(1)_translated(16)_translated(8)_translated(3)
CQUAD4      1085       2    3571    3575    3499    3495
$*  Mesh Collector: BulkHeads
$*  Mesh: 2d_manual_mesh(1)_translated(5)_translated(6)_translated(3)
CQUAD4       984       2    3375    3379    3303    3299
$*  Mesh Collector: BulkHeads
$*  Mesh: 2d_manual_mesh(1)_translated(5)_translated(5)_translated(3)
CQUAD4      1006       2    3299    3303    3227    3223
$*  Mesh Collector: BulkHeads
$*  Mesh: 2d_manual_mesh(1)_translated(10)_translated(2)_translated(3)
CQUAD4      1045       2    3091    3095    3019    3015
$*  Mesh Collector: BulkHeads
$*  Mesh: 2d_manual_mesh(1)_translated(14)_translated(1)_translated(3)
CQUAD4      1124       2    3031    3035    2959    2955
$*  Mesh Collector: BulkHeads
$*  Mesh: 2d_manual_mesh(1)_translated(1)_translated(2)_translated(3)
CQUAD4       946       2    3055    3059    2983    2979
$*  Mesh Collector: BulkHeads
$*  Mesh: 2d_manual_mesh(1)_translated(1)_translated(9)_translated(3)
CQUAD4       966       2    3587    3591    3515    3511
$*  Mesh Collector: BulkHeads
$*  Mesh: 2d_manual_mesh(1)_translated(28)_translated(3)
CQUAD4       940       2       2    3588    3587    3510
$*  Mesh Collector: BulkHeads
$*  Mesh: 2d_manual_mesh(1)_translated(11)_translated(1)_translated(3)
CQUAD4      1060       2    3019    3023    2947    2943
$*  Mesh Collector: BulkHeads
$*  Mesh: 2d_manual_mesh(1)_translated(2)_translated(8)_translated(3)
CQUAD4       958       2    3515    3519    3443    3439
$*  Mesh Collector: BulkHeads
$*  Mesh: 2d_manual_mesh(1)_translated(1)_translated(10)_translated(3)
CQUAD4       945       2    3588    3592    3591    3587
$*  Mesh Collector: BulkHeads
$*  Mesh: 2d_manual_mesh(1)_translated(11)_translated(2)_translated(3)
CQUAD4      1057       2    3095    3099    3023    3019
$*  Mesh Collector: BulkHeads
$*  Mesh: 2d_manual_mesh(1)_translated(11)_translated(13)
CQUAD4      1033       2    2943    2947    2871    2867
$*  Mesh Collector: BulkHeads
$*  Mesh: 2d_manual_mesh(1)_translated(13)_translated(8)_translated(3)
CQUAD4      1036       2    3559    3563    3487    3483
$*  Mesh Collector: BulkHeads
$*  Mesh: 2d_manual_mesh(1)_translated(18)_translated(9)_translated(3)
CQUAD4      1086       2    3655     186     187    3579
$*  Mesh Collector: BulkHeads
$*  Mesh: 2d_manual_mesh(1)_translated(12)_translated(5)_translated(3)
CQUAD4      1059       2    3327    3331    3255    3251
$*  Mesh Collector: BulkHeads
$*  Mesh: 2d_manual_mesh(1)_translated(7)_translated(8)_translated(3)
CQUAD4      1003       2    3535    3539    3463    3459
$*  Mesh Collector: BulkHeads
$*  Mesh: 2d_manual_mesh(1)_translated(10)_translated(13)
CQUAD4      1041       2    2939    2943    2867    2863
$*  Mesh Collector: BulkHeads
$*  Mesh: 2d_manual_mesh(1)_translated(1)_translated(8)_translated(3)
CQUAD4       963       2    3511    3515    3439    3435
$*  Mesh Collector: BulkHeads
$*  Mesh: 2d_manual_mesh(1)_translated(3)_translated(8)_translated(3)
CQUAD4       975       2    3519    3523    3447    3443
$*  Mesh Collector: BulkHeads
$*  Mesh: 2d_manual_mesh(1)_translated(4)_translated(1)_translated(3)
CQUAD4      1030       2    2991    2995    2919    2915
$*  Mesh Collector: BulkHeads
$*  Mesh: 2d_manual_mesh(1)_translated(4)_translated(2)_translated(3)
CQUAD4      1026       2    3067    3071    2995    2991
$*  Mesh Collector: BulkHeads
$*  Mesh: 2d_manual_mesh(1)_translated(6)_translated(1)_translated(3)
CQUAD4      1021       2    2999    3003    2927    2923
$*  Mesh Collector: BulkHeads
$*  Mesh: 2d_manual_mesh(1)_translated(18)_translated(7)_translated(3)
CQUAD4      1101       2    3503     188     189    3427
$*  Mesh Collector: BulkHeads
$*  Mesh: 2d_manual_mesh(1)_translated(2)_translated(13)
CQUAD4       972       2    2907    2911    2835    2831
$*  Mesh Collector: BulkHeads
$*  Mesh: 2d_manual_mesh(1)_translated(31)
CQUAD4       936       2    2826    2903    2827     246
$*  Mesh Collector: BulkHeads
$*  Mesh: 2d_manual_mesh(1)_translated(12)_translated(4)_translated(3)
CQUAD4      1051       2    3251    3255    3179    3175
$*  Mesh Collector: BulkHeads
$*  Mesh: 2d_manual_mesh(1)_translated(18)_translated(8)_translated(3)
CQUAD4      1120       2    3579     187     188    3503
$*  Mesh Collector: BulkHeads
$*  Mesh: 2d_manual_mesh(1)_translated(16)_translated(2)_translated(3)
CQUAD4      1113       2    3115    3119    3043    3039
$*  Mesh Collector: BulkHeads
$*  Mesh: 2d_manual_mesh(1)_translated(16)_translated(14)
CQUAD4      1258       2    3799    3803    3727    3723
$*  Mesh Collector: BulkHeads
$*  Mesh: 2d_manual_mesh(1)_translated(3)_translated(2)_translated(4)
CQUAD4      1154       2    3899    3903    3827    3823
$*  Mesh Collector: BulkHeads
$*  Mesh: 2d_manual_mesh(1)_translated(9)_translated(2)_translated(4)
CQUAD4      1342       2    3923    3927    3851    3847
$*  Mesh Collector: BulkHeads
$*  Mesh: 2d_manual_mesh(1)_translated(5)_translated(3)_translated(4)
CQUAD4      1196       2    3983    3987    3911    3907
$*  Mesh Collector: BulkHeads
$*  Mesh: 2d_manual_mesh(1)_translated(5)_translated(4)_translated(4)
CQUAD4      1193       2    4059    4063    3987    3983
$*  Mesh Collector: BulkHeads
$*  Mesh: 2d_manual_mesh(1)_translated(18)_translated(5)_translated(4)
CQUAD4      1284       2    4187     202     203    4111
$*  Mesh Collector: BulkHeads
$*  Mesh: 2d_manual_mesh(1)_translated(6)_translated(7)_translated(4)
CQUAD4      1205       2    4291    4295    4219    4215
$*  Mesh Collector: BulkHeads
$*  Mesh: 2d_manual_mesh(1)_translated(18)_translated(6)_translated(4)
CQUAD4      1280       2    4263     201     202    4187
$*  Mesh Collector: BulkHeads
$*  Mesh: 2d_manual_mesh(1)_translated(6)_translated(8)_translated(4)
CQUAD4      1179       2    4367    4371    4295    4291
$*  Mesh Collector: BulkHeads
$*  Mesh: 2d_manual_mesh(1)_translated(17)_translated(1)_translated(4)
CQUAD4      1247       2    3879    3883    3807    3803
$*  Mesh Collector: BulkHeads
$*  Mesh: 2d_manual_mesh(1)_translated(1)_translated(14)
CQUAD4      1190       2    3739    3743    3667    3663
$*  Mesh Collector: BulkHeads
$*  Mesh: 2d_manual_mesh(1)_translated(18)_translated(3)_translated(4)
CQUAD4      1305       2    4035     204     205    3959
$*  Mesh Collector: BulkHeads
$*  Mesh: 2d_manual_mesh(1)_translated(6)_translated(5)_translated(4)
CQUAD4      1236       2    4139    4143    4067    4063
$*  Mesh Collector: BulkHeads
$*  Mesh: 2d_manual_mesh(1)_translated(1)_translated(7)_translated(4)
CQUAD4      1145       2    4271    4275    4199    4195
$*  Mesh Collector: BulkHeads
$*  Mesh: 2d_manual_mesh(1)_translated(4)_translated(8)_translated(4)
CQUAD4      1163       2    4359    4363    4287    4283
$*  Mesh Collector: BulkHeads
$*  Mesh: 2d_manual_mesh(1)_translated(20)_translated(4)
CQUAD4      1172       2    3814    3891    3815    3738
$*  Mesh Collector: BulkHeads
$*  Mesh: 2d_manual_mesh(1)_translated(9)_translated(8)_translated(4)
CQUAD4      1348       2    4379    4383    4307    4303
$*  Mesh Collector: BulkHeads
$*  Mesh: 2d_manual_mesh(1)_translated(12)_translated(7)_translated(4)
CQUAD4      1255       2    4315    4319    4243    4239
$*  Mesh Collector: BulkHeads
$*  Mesh: 2d_manual_mesh(1)_translated(18)_translated(4)_translated(4)
CQUAD4      1248       2    4111     203     204    4035
$*  Mesh Collector: BulkHeads
$*  Mesh: 2d_manual_mesh(1)_translated(6)_translated(6)_translated(4)
CQUAD4      1157       2    4215    4219    4143    4139
$*  Mesh Collector: BulkHeads
$*  Mesh: 2d_manual_mesh(1)_translated(12)_translated(3)_translated(4)
CQUAD4      1337       2    4011    4015    3939    3935
$*  Mesh Collector: BulkHeads
$*  Mesh: 2d_manual_mesh(1)_translated(13)_translated(3)_translated(4)
CQUAD4      1294       2    4015    4019    3943    3939
$*  Mesh Collector: BulkHeads
$*  Mesh: 2d_manual_mesh(1)_translated(12)_translated(8)_translated(4)
CQUAD4      1314       2    4391    4395    4319    4315
$*  Mesh Collector: BulkHeads
$*  Mesh: 2d_manual_mesh(1)_translated(8)_translated(1)_translated(4)
CQUAD4      1167       2    3843    3847    3771    3767
$*  Mesh Collector: BulkHeads
$*  Mesh: 2d_manual_mesh(1)_translated(17)_translated(14)
CQUAD4      1279       2    3803    3807    3731    3727
$*  Mesh Collector: BulkHeads
$*  Mesh: 2d_manual_mesh(1)_translated(22)_translated(4)
CQUAD4      1177       2    3966    4043    3967    3890
$*  Mesh Collector: BulkHeads
$*  Mesh: 2d_manual_mesh(1)_translated(6)_translated(3)_translated(4)
CQUAD4      1211       2    3987    3991    3915    3911
$*  Mesh Collector: BulkHeads
$*  Mesh: 2d_manual_mesh(1)_translated(13)_translated(5)_translated(4)
CQUAD4      1274       2    4167    4171    4095    4091
$*  Mesh Collector: BulkHeads
$*  Mesh: 2d_manual_mesh(1)_translated(13)_translated(14)
CQUAD4      1277       2    3787    3791    3715    3711
$*  Mesh Collector: BulkHeads
$*  Mesh: 2d_manual_mesh(1)_translated(16)_translated(1)_translated(4)
CQUAD4      1288       2    3875    3879    3803    3799
$*  Mesh Collector: BulkHeads
$*  Mesh: 2d_manual_mesh(1)_translated(18)_translated(2)_translated(4)
CQUAD4      1273       2    3959     205     206    3883
$*  Mesh Collector: BulkHeads
$*  Mesh: 2d_manual_mesh(1)_translated(6)_translated(4)_translated(4)
CQUAD4      1218       2    4063    4067    3991    3987
$*  Mesh Collector: BulkHeads
$*  Mesh: 2d_manual_mesh(1)_translated(11)_translated(2)_translated(4)
CQUAD4      1300       2    3931    3935    3859    3855
$*  Mesh Collector: BulkHeads
$*  Mesh: 2d_manual_mesh(1)_translated(12)_translated(6)_translated(4)
CQUAD4      1332       2    4239    4243    4167    4163
$*  Mesh Collector: BulkHeads
$*  Mesh: 2d_manual_mesh(1)_translated(8)_translated(14)
CQUAD4      1230       2    3767    3771    3695    3691
$*  Mesh Collector: BulkHeads
$*  Mesh: 2d_manual_mesh(1)_translated(17)_translated(3)_translated(4)
CQUAD4      1321       2    4031    4035    3959    3955
$*  Mesh Collector: BulkHeads
$*  Mesh: 2d_manual_mesh(1)_translated(3)_translated(1)_translated(4)
CQUAD4      1182       2    3823    3827    3751    3747
$*  Mesh Collector: BulkHeads
$*  Mesh: 2d_manual_mesh(1)_translated(6)_translated(2)_translated(4)
CQUAD4      1162       2    3911    3915    3839    3835
$*  Mesh Collector: BulkHeads
$*  Mesh: 2d_manual_mesh(1)_translated(5)_translated(2)_translated(4)
CQUAD4      1192       2    3907    3911    3835    3831
$*  Mesh Collector: BulkHeads
$*  Mesh: 2d_manual_mesh(1)_translated(18)_translated(10)_translated(4)
CQUAD4      1323       2    4492    4496     198    4491
$*  Mesh Collector: BulkHeads
$*  Mesh: 2d_manual_mesh(1)_translated(18)_translated(9)_translated(4)
CQUAD4      1261       2    4491     198     199    4415
$*  Mesh Collector: BulkHeads
$*  Mesh: 2d_manual_mesh(1)_translated(5)_translated(14)
CQUAD4      1152       2    3755    3759    3683    3679
$*  Mesh Collector: BulkHeads
$*  Mesh: 2d_manual_mesh(1)_translated(17)_translated(9)_translated(4)
CQUAD4      1333       2    4487    4491    4415    4411
$*  Mesh Collector: BulkHeads
$*  Mesh: 2d_manual_mesh(1)_translated(9)_translated(1)_translated(4)
CQUAD4      1347       2    3847    3851    3775    3771
$*  Mesh Collector: BulkHeads
$*  Mesh: 2d_manual_mesh(1)_translated(5)_translated(1)_translated(4)
CQUAD4      1164       2    3831    3835    3759    3755
$*  Mesh Collector: BulkHeads
$*  Mesh: 2d_manual_mesh(1)_translated(14)_translated(8)_translated(4)
CQUAD4      1338       2    4399    4403    4327    4323
$*  Mesh Collector: BulkHeads
$*  Mesh: 2d_manual_mesh(1)_translated(17)_translated(10)_translated(4)
CQUAD4      1269       2    4488    4492    4491    4487
$*  Mesh Collector: BulkHeads
$*  Mesh: 2d_manual_mesh(1)_translated(13)_translated(6)_translated(4)
CQUAD4      1331       2    4243    4247    4171    4167
$*  Mesh Collector: BulkHeads
$*  Mesh: 2d_manual_mesh(1)_translated(17)_translated(2)_translated(4)
CQUAD4      1253       2    3955    3959    3883    3879
$*  Mesh Collector: BulkHeads
$*  Mesh: 2d_manual_mesh(1)_translated(12)_translated(14)
CQUAD4      1293       2    3783    3787    3711    3707
$*  Mesh Collector: BulkHeads
$*  Mesh: 2d_manual_mesh(1)_translated(12)_translated(2)_translated(4)
CQUAD4      1297       2    3935    3939    3863    3859
$*  Mesh Collector: BulkHeads
$*  Mesh: 2d_manual_mesh(1)_translated(18)_translated(1)_translated(4)
CQUAD4      1330       2    3883     206     207    3807
$*  Mesh Collector: BulkHeads
$*  Mesh: 2d_manual_mesh(1)_translated(17)_translated(7)_translated(4)
CQUAD4      1242       2    4335    4339    4263    4259
$*  Mesh Collector: BulkHeads
$*  Mesh: 2d_manual_mesh(1)_translated(11)_translated(8)_translated(4)
CQUAD4      1320       2    4387    4391    4315    4311
$*  Mesh Collector: BulkHeads
$*  Mesh: 2d_manual_mesh(1)_translated(12)_translated(1)_translated(4)
CQUAD4      1329       2    3859    3863    3787    3783
$*  Mesh Collector: BulkHeads
$*  Mesh: 2d_manual_mesh(1)_translated(10)_translated(1)_translated(4)
CQUAD4      1292       2    3851    3855    3779    3775
$*  Mesh Collector: BulkHeads
$*  Mesh: 2d_manual_mesh(1)_translated(13)_translated(2)_translated(4)
CQUAD4      1287       2    3939    3943    3867    3863
$*  Mesh Collector: BulkHeads
$*  Mesh: 2d_manual_mesh(1)_translated(17)_translated(4)_translated(4)
CQUAD4      1263       2    4107    4111    4035    4031
$*  Mesh Collector: BulkHeads
$*  Mesh: 2d_manual_mesh(1)_translated(5)_translated(7)_translated(4)
CQUAD4      1169       2    4287    4291    4215    4211
$*  Mesh Collector: BulkHeads
$*  Mesh: 2d_manual_mesh(1)_translated(5)_translated(8)_translated(4)
CQUAD4      1166       2    4363    4367    4291    4287
$*  Mesh Collector: BulkHeads
$*  Mesh: 2d_manual_mesh(1)_translated(27)_translated(4)
CQUAD4      1199       2    4346    4423    4347    4270
$*  Mesh Collector: BulkHeads
$*  Mesh: 2d_manual_mesh(1)_translated(17)_translated(5)_translated(4)
CQUAD4      1299       2    4183    4187    4111    4107
$*  Mesh Collector: BulkHeads
$*  Mesh: 2d_manual_mesh(1)_translated(18)_translated(13)
CQUAD4      1307       2    3807     207     287    3731
$*  Mesh Collector: BulkHeads
$*  Mesh: 2d_manual_mesh(1)_translated(14)_translated(14)
CQUAD4      1328       2    3791    3795    3719    3715
$*  Mesh Collector: BulkHeads
$*  Mesh: 2d_manual_mesh(1)_translated(15)_translated(8)_translated(4)
CQUAD4      1245       2    4403    4407    4331    4327
$*  Mesh Collector: BulkHeads
$*  Mesh: 2d_manual_mesh(1)_translated(19)_translated(4)
CQUAD4      1214       2    3738    3815    3739    3662
$*  Mesh Collector: BulkHeads
$*  Mesh: 2d_manual_mesh(1)_translated(17)_translated(6)_translated(4)
CQUAD4      1324       2    4259    4263    4187    4183
$*  Mesh Collector: BulkHeads
$*  Mesh: 2d_manual_mesh(1)_translated(13)_translated(1)_translated(4)
CQUAD4      1339       2    3863    3867    3791    3787
$*  Mesh Collector: BulkHeads
$*  Mesh: 2d_manual_mesh(1)_translated(2)_translated(2)_translated(4)
CQUAD4      1180       2    3895    3899    3823    3819
$*  Mesh Collector: BulkHeads
$*  Mesh: 2d_manual_mesh(1)_translated(10)_translated(8)_translated(4)
CQUAD4      1257       2    4383    4387    4311    4307
$*  Mesh Collector: BulkHeads
$*  Mesh: 2d_manual_mesh(1)_translated(8)_translated(8)_translated(4)
CQUAD4      1184       2    4375    4379    4303    4299
$*  Mesh Collector: BulkHeads
$*  Mesh: 2d_manual_mesh(1)_translated(7)_translated(14)
CQUAD4      1181       2    3763    3767    3691    3687
$*  Mesh Collector: BulkHeads
$*  Mesh: 2d_manual_mesh(1)_translated(25)_translated(4)
CQUAD4      1155       2    4194    4271    4195    4118
$*  Mesh Collector: BulkHeads
$*  Mesh: 2d_manual_mesh(1)_translated(7)_translated(2)_translated(4)
CQUAD4      1235       2    3915    3919    3843    3839
$*  Mesh Collector: BulkHeads
$*  Mesh: 2d_manual_mesh(1)_translated(7)_translated(1)_translated(4)
CQUAD4      1187       2    3839    3843    3767    3763
$*  Mesh Collector: BulkHeads
$*  Mesh: 2d_manual_mesh(1)_translated(9)_translated(14)
CQUAD4      1344       2    3771    3775    3699    3695
$*  Mesh Collector: BulkHeads
$*  Mesh: 2d_manual_mesh(1)_translated(21)_translated(4)
CQUAD4      1220       2    3890    3967    3891    3814
$*  Mesh Collector: BulkHeads
$*  Mesh: 2d_manual_mesh(1)_translated(1)_translated(5)_translated(4)
CQUAD4      1178       2    4119    4123    4047    4043
$*  Mesh Collector: BulkHeads
$*  Mesh: 2d_manual_mesh(1)_translated(26)_translated(4)
CQUAD4      1202       2    4270    4347    4271    4194
$*  Mesh Collector: BulkHeads
$*  Mesh: 2d_manual_mesh(1)_translated(13)_translated(4)_translated(4)
CQUAD4      1310       2    4091    4095    4019    4015
$*  Mesh Collector: BulkHeads
$*  Mesh: 2d_manual_mesh(1)_translated(1)_translated(6)_translated(4)
CQUAD4      1239       2    4195    4199    4123    4119
$*  Mesh Collector: BulkHeads
$*  Mesh: 2d_manual_mesh(1)_translated(8)_translated(2)_translated(4)
CQUAD4      1234       2    3919    3923    3847    3843
$*  Mesh Collector: BulkHeads
$*  Mesh: 2d_manual_mesh(1)_translated(23)_translated(4)
CQUAD4      1226       2    4042    4119    4043    3966
$*  Mesh Collector: BulkHeads
$*  Mesh: 2d_manual_mesh(1)_translated(6)_translated(14)
CQUAD4      1229       2    3759    3763    3687    3683
$*  Mesh Collector: BulkHeads
$*  Mesh: 2d_manual_mesh(1)_translated(17)_translated(8)_translated(4)
CQUAD4      1281       2    4411    4415    4339    4335
$*  Mesh Collector: BulkHeads
$*  Mesh: 2d_manual_mesh(1)_translated(1)_translated(3)_translated(4)
CQUAD4      1207       2    3967    3971    3895    3891
$*  Mesh Collector: BulkHeads
$*  Mesh: 2d_manual_mesh(1)_translated(24)_translated(4)
CQUAD4      1200       2    4118    4195    4119    4042
$*  Mesh Collector: BulkHeads
$*  Mesh: 2d_manual_mesh(1)_translated(15)_translated(14)
CQUAD4      1316       2    3795    3799    3723    3719
$*  Mesh Collector: BulkHeads
$*  Mesh: 2d_manual_mesh(1)_translated(13)_translated(7)_translated(4)
CQUAD4      1334       2    4319    4323    4247    4243
$*  Mesh Collector: BulkHeads
$*  Mesh: 2d_manual_mesh(1)_translated(1)_translated(4)_translated(4)
CQUAD4      1171       2    4043    4047    3971    3967
$*  Mesh Collector: BulkHeads
$*  Mesh: 2d_manual_mesh(1)_translated(15)_translated(1)_translated(4)
CQUAD4      1267       2    3871    3875    3799    3795
$*  Mesh Collector: BulkHeads
$*  Mesh: 2d_manual_mesh(1)_translated(3)_translated(14)
CQUAD4      1223       2    3747    3751    3675    3671
$*  Mesh Collector: BulkHeads
$*  Mesh: 2d_manual_mesh(1)_translated(2)_translated(1)_translated(4)
CQUAD4      1217       2    3819    3823    3747    3743
$*  Mesh Collector: BulkHeads
$*  Mesh: 2d_manual_mesh(1)_translated(4)_translated(14)
CQUAD4      1204       2    3751    3755    3679    3675
$*  Mesh Collector: BulkHeads
$*  Mesh: 2d_manual_mesh(1)_translated(15)_translated(2)_translated(4)
CQUAD4      1317       2    3947    3951    3875    3871
$*  Mesh Collector: BulkHeads
$*  Mesh: 2d_manual_mesh(1)_translated(1)_translated(1)_translated(4)
CQUAD4      1241       2    3815    3819    3743    3739
$*  Mesh Collector: BulkHeads
$*  Mesh: 2d_manual_mesh(1)_translated(16)_translated(8)_translated(4)
CQUAD4      1260       2    4407    4411    4335    4331
$*  Mesh Collector: BulkHeads
$*  Mesh: 2d_manual_mesh(1)_translated(5)_translated(6)_translated(4)
CQUAD4      1161       2    4211    4215    4139    4135
$*  Mesh Collector: BulkHeads
$*  Mesh: 2d_manual_mesh(1)_translated(5)_translated(5)_translated(4)
CQUAD4      1209       2    4135    4139    4063    4059
$*  Mesh Collector: BulkHeads
$*  Mesh: 2d_manual_mesh(1)_translated(10)_translated(2)_translated(4)
CQUAD4      1271       2    3927    3931    3855    3851
$*  Mesh Collector: BulkHeads
$*  Mesh: 2d_manual_mesh(1)_translated(14)_translated(1)_translated(4)
CQUAD4      1290       2    3867    3871    3795    3791
$*  Mesh Collector: BulkHeads
$*  Mesh: 2d_manual_mesh(1)_translated(1)_translated(2)_translated(4)
CQUAD4      1170       2    3891    3895    3819    3815
$*  Mesh Collector: BulkHeads
$*  Mesh: 2d_manual_mesh(1)_translated(1)_translated(9)_translated(4)
CQUAD4      1216       2    4423    4427    4351    4347
$*  Mesh Collector: BulkHeads
$*  Mesh: 2d_manual_mesh(1)_translated(28)_translated(4)
CQUAD4      1153       2      19    4424    4423    4346
$*  Mesh Collector: BulkHeads
$*  Mesh: 2d_manual_mesh(1)_translated(11)_translated(1)_translated(4)
CQUAD4      1304       2    3855    3859    3783    3779
$*  Mesh Collector: BulkHeads
$*  Mesh: 2d_manual_mesh(1)_translated(2)_translated(8)_translated(4)
CQUAD4      1198       2    4351    4355    4279    4275
$*  Mesh Collector: BulkHeads
$*  Mesh: 2d_manual_mesh(1)_translated(1)_translated(10)_translated(4)
CQUAD4      1168       2    4424    4428    4427    4423
$*  Mesh Collector: BulkHeads
$*  Mesh: 2d_manual_mesh(1)_translated(11)_translated(14)
CQUAD4      1243       2    3779    3783    3707    3703
$*  Mesh Collector: BulkHeads
$*  Mesh: 2d_manual_mesh(1)_translated(13)_translated(8)_translated(4)
CQUAD4      1251       2    4395    4399    4323    4319
$*  Mesh Collector: BulkHeads
$*  Mesh: 2d_manual_mesh(1)_translated(12)_translated(5)_translated(4)
CQUAD4      1303       2    4163    4167    4091    4087
$*  Mesh Collector: BulkHeads
$*  Mesh: 2d_manual_mesh(1)_translated(7)_translated(8)_translated(4)
CQUAD4      1203       2    4371    4375    4299    4295
$*  Mesh Collector: BulkHeads
$*  Mesh: 2d_manual_mesh(1)_translated(10)_translated(14)
CQUAD4      1259       2    3775    3779    3703    3699
$*  Mesh Collector: BulkHeads
$*  Mesh: 2d_manual_mesh(1)_translated(4)_translated(1)_translated(4)
CQUAD4      1213       2    3827    3831    3755    3751
$*  Mesh Collector: BulkHeads
$*  Mesh: 2d_manual_mesh(1)_translated(1)_translated(8)_translated(4)
CQUAD4      1206       2    4347    4351    4275    4271
$*  Mesh Collector: BulkHeads
$*  Mesh: 2d_manual_mesh(1)_translated(3)_translated(8)_translated(4)
CQUAD4      1238       2    4355    4359    4283    4279
$*  Mesh Collector: BulkHeads
$*  Mesh: 2d_manual_mesh(1)_translated(14)_translated(2)_translated(4)
CQUAD4      1291       2    3943    3947    3871    3867
$*  Mesh Collector: BulkHeads
$*  Mesh: 2d_manual_mesh(1)_translated(4)_translated(2)_translated(4)
CQUAD4      1188       2    3903    3907    3831    3827
$*  Mesh Collector: BulkHeads
$*  Mesh: 2d_manual_mesh(1)_translated(6)_translated(1)_translated(4)
CQUAD4      1240       2    3835    3839    3763    3759
$*  Mesh Collector: BulkHeads
$*  Mesh: 2d_manual_mesh(1)_translated(18)_translated(7)_translated(4)
CQUAD4      1289       2    4339     200     201    4263
$*  Mesh Collector: BulkHeads
$*  Mesh: 2d_manual_mesh(1)_translated(2)_translated(14)
CQUAD4      1228       2    3743    3747    3671    3667
$*  Mesh Collector: BulkHeads
$*  Mesh: 2d_manual_mesh(1)_translated(32)
CQUAD4      1146       2    3662    3739    3663     286
$*  Mesh Collector: BulkHeads
$*  Mesh: 2d_manual_mesh(1)_translated(12)_translated(4)_translated(4)
CQUAD4      1286       2    4087    4091    4015    4011
$*  Mesh Collector: BulkHeads
$*  Mesh: 2d_manual_mesh(1)_translated(18)_translated(8)_translated(4)
CQUAD4      1340       2    4415     199     200    4339
$*  Mesh Collector: BulkHeads
$*  Mesh: 2d_manual_mesh(1)_translated(16)_translated(2)_translated(4)
CQUAD4      1322       2    3951    3955    3879    3875
$*  Mesh Collector: Battery Connection
$*  Mesh: connection_mesh(1)
RBE2        1395    4538  123456    2027    2031    4531    4509    4504+
+           4526
$*  Mesh Collector: Battery Mass
$*  Mesh: 0d_mesh(1)
CONM2       1442    4538       0 96.0000
$*  Mesh Collector: Suspension Beams
$*  Mesh: connection_mesh(2)
CBEAM       1397       4    4551      670.496139-0.86824  0.0000
CBEAM       1398       4    4551     227-0.17172-0.868240.465475
CBEAM       1399       4    4551    11380.496139-0.86824  0.0000
CBEAM       1400       4    4551    1974-0.49614-0.868243.0431-9
$*  Mesh Collector: Suspension Beams
$*  Mesh: connection_mesh(2)_translated(1)
CBEAM       1401       4    4550     2870.496139-0.86824  0.0000
CBEAM       1402       4    4550     247-0.17172-0.868240.465475
CBEAM       1403       4    4550    3660-0.49614-0.868243.0431-9
CBEAM       1404       4    4550    44960.496139-0.86824  0.0000
$*  Mesh Collector: Suspension Beams
$*  Mesh: connection_mesh(3)
CBEAM       1405       4    4548       10.4961390.868243  0.0000
CBEAM       1406       4    4548      230.4961390.868243  0.0000
CBEAM       1407       4    4548     226-0.496140.868243  0.0000
CBEAM       1408       4    4548       6-0.171720.8682430.465475
$*  Mesh Collector: Suspension Beams
$*  Mesh: connection_mesh(4)
CBEAM       1409       4    4549     246-0.496140.868243  0.0000
CBEAM       1410       4    4549       2-0.496140.868243  0.0000
CBEAM       1411       4    4549      190.4961390.868243  0.0000
CBEAM       1412       4    4549     2860.1717170.8682430.465475
$*  Mesh Collector: Mast Connector
$*  Mesh: connection_mesh(5)
RBE2        1417    4554  123456    1025    1021     945     949
$*  Mesh Collector: Mast Connector
$*  Mesh: connection_mesh(6)
RBE2        1418    4553  123456     569     493     489     565
$*  Mesh Collector: Mast Connector
$*  Mesh: connection_mesh(7)
RBE2        1419    4552  123456     341     337     413     417
$*  Mesh Collector: Mast
$*  Mesh: 1d_manual_mesh(52)
CBEAM       1420       5    4553    4554  0.00001.000000  0.0000
CBEAM       1421       5    4553    4552  0.0000-1.00000  0.0000
CBEAM       1422       5    4552    4555  0.0000-1.00000  0.0000
$*  Mesh Collector: Mast Top Mass
$*  Mesh: 0d_manual_mesh(7)
CONM2       1447    4555       03.000000
$*  Mesh Collector: Seat Connectors
$*  Mesh: connection_mesh(8)
RBE2        1424    4574  123456     266    1978    1999    2003    2007+
+           2011    2015
$*  Mesh Collector: Seat Connectors
$*  Mesh: connection_mesh(9)
RBE2        1425    4575  123456     267    2059    1995    2055    2051+
+           2047    2043
$*  Mesh Collector: Astronaut + Chair
$*  Mesh: 0d_manual_mesh(8)
CONM2       1448    4574       0185.0000
$*  Mesh Collector: Astronaut + Chair
$*  Mesh: 0d_manual_mesh(9)
CONM2       1449    4575       0185.0000
$*  Mesh Collector: Storage Connector
$*  Mesh: connection_mesh(11)
RBE2        1429    4577  123456    3683    4534    4535    4536    2847+
+           2851    2855    2859    2863    2867    2871    2875    4514+
+           4513    4512    3711    3707    3703    3699    3695    3691+
+           3687
$*  Mesh Collector: Storage Connector
$*  Mesh: connection_mesh(17)
RBE2        1453    4578  123456    2827    2831    2835    2839    2843+
+           3679    3675    3671    3667    3663
$*  Mesh Collector: Storage Connector
$*  Mesh: connection_mesh(18)
RBE2        1454    4576  123456    2879    2883    2887    2891    2895+
+           3731    3727    3723    3719    3715
$*  Mesh Collector: Storage Mass
$*  Mesh: 0d_manual_mesh(10)
CONM2       1450    4578       0110.0000
$*  Mesh Collector: Storage Mass
$*  Mesh: 0d_manual_mesh(11)
CONM2       1451    4577       0110.0000
$*  Mesh Collector: Storage Mass
$*  Mesh: 0d_manual_mesh(12)
CONM2       1452    4576       0110.0000
$*
$* PROPERTY CARDS
$*
$*  Property: Length_Wise Box Beams
$*  Section: Length_Wise_Box
PBEAM          1       1 70.5644 1481.94 1481.94  0.0000 2346.40  0.0000+
+       6.3500006.350000-6.350006.350000-6.35000-6.350006.350000-6.35000+
+            YES1.000000 70.5644 1481.94 1481.94  0.0000 2346.40  0.0000+
+       6.3500006.350000-6.350006.350000-6.35000-6.350006.350000-6.35000+
+       0.4545030.454503                                162.3431162.3431+
+                                       -1.916-7  0.0000-1.916-7  0.0000
$*  Property: Bulkhead
PSHELL         2       13.000000       11.000000       10.833333  0.0000
$*  Property: Temp Suspension Prop
$*  Section: TUBE(1)
PBEAM          4       1549.778785902.9285902.92  0.00001.7181+5  0.0000+
+        20.00001.225-15  0.0000 20.0000 -20.000-3.67-152.449-15 -20.000+
+            YES1.000000549.778785902.9285902.92  0.00001.7181+5  0.0000+
+        20.00001.225-15  0.0000 20.0000 -20.000-3.67-152.449-15 -20.000+
+       0.5168970.516898                                  0.0000  0.0000+
+                                         0.0000  0.0000  0.0000  0.0000
$*  Property: Mast Beam
$*  Section: Mast Tube
PBEAM          5       1706.85831.8113+51.8113+5  0.00003.6226+5  0.0000+
+        25.00001.531-15  0.0000 25.0000 -25.000-4.59-153.062-15 -25.000+
+            YES1.000000706.85831.8113+51.8113+5  0.00003.6226+5  0.0000+
+        25.00001.531-15  0.0000 25.0000 -25.000-4.59-153.062-15 -25.000+
+       0.5102710.510271                                  0.0000  0.0000+
+                                         0.0000  0.0000  0.0000  0.0000
$*
$* MATERIAL CARDS
$*
$*  Material: Aluminum_6061::Full_Vehicle_LowFidelityModel::[1]
MAT1           16.8980+7        0.3300002.7110-62.2380-5
MATT1          1       1               2               3
TABLEM1        1                       1                                +
+        20.00006.8980+7 21.11006.8980+7 23.89006.8980+7 37.78006.8290+7+
+        51.67006.8290+7 65.56006.7600+7 79.44006.6910+7 93.33006.6221+7+
+       107.22006.5531+7121.11006.4841+7135.00006.4151+7148.89006.3461+7+
+       162.78006.2772+7176.67006.1392+7190.56006.0702+7204.44005.9323+7+
+       218.33005.8633+7232.22005.7253+7246.11005.5874+7260.00005.4494+7+
+       273.89005.3114+7287.78005.1735+7301.67005.0355+7315.56004.8976+7+
+       329.44004.7596+7343.33004.6216+7357.22004.4147+7371.11004.2767+7+
+       385.00004.1388+7398.89003.9318+7412.78003.7939+7426.67003.5869+7+
+           ENDT
TABLEM1        2                       1                                +
+        20.00000.330000 21.11000.330000    ENDT
TABLEM1        3                       1                                +
+        20.00002.2380-5 93.33002.3184-5107.22002.3346-5121.11002.3508-5+
+       135.00002.3670-5148.89002.3832-5162.78002.3994-5176.67002.4138-5+
+       190.56002.4300-5204.44002.4444-5218.33002.4588-5232.22002.4732-5+
+       246.11002.4876-5260.00002.5002-5273.89002.5146-5287.78002.5272-5+
+       301.67002.5398-5315.56002.5524-5    ENDT
ENDDATA b82159cf
