$*$$$$$$$$$$$$$$$$$$$$$$$$$$$$$$$$$$$$$$$$$$$$$$$$$$$$$$$$$$$$$$$$$
$*
$*                    Simcenter v12.0.2.9 Translator
$*                    for NX Nastran version 12.2
$*
$*             FEM FILE: \\Client\C$\Users\Braden\Desktop\ENAE484\ENAE484rover\CADv3\024-LSM-CP_fem1.fem
$*             SIM FILE: \\Client\C$\Users\Braden\Desktop\ENAE484\ENAE484rover\CADv3\024-LSM-CP_sim1.sim
$*        ANALYSIS TYPE: Structural
$*        SOLUTION NAME: Clevis1 Static Sim
$*        SOLUTION TYPE: SOL 101 Linear Statics - Global Constraints
$*
$*    SOLVER INPUT FILE: 024-lsm-cp_sim1-clevis1_static_sim.dat
$*        CREATION DATE: 25-Feb-2020
$*        CREATION TIME: 21:49:02
$*             HOSTNAME: ENGRAP985
$*      NASTRAN LICENSE: Desktop Bundle
$*
$*                UNITS: Inch (pound f)
$*                      ... LENGTH : inch
$*                      ... TIME   : sec
$*                      ... MASS   : lbf-sec**2/in
$*                      ... TEMPERATURE : deg Fahrenheit
$*                      ... FORCE  : pound (lbf)
$*                      ... THERMAL ENERGY : lbf-in
$*
$* IMPORTANT NOTE:
$*     This banner was generated by Simcenter and altering this 
$*     information may compromise the pre and post processing of results
$*
$*$$$$$$$$$$$$$$$$$$$$$$$$$$$$$$$$$$$$$$$$$$$$$$$$$$$$$$$$$$$$$$$$$
$*
$*$$$$$$$$$$$$$$$$$$$$$$$$$$$$$$$$$$$
$*
$* FILE MANAGEMENT
$*
$*$$$$$$$$$$$$$$$$$$$$$$$$$$$$$$$$$$$
$*
$*
$*$$$$$$$$$$$$$$$$$$$$$$$$$$$$$$$$$$$
$*
$* EXECUTIVE CONTROL
$*
$*$$$$$$$$$$$$$$$$$$$$$$$$$$$$$$$$$$$
$*
ID,NASTRAN,024-lsm-cp_sim1-clevis1_static_sim
SOL 101
CEND
$*
$*$$$$$$$$$$$$$$$$$$$$$$$$$$$$$$$$$$$
$*
$* CASE CONTROL
$*
$*$$$$$$$$$$$$$$$$$$$$$$$$$$$$$$$$$$$
$*
ECHO = NONE
SPC = 1
OUTPUT
DISPLACEMENT(PLOT,REAL) = ALL
SPCFORCES(PLOT,REAL) = ALL
STRESS(PLOT,REAL,VONMISES,CENTER) = ALL
$*  Step: Subcase - Static Loads 1
SUBCASE 1
  LABEL = Subcase - Static Loads 1
  LOAD = 101
$*
$*$$$$$$$$$$$$$$$$$$$$$$$$$$$$$$$$$$$
$*
$* BULK DATA
$*
$*$$$$$$$$$$$$$$$$$$$$$$$$$$$$$$$$$$$
$*
BEGIN BULK
$*
$* PARAM CARDS
$*
PARAM    AUTOMPC     YES
PARAM      K6ROT100.0000
PARAM     OIBULK     YES
PARAM    OMACHPR     YES
PARAM       POST      -2
PARAM    POSTEXT     YES
PARAM    UNITSYS  LBF-IN
$*
$* GRID CARDS
$*
GRID*                  1               01.3317288424E-04-2.495878251E-01+
*       -1.251738559E-01               0
GRID*                  2               01.5200544788E-01-2.495863640E-01+
*       -1.250582722E-01               0
GRID*                  3               07.5957870453E-02-1.246627842E-01+
*       -1.250799931E-01               0
GRID*                  4               01.9796039883E-042.1082931391E-04+
*       -1.250211197E-01               0
GRID*                  5               0-7.610087699E-02-1.248193180E-01+
*       -1.251321345E-01               0
GRID*                  6               0-1.520758844E-01-2.497854104E-01+
*       -1.250755967E-01               0
GRID*                  7               0-2.281234028E-01-1.250233560E-01+
*       -1.251040170E-01               0
GRID*                  8               0-1.521129883E-01-9.953339194E-05+
*       -1.250001967E-01               0
GRID*                  9               01.2879386480E+003.0424402580E-01+
*       9.0465236348E-01               0
GRID*                 10               01.2477174045E+003.4033627000E-01+
*       9.9340174517E-01               0
GRID*                 11               01.6912207764E+006.7600005655E-01+
*       -1.459202199E-01               0
GRID*                 12               01.7162133747E+006.3994407695E-01+
*       -2.058445976E-01               0
GRID*                 13               01.2890905856E+004.7642042956E-01+
*       9.5310242731E-01               0
GRID*                 14               01.2760790538E+002.2462033718E-01+
*       1.0330024899E+00               0
GRID*                 15               01.6392929368E+006.3794838729E-01+
*       -2.081278335E-01               0
GRID*                 16               01.6536958270E+006.8425579652E-01+
*       -1.472071139E-01               0
GRID*                 17               01.6751392524E+006.4635415603E-01+
*       -2.070100108E-01               0
GRID*                 18               01.6777810788E+007.0930264029E-01+
*       -1.883764777E-01               0
GRID*                 19               01.5787677053E+006.4221387778E-01+
*       -2.071310029E-01               0
GRID*                 20               01.4319038330E+00-5.604850686E-01+
*       -1.444616324E-01               0
GRID*                 21               01.5005794191E+00-6.937804870E-01+
*       -6.233725721E-02               0
GRID*                 22               01.4463905345E+00-6.760712064E-01+
*       -6.495922678E-02               0
GRID*                 23               01.2572147927E+003.7500314548E-01+
*       1.1736192683E+00               0
GRID*                 24               01.2726414916E+005.1408982955E-01+
*       1.0807901432E+00               0
GRID*                 25               06.0721483607E-01-5.049210763E-01+
*       -1.074986863E-01               0
GRID*                 26               05.3053393966E-01-3.616053574E-01+
*       -1.246202084E-01               0
GRID*                 27               04.5455719809E-01-2.386666551E-01+
*       -1.224121306E-01               0
GRID*                 28               06.0517328534E-01-2.610116034E-01+
*       -1.184896940E-01               0
GRID*                 29               0-1.799776360E+004.9961900958E-01+
*       -4.344625255E-02               0
GRID*                 30               06.7875910497E-01-3.636303413E-01+
*       -1.107000204E-01               0
GRID*                 31               0-1.643735945E+007.1559210042E-01+
*       -1.910266720E-01               0
GRID*                 32               0-1.580380065E+006.5634069191E-01+
*       -1.767956964E-01               0
GRID*                 33               0-1.636092685E+006.5555865635E-01+
*       -2.083434758E-01               0
GRID*                 34               01.4545567104E+003.7464663041E-01+
*       -1.300812425E-01               0
GRID*                 35               01.3835828760E+004.9054671604E-01+
*       -1.233891005E-01               0
GRID*                 36               0-1.638770642E+00-6.399784586E-01+
*       -2.068998252E-01               0
GRID*                 37               0-1.613402036E+00-6.762155176E-01+
*       -1.465176979E-01               0
GRID*                 38               0-1.577459295E+00-6.415632543E-01+
*       -2.063630530E-01               0
GRID*                 39               0-1.516678007E+004.1252975935E-01+
*       -4.236687583E-02               0
GRID*                 40               01.2813511089E+005.3070239463E-01+
*       -7.741739293E-05               0
GRID*                 41               01.2987494997E+006.2814611604E-01+
*       -1.368446368E-01               0
GRID*                 42               01.5303509890E+006.1611284952E-01+
*       -2.055167918E-01               0
GRID*                 43               01.2346812008E+004.3419732666E-01+
*       -1.338152463E-01               0
GRID*                 44               01.3375352123E+002.8354907440E-01+
*       -1.421943095E-01               0
GRID*                 45               01.2614941712E+004.2698001650E-01+
*       6.7789994025E-02               0
GRID*                 46               01.2850326772E+005.7987571287E-01+
*       1.3539366743E-01               0
GRID*                 47               01.2685346484E+002.2431430298E-01+
*       3.6311863744E-02               0
GRID*                 48               01.2600004539E+003.0466119285E-01+
*       1.4255807077E-01               0
GRID*                 49               01.2678080852E+001.7410940230E-01+
*       1.6483053587E-01               0
GRID*                 50               01.2904736448E+002.8931417049E-01+
*       3.6174188688E-01               0
GRID*                 51               01.5838872709E+00-3.670906360E-01+
*       -4.193879738E-02               0
GRID*                 52               01.5397180288E+00-3.804623990E-01+
*       -4.533088545E-02               0
GRID*                 53               01.5609275702E+00-6.358988547E-01+
*       -2.055952019E-01               0
GRID*                 54               01.5998648404E+00-6.499343666E-01+
*       -2.054031493E-01               0
GRID*                 55               01.2500999375E+00-1.290390763E-01+
*       1.3330483852E+00               0
GRID*                 56               01.2842937757E+004.5512215475E-02+
*       1.3054157142E+00               0
GRID*                 57               01.2430998462E+00-5.232357213E-02+
*       1.2109397661E+00               0
GRID*                 58               01.2771619623E+00-9.701642907E-02+
*       1.1071269905E+00               0
GRID*                 59               01.2581041844E+008.7348963580E-02+
*       1.1150725018E+00               0
GRID*                 60               0-3.039661221E-012.5487702232E-01+
*       -1.186550469E-01               0
GRID*                 61               0-3.794782872E-013.6546267109E-01+
*       -1.185674196E-01               0
GRID*                 62               0-4.554279986E-014.9745560064E-01+
*       -1.259283988E-01               0
GRID*                 63               0-3.043661173E-015.0535341049E-01+
*       -1.187886273E-01               0
GRID*                 64               0-2.279609290E-013.7421535991E-01+
*       -1.249257301E-01               0
GRID*                 65               04.5597306391E-014.9953614947E-01+
*       -1.248437826E-01               0
GRID*                 66               03.8029075409E-013.8122107535E-01+
*       -1.187973099E-01               0
GRID*                 67               03.0427799243E-014.9971397084E-01+
*       -1.249897802E-01               0
GRID*                 68               01.1912945486E+001.5924542297E-01+
*       5.1070366125E-01               0
GRID*                 69               01.8342295850E+00-5.980509241E-01+
*       -1.467581059E-01               0
GRID*                 70               01.8329836693E+00-5.684929071E-01+
*       -8.662228248E-02               0
GRID*                 71               01.8299408095E+00-5.693317942E-01+
*       -4.374223251E-02               0
GRID*                 72               01.8512408395E+00-6.436380648E-01+
*       -6.007911490E-02               0
GRID*                 73               01.8475974514E+00-6.867386191E-01+
*       -6.261636594E-02               0
GRID*                 74               01.8507426849E+00-6.519197633E-01+
*       -1.880279060E-01               0
GRID*                 75               01.8478653436E+00-6.964698200E-01+
*       -1.866592889E-01               0
GRID*                 76               01.5763091098E+00-6.856542953E-01+
*       -1.447756316E-01               0
GRID*                 77               01.6533430282E+00-6.844212908E-01+
*       -1.469276320E-01               0
GRID*                 78               02.2847524317E-013.8140252121E-01+
*       -1.188162597E-01               0
GRID*                 79               04.5504192579E-012.4351666688E-01+
*       -1.184936715E-01               0
GRID*                 80               05.3236751958E-013.7404935042E-01+
*       -1.117542420E-01               0
GRID*                 81               01.4956397751E+00-5.017230829E-01+
*       -4.118448344E-02               0
GRID*                 82               01.2746519384E+00-2.006753716E-01+
*       1.0105017603E+00               0
GRID*                 83               01.2826926974E+00-2.806826865E-01+
*       9.4176819123E-01               0
GRID*                 84               01.3558781209E+00-1.904844246E-01+
*       9.5499537792E-01               0
GRID*                 85               01.1918596533E+00-1.174494111E-01+
*       1.0094008964E+00               0
GRID*                 86               0-1.444466794E+006.4633088581E-01+
*       -1.302960173E-01               0
GRID*                 87               0-1.491184854E+006.8318676440E-01+
*       -1.881357368E-01               0
GRID*                 88               01.3152693506E+00-3.377839074E-01+
*       1.0346836329E+00               0
GRID*                 89               01.1920381604E+00-2.270647526E-01+
*       9.2148479014E-01               0
GRID*                 90               01.5758717462E+00-6.881415894E-01+
*       -1.034021087E-01               0
GRID*                 91               01.6266927724E+00-6.577197147E-01+
*       -4.357226287E-02               0
GRID*                 92               01.2751985042E+003.2797610735E-02+
*       4.1850901778E-01               0
GRID*                 93               01.2652100590E+00-4.736264771E-02+
*       3.4508511364E-01               0
GRID*                 94               0-1.442131214E+00-3.951508019E-01+
*       -1.362833293E-01               0
GRID*                 95               0-1.494830385E+00-2.750195810E-01+
*       -1.285154256E-01               0
GRID*                 96               0-1.568336474E+00-1.627779438E-01+
*       -1.348926542E-01               0
GRID*                 97               0-1.626127653E+00-2.814415886E-01+
*       -1.453716781E-01               0
GRID*                 98               0-1.587081784E+00-3.462513051E-01+
*       -2.072765563E-01               0
GRID*                 99               0-1.276327034E+00-1.217681140E-01+
*       1.0985005916E+00               0
GRID*                100               0-1.302166733E+008.1368199354E-02+
*       1.1042287263E+00               0
GRID*                101               0-1.268298857E+00-4.253919883E-02+
*       1.1959471328E+00               0
GRID*                102               0-1.261978576E+003.5744413066E-02+
*       1.3083744348E+00               0
GRID*                103               0-1.293998163E+00-1.226048893E-01+
*       1.3304262543E+00               0
GRID*                104               0-1.297400304E+00-1.934932306E-01+
*       1.1890234690E+00               0
GRID*                105               0-1.291858230E+006.0025993746E-01+
*       -1.541226737E-01               0
GRID*                106               0-1.214525751E+004.8549359497E-01+
*       -1.493571339E-01               0
GRID*                107               0-1.073230909E+004.7852781918E-01+
*       -1.296862087E-01               0
GRID*                108               0-1.246234522E+002.8644860290E-01+
*       -1.232810982E-01               0
GRID*                109               0-1.313987937E+004.1857593277E-01+
*       -1.200213307E-01               0
GRID*                110               01.1093946854E+00-6.736176361E-01+
*       -6.409776864E-02               0
GRID*                111               01.1248022894E+00-5.566924965E-01+
*       -1.291733268E-01               0
GRID*                112               01.1810821456E+00-6.746146928E-01+
*       -6.677866652E-02               0
GRID*                113               09.0855567504E-01-4.817182678E-01+
*       -1.263009766E-01               0
GRID*                114               01.0489740520E+00-6.609382751E-01+
*       -6.693611465E-02               0
GRID*                115               01.0655476536E+00-6.897722196E-01+
*       -1.858428597E-01               0
GRID*                116               01.2652653808E+00-1.355365825E-01+
*       2.1735870974E-01               0
GRID*                117               01.2626451188E+00-2.817180955E-01+
*       8.0980725039E-02               0
GRID*                118               01.2853130611E+00-1.123762076E-01+
*       6.8704582917E-02               0
GRID*                119               01.2443641548E+00-2.852844099E-01+
*       -1.165876408E-01               0
GRID*                120               0-1.788581127E+00-5.906351593E-01+
*       -4.193033508E-02               0
GRID*                121               0-1.803236128E+00-4.998059103E-01+
*       -4.266483958E-02               0
GRID*                122               01.7597587757E+006.2591342692E-01+
*       -4.406271885E-02               0
GRID*                123               01.7634846902E+006.7566574667E-01+
*       -1.047909983E-01               0
GRID*                124               01.6861264903E+006.7592707375E-01+
*       -1.008432693E-01               0
GRID*                125               01.2719881303E+003.3499022550E-02+
*       6.0404167373E-02               0
GRID*                126               0-1.270065693E+002.7319222910E-01+
*       5.0134988947E-01               0
GRID*                127               0-1.257240048E+001.6032545957E-01+
*       4.4087143324E-01               0
GRID*                128               0-1.265785836E+002.9006119241E-01+
*       3.6031710660E-01               0
GRID*                129               0-1.424245718E+001.9478353906E-01+
*       -1.329850844E-01               0
GRID*                130               0-1.321913543E+005.8091791546E-02+
*       -1.384262250E-01               0
GRID*                131               0-1.199146055E+001.1547566831E-01+
*       -1.572737838E-01               0
GRID*                132               01.8388813605E+00-8.615319262E-02+
*       -1.849482652E-01               0
GRID*                133               01.8411207938E+00-1.612113608E-01+
*       -1.904381115E-01               0
GRID*                134               0-1.089155213E+00-2.980540571E-01+
*       -1.221990885E-01               0
GRID*                135               0-1.073100069E+00-5.244890521E-01+
*       -9.357021988E-02               0
GRID*                136               0-1.290112524E+002.2506537650E-01+
*       -2.180450836E-02               0
GRID*                137               0-1.081614692E+001.1768087694E-01+
*       -1.342584066E-01               0
GRID*                138               01.5106468976E+00-5.895011250E-01+
*       -4.209894444E-02               0
GRID*                139               01.4951401114E+00-4.571838534E-01+
*       -4.419087834E-02               0
GRID*                140               01.5172156009E+00-4.123057191E-01+
*       -4.175080535E-02               0
GRID*                141               01.4544846413E+00-3.798107459E-01+
*       -1.215261708E-01               0
GRID*                142               01.3080754400E+00-4.401541124E-01+
*       -1.278339412E-01               0
GRID*                143               01.3357114484E+001.4982370852E-01+
*       1.4120601011E+00               0
GRID*                144               01.2747897555E+002.2125838166E-01+
*       1.3062561857E+00               0
GRID*                145               01.3373815021E+002.0572224851E-01+
*       1.4176633802E+00               0
GRID*                146               0-1.274360417E+006.0656373679E-01+
*       8.6007978663E-01               0
GRID*                147               0-1.271149652E+005.1322690975E-01+
*       7.7638344427E-01               0
GRID*                148               0-1.338431432E+006.8412073446E-01+
*       7.7195079476E-01               0
GRID*                149               01.3367506994E+003.1983299709E-01+
*       1.3516516005E+00               0
GRID*                150               01.2120613979E+001.7381886370E-01+
*       1.3859590961E+00               0
GRID*                151               01.3370678360E+00-5.123088399E-01+
*       1.2228558758E+00               0
GRID*                152               0-1.253157994E+00-4.751309417E-01+
*       9.1731914919E-01               0
GRID*                153               01.2605912891E+00-3.168697874E-01+
*       1.1885693734E+00               0
GRID*                154               0-1.338075051E+006.4760037728E-01+
*       9.4033520934E-01               0
GRID*                155               01.3375898431E+00-4.571391256E-01+
*       1.2735289433E+00               0
GRID*                156               01.2804520497E+00-3.353231639E-01+
*       6.5531706875E-01               0
GRID*                157               01.2785597357E+00-4.317202062E-01+
*       7.4975926400E-01               0
GRID*                158               01.2761584778E+00-4.410742725E-01+
*       5.7075686965E-01               0
GRID*                159               01.2709987086E+00-4.285424819E-01+
*       4.3541964097E-01               0
GRID*                160               0-1.210424073E+006.8256766958E-01+
*       7.8101384733E-01               0
GRID*                161               01.4409644437E+00-2.111842340E-01+
*       -1.225693699E-01               0
GRID*                162               01.2852083479E+00-3.138329642E-01+
*       5.1612907139E-01               0
GRID*                163               01.2953694316E+00-6.180207145E-02+
*       -1.314034793E-01               0
GRID*                164               01.2543817657E+00-1.830967795E-01+
*       3.2714466839E-01               0
GRID*                165               01.6047426767E+00-2.773954709E-01+
*       -1.301762921E-01               0
GRID*                166               01.2697845664E+00-5.723332876E-01+
*       4.9388357043E-01               0
GRID*                167               09.9461628452E-01-3.420035719E-01+
*       -1.420240035E-01               0
GRID*                168               08.7145815555E-01-2.189609826E-01+
*       -1.251016026E-01               0
GRID*                169               0-8.937154943E-01-3.112175207E-01+
*       -1.302184268E-01               0
GRID*                170               01.2985596932E+001.1315140670E-01+
*       3.0043814624E-01               0
GRID*                171               01.2675521685E+002.7013514277E-02+
*       1.9885634280E-01               0
GRID*                172               01.2748625288E+00-2.070168415E-01+
*       4.8543449736E-01               0
GRID*                173               01.2997238479E+00-9.586128388E-02+
*       4.3237032153E-01               0
GRID*                174               08.2767663343E-01-3.804209875E-01+
*       -1.176532701E-01               0
GRID*                175               07.5910983572E-02-6.257786323E-01+
*       -1.249986091E-01               0
GRID*                176               0-7.618430650E-02-6.258545959E-01+
*       -1.250340120E-01               0
GRID*                177               0-6.219789105E-05-6.873803079E-01+
*       -6.249805720E-02               0
GRID*                178               0-2.281180521E-01-6.264176723E-01+
*       -1.250525695E-01               0
GRID*                179               0-1.521994967E-01-6.874419815E-01+
*       -1.875115851E-01               0
GRID*                180               0-2.187820326E-05-6.874333489E-01+
*       -1.875081975E-01               0
GRID*                181               0-3.801799696E-01-3.745916442E-01+
*       -1.249906182E-01               0
GRID*                182               0-6.782938991E-01-8.792128500E-02+
*       -1.394575902E-01               0
GRID*                183               0-6.096487190E-017.1198293789E-03+
*       -1.236270873E-01               0
GRID*                184               0-8.243963542E-013.6671592134E-01+
*       -9.732639255E-02               0
GRID*                185               0-1.007518738E+003.1661517667E-01+
*       -1.366614585E-01               0
GRID*                186               0-8.802578430E-011.8613827304E-01+
*       -1.088669949E-01               0
GRID*                187               0-9.082133573E-014.5032620840E-01+
*       -1.206049198E-01               0
GRID*                188               01.2410857129E+005.9025268999E-02+
*       -1.548228351E-01               0
GRID*                189               0-1.754040234E+002.7286923595E-01+
*       -1.333177625E-01               0
GRID*                190               0-1.807967866E+003.8533725727E-01+
*       -1.471210327E-01               0
GRID*                191               0-1.758888273E+003.7919350819E-01+
*       -2.077098127E-01               0
GRID*                192               01.2053702239E+001.8285190492E-01+
*       -1.645459323E-01               0
GRID*                193               0-1.107938543E+003.3587446168E-01+
*       -1.268858329E-01               0
GRID*                194               01.4967281722E+006.8882856133E-01+
*       -1.913437329E-01               0
GRID*                195               0-1.145793863E+002.6508186818E-01+
*       -1.255037315E-01               0
GRID*                196               07.9793718109E-05-4.995254101E-01+
*       -1.251767320E-01               0
GRID*                197               01.5207522839E-01-4.995987317E-01+
*       -1.249771633E-01               0
GRID*                198               01.6420065983E+00-7.181453847E-01+
*       -1.892524489E-01               0
GRID*                199               0-1.076470331E+006.5077159759E-01+
*       -1.041558033E-01               0
GRID*                200               0-1.181578534E+006.7605561473E-01+
*       -6.751871544E-02               0
GRID*                201               0-1.527835538E+006.0854381570E-01+
*       -2.071806369E-01               0
GRID*                202               0-1.212409147E+006.9000040206E-01+
*       -1.913787594E-01               0
GRID*                203               01.2903304756E+00-4.254409677E-01+
*       1.1473109016E+00               0
GRID*                204               01.2104835330E+00-4.309145842E-01+
*       1.2570423560E+00               0
GRID*                205               0-1.803094735E+005.0119384449E-01+
*       -2.079851002E-01               0
GRID*                206               0-1.788769280E+005.9205650230E-01+
*       -2.074061305E-01               0
GRID*                207               01.2129074379E+00-5.416530829E-01+
*       1.1861899648E+00               0
GRID*                208               01.2108568232E+00-5.795176488E-01+
*       1.1271581178E+00               0
GRID*                209               0-7.786780232E-01-4.780787959E-01+
*       -1.281033272E-01               0
GRID*                210               0-8.814357268E-01-6.116838738E-01+
*       -1.495511634E-01               0
GRID*                211               01.2771133229E+00-5.750659846E-01+
*       7.2481620514E-01               0
GRID*                212               0-7.604491873E-01-6.863780885E-01+
*       -1.881257031E-01               0
GRID*                213               0-6.856843988E-01-6.233899110E-01+
*       -1.242575000E-01               0
GRID*                214               01.1926763123E+001.0320967832E-03+
*       1.0347594696E+00               0
GRID*                215               01.3547342839E+00-3.644781118E-03+
*       1.0454550025E+00               0
GRID*                216               01.2769321061E+001.8253527848E-01+
*       1.1774511097E+00               0
GRID*                217               01.2680096275E+006.5180060169E-01+
*       7.2938061249E-01               0
GRID*                218               01.3341737586E+006.8261363789E-01+
*       8.2344151080E-01               0
GRID*                219               01.1987352391E+006.9835545919E-01+
*       7.9328731392E-01               0
GRID*                220               01.2651035588E+006.0596389412E-01+
*       8.5781551139E-01               0
GRID*                221               06.8626557261E-016.2514746691E-01+
*       -1.167607245E-01               0
GRID*                222               06.1129243249E-016.8764731560E-01+
*       -6.236993545E-02               0
GRID*                223               08.5812951010E-016.1935944195E-01+
*       -1.212807256E-01               0
GRID*                224               07.5999065955E-016.8633108595E-01+
*       -1.873123453E-01               0
GRID*                225               01.0887868273E+003.2305753056E-01+
*       -1.202796931E-01               0
GRID*                226               01.0905561046E+005.5339521357E-01+
*       -1.277143251E-01               0
GRID*                227               0-1.796204507E+00-6.994008264E-01+
*       -1.870482817E-01               0
GRID*                228               0-1.752290683E+00-7.080812603E-01+
*       -1.886281948E-01               0
GRID*                229               0-1.760817884E+00-6.749416558E-01+
*       -1.456726177E-01               0
GRID*                230               01.0108908393E+004.2656362670E-01+
*       -1.239477818E-01               0
GRID*                231               0-1.209568858E+007.8069326208E-02+
*       1.4279242482E+00               0
GRID*                232               0-1.276327974E+00-5.978077456E-01+
*       3.0577210124E-01               0
GRID*                233               0-1.210241577E+00-6.833307892E-01+
*       2.2815541715E-01               0
GRID*                234               09.8573046807E-014.8568168626E-01+
*       -1.227558525E-01               0
GRID*                235               0-7.668252102E-015.3923277464E-02+
*       -1.243730668E-01               0
GRID*                236               0-8.169220587E-01-1.200369693E-01+
*       -1.251116131E-01               0
GRID*                237               0-9.258556208E-013.8080153656E-02+
*       -1.455782498E-01               0
GRID*                238               0-1.189616412E+002.5083010671E-01+
*       8.8872079520E-01               0
GRID*                239               0-1.180227714E+002.0944218875E-01+
*       9.4310569680E-01               0
GRID*                240               0-1.178318853E+001.5729637701E-01+
*       9.8094202464E-01               0
GRID*                241               0-1.264993160E+002.2069243325E-01+
*       1.0316175805E+00               0
GRID*                242               0-1.253969525E+00-4.239756372E-01+
*       4.2469284055E-01               0
GRID*                243               0-1.275357605E+00-5.897071100E-01+
*       5.0577048803E-01               0
GRID*                244               0-1.210337242E+00-6.853136901E-01+
*       3.7694015059E-01               0
GRID*                245               0-1.336952040E+004.2145818907E-01+
*       1.2859605773E+00               0
GRID*                246               0-1.335457195E+004.6615925184E-01+
*       1.2346648304E+00               0
GRID*                247               0-1.336665565E+003.5694295595E-01+
*       1.3250955894E+00               0
GRID*                248               0-1.335449557E+003.0791248355E-01+
*       1.3768337810E+00               0
GRID*                249               0-1.832314957E+00-5.689790440E-01+
*       -4.425477831E-02               0
GRID*                250               0-1.323377571E+00-2.593139946E-01+
*       -1.451795471E-01               0
GRID*                251               0-1.247946263E+00-3.857727233E-01+
*       -1.364706130E-01               0
GRID*                252               0-1.195438941E+00-1.859274552E-01+
*       -1.260859650E-01               0
GRID*                253               0-1.846281398E+007.0092093734E-01+
*       -1.229601679E-01               0
GRID*                254               0-1.379769066E+00-9.857970276E-02+
*       -1.480082299E-01               0
GRID*                255               0-1.833306524E+005.3261802427E-01+
*       -1.024931197E-01               0
GRID*                256               0-1.799874180E+005.3812414264E-01+
*       -4.229635269E-02               0
GRID*                257               0-1.789484668E+005.8318461170E-01+
*       -4.479434237E-02               0
GRID*                258               01.3345487335E+005.2882820373E-01+
*       1.1922781069E+00               0
GRID*                259               0-6.062556559E-01-2.645235102E-01+
*       -9.548200449E-02               0
GRID*                260               0-4.553881270E-01-2.504634061E-01+
*       -1.218538190E-01               0
GRID*                261               0-5.320633938E-01-3.878500083E-01+
*       -1.211830312E-01               0
GRID*                262               01.2694329077E+006.3747694017E-01+
*       4.5027944368E-01               0
GRID*                263               0-4.561238742E-01-4.996990728E-01+
*       -1.251532337E-01               0
GRID*                264               01.3334822926E+00-6.857647280E-01+
*       3.0228777790E-01               0
GRID*                265               01.3509101640E+00-7.012898164E-01+
*       2.0548663503E-01               0
GRID*                266               01.2831475973E+00-3.409070244E-01+
*       8.1019088029E-01               0
GRID*                267               01.2521901976E+001.4688608024E-01+
*       4.4625883167E-01               0
GRID*                268               01.2739443523E+002.3429919414E-01+
*       5.0633918702E-01               0
GRID*                269               01.3366673284E+004.7707565273E-01+
*       1.2416746977E+00               0
GRID*                270               01.3373357414E+004.3387478225E-01+
*       1.2769960210E+00               0
GRID*                271               01.2828361384E+003.9712079180E-01+
*       4.4989229984E-01               0
GRID*                272               01.2715568781E+003.5663216964E-01+
*       5.7473974291E-01               0
GRID*                273               01.1923733891E+002.5831886217E-01+
*       6.0447226890E-01               0
GRID*                274               01.3557858041E+002.5636642989E-01+
*       5.9581768046E-01               0
GRID*                275               0-1.499779216E+005.0234498906E-01+
*       -2.088303832E-01               0
GRID*                276               0-1.267208555E+004.9472506439E-01+
*       6.4429086676E-01               0
GRID*                277               0-1.501091097E+004.6235230645E-01+
*       -2.059487281E-01               0
GRID*                278               0-1.469029676E+003.7928670569E-01+
*       -1.218843532E-01               0
GRID*                279               0-1.516891539E+004.2400248033E-01+
*       -2.071635363E-01               0
GRID*                280               0-1.420752799E+004.9547472852E-01+
*       -1.290517271E-01               0
GRID*                281               07.3231305267E-013.7455999078E-01+
*       -1.326529248E-01               0
GRID*                282               07.9426775413E-014.8313963070E-01+
*       -1.350657994E-01               0
GRID*                283               01.3567747935E+001.5762520827E-01+
*       -1.343454280E-01               0
GRID*                284               01.2095546424E+00-6.855189971E-01+
*       6.6828512267E-01               0
GRID*                285               06.0969729424E-014.9984802520E-01+
*       -1.128203810E-01               0
GRID*                286               01.2691857967E+00-5.413830653E-01+
*       6.7824902134E-02               0
GRID*                287               01.2710814052E+00-6.292077117E-01+
*       1.8399403377E-01               0
GRID*                288               01.2670934112E+00-4.014761056E-01+
*       6.4793466258E-02               0
GRID*                289               01.3357384233E+00-6.792438704E-01+
*       9.1537101018E-02               0
GRID*                290               01.1994957666E+00-7.006093608E-01+
*       1.1978733857E-01               0
GRID*                291               01.2153440017E+00-6.740834589E-01+
*       -1.761691271E-02               0
GRID*                292               01.2086932089E+00-6.750117536E-01+
*       4.3050587919E-02               0
GRID*                293               0-1.862694878E+00-4.160312149E-01+
*       -6.160837769E-02               0
GRID*                294               0-1.865595038E+00-4.854744308E-01+
*       -6.297638561E-02               0
GRID*                295               0-1.800811715E+00-4.579097053E-01+
*       -4.004890653E-02               0
GRID*                296               01.2915075366E+00-6.207029260E-01+
*       -1.417981237E-01               0
GRID*                297               0-1.779270319E+00-4.112348833E-01+
*       -4.029373816E-02               0
GRID*                298               0-1.745728086E+00-3.651576572E-01+
*       -3.424861377E-02               0
GRID*                299               01.8439005448E+003.6841888402E-01+
*       -6.270976633E-02               0
GRID*                300               0-1.258555299E+00-6.171825682E-02+
*       3.6475751291E-02               0
GRID*                301               0-1.281882113E+00-2.866043031E-01+
*       8.0431899205E-02               0
GRID*                302               01.2847321682E+00-5.041521099E-01+
*       1.0500658344E+00               0
GRID*                303               01.3359107307E+00-5.226861703E-01+
*       1.1589108365E+00               0
GRID*                304               01.3359660936E+00-6.159677844E-01+
*       1.0723210060E+00               0
GRID*                305               0-1.214233167E+00-4.651804768E-02+
*       -1.624699429E-01               0
GRID*                306               01.1902793590E+00-1.969762287E-01+
*       9.6505800083E-01               0
GRID*                307               01.1919590353E+00-1.683801172E-01+
*       9.8783365568E-01               0
GRID*                308               01.3558651397E+00-1.323228526E-01+
*       1.0167911513E+00               0
GRID*                309               05.3232682837E-01-1.397268583E-01+
*       -1.442272939E-01               0
GRID*                310               03.7908795544E-01-1.229036561E-01+
*       -1.237680240E-01               0
GRID*                311               0-1.276332930E+003.5705568708E-01+
*       5.7556687605E-01               0
GRID*                312               0-1.355713445E+002.5894299684E-01+
*       6.0496533669E-01               0
GRID*                313               0-1.192073338E+002.5708500898E-01+
*       5.9495418261E-01               0
GRID*                314               01.2711430028E+00-4.917410296E-01+
*       2.6888089004E-01               0
GRID*                315               0-1.354573837E+001.6094789256E-01+
*       5.1055991740E-01               0
GRID*                316               07.5689462740E-01-4.935913418E-01+
*       -1.156305291E-01               0
GRID*                317               04.5581544467E-01-5.027776252E-01+
*       -1.189951593E-01               0
GRID*                318               05.3300298840E-01-6.249981449E-01+
*       -1.250398937E-01               0
GRID*                319               0-1.716376644E+00-7.860902478E-02+
*       -1.221819397E-01               0
GRID*                320               07.4911944949E-01-2.613895817E-01+
*       -1.222403079E-01               0
GRID*                321               04.5373159361E-011.4070519267E-02+
*       -1.360656547E-01               0
GRID*                322               0-6.086696446E-01-5.069552264E-01+
*       -1.238984163E-01               0
GRID*                323               0-6.080122559E-01-6.869710592E-01+
*       -1.874961226E-01               0
GRID*                324               0-5.326985229E-01-6.257869534E-01+
*       -1.251052137E-01               0
GRID*                325               0-6.112296388E-01-6.875664317E-01+
*       -6.250614065E-02               0
GRID*                326               01.7507623849E+00-2.680005104E-01+
*       -1.075073211E-01               0
GRID*                327               01.7145050591E+00-3.537493809E-01+
*       -2.073071465E-01               0
GRID*                328               01.7641732531E+00-3.787824255E-01+
*       -2.051025185E-01               0
GRID*                329               0-1.286691039E+002.1350588751E-01+
*       1.9195972161E-01               0
GRID*                330               0-1.268383401E+004.3325909722E-01+
*       6.8850571293E-02               0
GRID*                331               0-1.282597566E+003.1377538638E-01+
*       8.7195004796E-02               0
GRID*                332               08.9425489095E-013.2159125870E-01+
*       -1.024838654E-01               0
GRID*                333               0-7.267570585E-01-3.785177411E-01+
*       -1.244100248E-01               0
GRID*                334               0-9.073292579E-01-4.898924793E-01+
*       -1.258949061E-01               0
GRID*                335               0-1.290114831E+00-3.129323475E-01+
*       9.3169793183E-01               0
GRID*                336               0-1.093320345E+00-5.896044396E-02+
*       -1.054915462E-01               0
GRID*                337               0-1.356626908E+00-2.495338164E-01+
*       8.8828826514E-01               0
GRID*                338               0-1.355492662E+00-2.659663281E-01+
*       8.4658958584E-01               0
GRID*                339               0-1.283390771E+00-2.617811967E-01+
*       1.0329197389E+00               0
GRID*                340               0-1.280251858E+00-1.926037243E-01+
*       3.6003040505E-01               0
GRID*                341               0-1.275229013E+00-3.491737737E-01+
*       2.3848518967E-01               0
GRID*                342               0-1.254295489E+00-2.011581683E-01+
*       2.1311439846E-01               0
GRID*                343               0-1.010681774E+00-4.246021506E-01+
*       -1.252331951E-01               0
GRID*                344               0-1.279396207E+005.9069294372E-01+
*       1.7179659363E-01               0
GRID*                345               0-1.336016912E+006.9852868470E-01+
*       1.6420659177E-01               0
GRID*                346               0-1.270598659E+005.4061399102E-01+
*       3.0045914838E-02               0
GRID*                347               0-1.211088014E+006.7446585160E-01+
*       4.0258302459E-02               0
GRID*                348               09.2680771429E-016.8245219762E-01+
*       -6.418218693E-02               0
GRID*                349               01.7517128595E+007.1059035485E-01+
*       -1.893994859E-01               0
GRID*                350               01.7266241754E+00-4.506069725E-02+
*       -1.212955571E-01               0
GRID*                351               01.8372921577E+00-7.692720373E-02+
*       -5.950264940E-02               0
GRID*                352               01.4430891390E+006.4553957822E-01+
*       -1.531131990E-01               0
GRID*                353               01.1057243061E+001.0038039834E-01+
*       -1.330471999E-01               0
GRID*                354               09.7199279753E-011.0511848652E-01+
*       -1.546480449E-01               0
GRID*                355               0-6.796036393E-013.6605288626E-01+
*       -1.224102891E-01               0
GRID*                356               0-7.559602863E-015.0931810438E-01+
*       -1.095159929E-01               0
GRID*                357               01.8650892617E+004.1754513855E-01+
*       -6.420853687E-02               0
GRID*                358               01.8662260387E+004.8782396700E-01+
*       -6.016200886E-02               0
GRID*                359               01.7803958512E+004.1242988615E-01+
*       -4.075890607E-02               0
GRID*                360               01.8023730117E+004.6007341659E-01+
*       -4.387706598E-02               0
GRID*                361               01.7162093165E+002.9271040475E-01+
*       -1.128147330E-01               0
GRID*                362               01.8432308014E+002.9362486825E-01+
*       -6.094009656E-02               0
GRID*                363               0-8.353838344E-016.0598374406E-01+
*       -1.375814456E-01               0
GRID*                364               0-1.247494469E+003.7556922567E-01+
*       6.9906340560E-01               0
GRID*                365               0-1.355012325E+002.7780424140E-01+
*       6.4106443606E-01               0
GRID*                366               03.7955532963E-01-3.715497552E-01+
*       -1.249268467E-01               0
GRID*                367               03.0442979508E-01-4.992820324E-01+
*       -1.251448127E-01               0
GRID*                368               02.2832960260E-01-6.257477244E-01+
*       -1.250047734E-01               0
GRID*                369               03.8082214416E-01-6.255730275E-01+
*       -1.249697738E-01               0
GRID*                370               02.2816345543E-01-3.742370163E-01+
*       -1.250766934E-01               0
GRID*                371               01.3353309101E+003.7640742977E-01+
*       1.3164052129E+00               0
GRID*                372               0-3.789763137E-011.1023595196E-01+
*       -1.259052364E-01               0
GRID*                373               0-3.033934774E-01-1.777041395E-03+
*       -1.248841079E-01               0
GRID*                374               01.3582008305E+00-2.952524530E-01+
*       7.6422103431E-01               0
GRID*                375               01.3566799508E+00-2.819831492E-01+
*       8.1926730516E-01               0
GRID*                376               0-3.794948506E-01-1.330724198E-01+
*       -1.305124788E-01               0
GRID*                377               0-4.543894131E-01-6.431945196E-03+
*       -1.370080791E-01               0
GRID*                378               0-1.269942441E+003.3620280234E-02+
*       1.9340727078E-01               0
GRID*                379               0-1.273142863E+004.2098886459E-02+
*       6.1399015624E-02               0
GRID*                380               07.6038931556E-023.7464721905E-01+
*       -1.251047259E-01               0
GRID*                381               01.5222888147E-014.9965885089E-01+
*       -1.249351277E-01               0
GRID*                382               01.5271968618E-01-6.873001004E-01+
*       -6.249513968E-02               0
GRID*                383               05.3230886127E-016.2632653220E-01+
*       -1.244856382E-01               0
GRID*                384               0-9.865148381E-01-4.831892366E-01+
*       -1.221332657E-01               0
GRID*                385               0-7.624933701E-01-2.685264549E-01+
*       -1.584147116E-01               0
GRID*                386               01.8104704212E+00-6.003544660E-01+
*       -8.386830698E-02               0
GRID*                387               01.4753240833E+00-5.355160105E-01+
*       -2.100318595E-01               0
GRID*                388               01.5022815340E+00-5.025295996E-01+
*       -2.075676835E-01               0
GRID*                389               01.4997164572E+00-4.618295367E-01+
*       -2.065311571E-01               0
GRID*                390               01.5167369742E+00-4.230713884E-01+
*       -2.070514003E-01               0
GRID*                391               0-1.294540642E+00-4.744582403E-01+
*       2.5119382647E-01               0
GRID*                392               0-3.046162143E-016.8693601509E-01+
*       -1.837719284E-01               0
GRID*                393               0-3.804147436E-016.2583106766E-01+
*       -1.246142570E-01               0
GRID*                394               0-1.295070524E+00-5.710815865E-01+
*       1.6097457105E-01               0
GRID*                395               0-1.280381097E+00-4.306332780E-01+
*       1.0227105241E-01               0
GRID*                396               0-1.537199047E+00-3.810964064E-01+
*       -4.330513993E-02               0
GRID*                397               0-1.578368379E+00-3.637518736E-01+
*       -4.555990040E-02               0
GRID*                398               0-1.338347031E+00-6.930013188E-01+
*       1.7219646148E-01               0
GRID*                399               0-1.336765604E+00-7.007594552E-01+
*       2.3165923864E-01               0
GRID*                400               0-1.543731541E+00-3.622699859E-01+
*       -2.070246226E-01               0
GRID*                401               0-1.739202223E+00-2.736272786E-01+
*       -1.045753638E-01               0
GRID*                402               0-1.335322557E+00-1.375053869E-02+
*       1.4375947745E+00               0
GRID*                403               0-1.334431349E+001.0233543270E-01+
*       1.4020749036E+00               0
GRID*                404               0-1.679343841E+00-3.292617314E-01+
*       -2.064509469E-01               0
GRID*                405               0-1.649320583E+00-3.250682362E-01+
*       -4.236957483E-02               0
GRID*                406               0-1.683176849E+00-3.530385170E-01+
*       -4.201237525E-02               0
GRID*                407               01.3350625135E+00-5.997843975E-02+
*       1.4208571231E+00               0
GRID*                408               01.2101865503E+00-7.050971154E-02+
*       1.4282785796E+00               0
GRID*                409               01.2107315544E+00-2.107481761E-01+
*       1.4043759557E+00               0
GRID*                410               01.2447544133E+00-1.895651352E-01+
*       1.1976268014E+00               0
GRID*                411               0-1.274103110E+005.2735938752E-01+
*       1.0723176886E+00               0
GRID*                412               0-1.269005928E+004.7393563809E-01+
*       9.5195612137E-01               0
GRID*                413               0-1.175151067E+007.3169056445E-02+
*       1.0151795157E+00               0
GRID*                414               0-1.206347715E+006.0309863326E-02+
*       1.0214420279E+00               0
GRID*                415               0-1.180417521E+003.6404527040E-02+
*       1.0279188010E+00               0
GRID*                416               0-1.190400937E+001.3534709313E-02+
*       1.0578249491E+00               0
GRID*                417               0-1.256746967E+00-6.645355729E-02+
*       3.2839633074E-01               0
GRID*                418               06.0795751207E-016.8698675940E-01+
*       -1.873561635E-01               0
GRID*                419               0-1.355216952E+002.2254153931E-01+
*       5.6619721955E-01               0
GRID*                420               01.2672204211E+00-3.460720918E-01+
*       2.5924595815E-01               0
GRID*                421               01.2677128590E+00-3.001640335E-01+
*       3.6572900245E-01               0
GRID*                422               01.5862146400E+003.5953198269E-02+
*       -1.204087309E-01               0
GRID*                423               01.5185250732E+002.7877620122E-01+
*       -1.349504341E-01               0
GRID*                424               03.7933708285E-011.2535831392E-01+
*       -1.248782795E-01               0
GRID*                425               0-1.265108095E+003.6180023281E-01+
*       1.1645160065E+00               0
GRID*                426               01.7663054545E+001.5195038919E-01+
*       -1.204709645E-01               0
GRID*                427               05.2846997861E-011.3939594363E-01+
*       -1.112750699E-01               0
GRID*                428               06.0505078558E-012.4730580433E-01+
*       -1.093144898E-01               0
GRID*                429               01.1903797057E+00-2.479604395E-01+
*       8.8908369711E-01               0
GRID*                430               0-7.392878902E-012.3980347238E-01+
*       -1.297280022E-01               0
GRID*                431               0-6.119010850E-012.3428708078E-01+
*       -1.005401265E-01               0
GRID*                432               06.8925184917E-018.2635176508E-02+
*       -1.331740624E-01               0
GRID*                433               0-1.250904567E+00-4.323349813E-01+
*       1.0089721774E+00               0
GRID*                434               07.7100099089E-012.7667864277E-01+
*       -1.469326775E-01               0
GRID*                435               03.0419770741E-012.4348995450E-01+
*       -1.186853200E-01               0
GRID*                436               01.2839012112E+004.1750190525E-01+
*       2.8707461487E-01               0
GRID*                437               0-1.274847002E+003.9657988755E-01+
*       4.4145741817E-01               0
GRID*                438               0-1.265716787E+005.0659729708E-01+
*       3.9010281668E-01               0
GRID*                439               0-1.267634060E+004.1556670307E-01+
*       2.8779453743E-01               0
GRID*                440               06.8578839777E-01-6.353249509E-01+
*       -1.132980612E-01               0
GRID*                441               04.5792103335E-01-6.863916871E-01+
*       -6.248944126E-02               0
GRID*                442               0-1.285421537E+006.4588839283E-01+
*       4.4931419311E-01               0
GRID*                443               0-1.259989202E+006.2314952003E-01+
*       2.9949007365E-01               0
GRID*                444               0-1.259060100E+004.9023286077E-01+
*       5.3218309772E-01               0
GRID*                445               0-1.858533651E+00-3.058175821E-01+
*       -1.887654541E-01               0
GRID*                446               0-1.867501840E+00-2.088693743E-01+
*       -2.058245771E-01               0
GRID*                447               06.1818981402E-01-9.490324869E-03+
*       -1.050379716E-01               0
GRID*                448               01.5450732121E+003.6175621749E-01+
*       -2.080141946E-01               0
GRID*                449               01.5277609091E+003.9973850676E-01+
*       -2.074581542E-01               0
GRID*                450               01.4645931465E+004.5496797587E-01+
*       -4.423798579E-02               0
GRID*                451               01.4629596573E+004.9649140911E-01+
*       -4.207777134E-02               0
GRID*                452               01.5044246837E+004.3015465754E-01+
*       -2.091045656E-01               0
GRID*                453               01.4843291444E+004.8110867298E-01+
*       -2.057717232E-01               0
GRID*                454               0-1.272593307E+00-3.466025261E-01+
*       8.1181837330E-01               0
GRID*                455               0-1.279512392E+00-4.379160285E-01+
*       7.6114555566E-01               0
GRID*                456               0-1.356673052E+00-2.290728471E-01+
*       9.2162321186E-01               0
GRID*                457               0-1.355654877E+00-1.984460795E-01+
*       9.6529798830E-01               0
GRID*                458               0-1.288817717E+00-4.416586233E-01+
*       1.1368228327E+00               0
GRID*                459               0-1.280715726E+00-3.133981028E-01+
*       1.1677480068E+00               0
GRID*                460               0-1.211106475E+00-4.589716034E-01+
*       1.2728019114E+00               0
GRID*                461               0-1.298887463E+00-3.174910883E-01+
*       6.6282039155E-01               0
GRID*                462               0-1.275627127E+00-5.581057262E-01+
*       6.7020978973E-01               0
GRID*                463               0-1.191330496E+00-2.507276222E-01+
*       9.0210972698E-01               0
GRID*                464               0-1.192827206E+00-2.723360108E-01+
*       8.5457194212E-01               0
GRID*                465               0-1.276699689E+00-4.427753129E-01+
*       5.7287209400E-01               0
GRID*                466               0-1.357528189E+008.4603045085E-02+
*       1.0251531974E+00               0
GRID*                467               01.1921183991E+001.2155845405E-01+
*       1.0019759993E+00               0
GRID*                468               01.1919601039E+008.4993942860E-02+
*       1.0255225799E+00               0
GRID*                469               0-1.260662008E+001.8326938984E-01+
*       1.1772125452E+00               0
GRID*                470               07.6534752631E-016.8643392479E-01+
*       -6.230848400E-02               0
GRID*                471               0-1.270428568E+003.2096892215E-01+
*       9.0929446104E-01               0
GRID*                472               0-1.354758085E+00-9.056235766E-04+
*       1.0340010537E+00               0
GRID*                473               04.5655336294E-01-6.874144163E-01+
*       -1.875063134E-01               0
GRID*                474               0-1.743294151E+00-7.170833926E-01+
*       -6.204912013E-02               0
GRID*                475               03.0547104133E-01-6.871382834E-01+
*       -6.249962316E-02               0
GRID*                476               0-1.355330061E+002.8956591013E-01+
*       7.3091159766E-01               0
GRID*                477               0-6.849664005E-016.3567794526E-01+
*       -1.134280833E-01               0
GRID*                478               0-7.608067373E-016.8734914317E-01+
*       -1.875894021E-01               0
GRID*                479               0-7.605159668E-016.8162350237E-01+
*       -6.249742176E-02               0
GRID*                480               0-1.494916890E+005.0139773372E-01+
*       -4.163834268E-02               0
GRID*                481               0-1.463556013E+005.7039378693E-01+
*       -4.463834859E-02               0
GRID*                482               02.2847226010E-016.2580323316E-01+
*       -1.251916515E-01               0
GRID*                483               03.8031359056E-016.2644593098E-01+
*       -1.248973755E-01               0
GRID*                484               0-1.496957746E+004.5845829129E-01+
*       -4.303305277E-02               0
GRID*                485               01.5356732617E+00-1.181123824E-01+
*       -1.263274399E-01               0
GRID*                486               01.8318242368E+002.2890534112E-01+
*       -6.143478278E-02               0
GRID*                487               01.8034402504E+005.0181697475E-01+
*       -4.133377392E-02               0
GRID*                488               01.7884160046E+005.9165728701E-01+
*       -4.181491938E-02               0
GRID*                489               01.8359195920E+005.6933565754E-01+
*       -4.472764086E-02               0
GRID*                490               0-3.045403997E-01-4.996770312E-01+
*       -1.251252277E-01               0
GRID*                491               0-3.805350070E-01-6.263210980E-01+
*       -1.246269735E-01               0
GRID*                492               0-3.045827838E-01-6.868972080E-01+
*       -1.837144508E-01               0
GRID*                493               0-2.821790957E-01-7.008836531E-01+
*       -5.011120520E-02               0
GRID*                494               0-1.284900455E+003.2627981991E-02+
*       4.0245887961E-01               0
GRID*                495               0-1.253229874E+00-1.121064627E-01+
*       4.4249805141E-01               0
GRID*                496               01.5263640822E+00-6.094698844E-01+
*       -2.078276095E-01               0
GRID*                497               01.2979665823E+00-4.200250389E-01+
*       9.5039071700E-01               0
GRID*                498               0-1.355667053E+00-3.888096633E-02+
*       4.6086548986E-01               0
GRID*                499               0-1.272782819E+001.2370279344E-01+
*       2.9877167349E-01               0
GRID*                500               0-1.355030916E+008.4075737837E-02+
*       4.7187154874E-01               0
GRID*                501               01.2120598678E+005.1632313132E-01+
*       1.1843579388E+00               0
GRID*                502               01.2096491890E+004.6380026378E-01+
*       1.2340943888E+00               0
GRID*                503               0-1.192575866E+007.5690924183E-02+
*       4.7776508817E-01               0
GRID*                504               01.2108530663E+004.2197493188E-01+
*       1.2883387423E+00               0
GRID*                505               01.2103183341E+003.5728998250E-01+
*       1.3254333694E+00               0
GRID*                506               01.3336800923E+006.5768913497E-01+
*       9.7123618921E-01               0
GRID*                507               01.1992033974E+006.3904247032E-01+
*       1.0128454226E+00               0
GRID*                508               0-2.277918748E-016.2690731654E-01+
*       -1.245126418E-01               0
GRID*                509               0-4.564855875E-016.8745754229E-01+
*       -1.873112556E-01               0
GRID*                510               01.2132229817E+00-6.506731022E-01+
*       9.5713230567E-01               0
GRID*                511               01.2101835787E+00-6.217185159E-01+
*       1.0226696209E+00               0
GRID*                512               01.2597486333E+00-5.404315818E-01+
*       8.8777247348E-01               0
GRID*                513               03.0561464575E-016.8750193446E-01+
*       -6.250414945E-02               0
GRID*                514               0-1.273234366E+00-6.924791920E-02+
*       1.4450084069E-01               0
GRID*                515               02.2784248780E-011.2505429030E-01+
*       -1.249156157E-01               0
GRID*                516               01.1924993063E+002.2496601552E-01+
*       9.4323892392E-01               0
GRID*                517               01.3574514672E+00-9.631364250E-02+
*       1.0324658169E+00               0
GRID*                518               01.3574311041E+00-4.277995528E-02+
*       1.0406013295E+00               0
GRID*                519               01.2654358558E+00-2.670172371E-01+
*       1.3134335945E+00               0
GRID*                520               01.5202965948E-012.4976063212E-01+
*       -1.249045015E-01               0
GRID*                521               01.3559169508E+00-2.726916110E-01+
*       8.5749832070E-01               0
GRID*                522               01.3565109144E+00-2.484538638E-01+
*       9.0284492739E-01               0
GRID*                523               03.0338609111E-01-2.472180635E-01+
*       -1.249057979E-01               0
GRID*                524               01.3561167643E+00-1.598617902E-01+
*       9.7884809566E-01               0
GRID*                525               01.1909020607E+00-2.754986916E-01+
*       8.1007519520E-01               0
GRID*                526               01.1922996684E+00-2.806159968E-01+
*       7.6800119359E-01               0
GRID*                527               02.2788524736E-01-1.241467239E-01+
*       -1.249788865E-01               0
GRID*                528               0-1.261423950E+00-5.756481342E-01+
*       9.7251534724E-01               0
GRID*                529               0-1.523925191E-016.8703009965E-01+
*       -1.837486357E-01               0
GRID*                530               0-1.279655780E+00-2.669558214E-01+
*       1.3174092401E+00               0
GRID*                531               0-7.569679653E-026.2643398282E-01+
*       -1.250590913E-01               0
GRID*                532               0-1.520995443E-014.9956968028E-01+
*       -1.249537103E-01               0
GRID*                533               0-1.306935826E-017.0411576980E-01+
*       -4.653358054E-02               0
GRID*                534               0-3.292751613E-017.0676815046E-01+
*       -4.523627297E-02               0
GRID*                535               0-1.528681206E-01-6.874145073E-01+
*       -6.249516279E-02               0
GRID*                536               01.3745380042E+006.7589105739E-01+
*       -6.751679117E-02               0
GRID*                537               0-1.522315019E-01-4.997349109E-01+
*       -1.250971599E-01               0
GRID*                538               01.4640087886E+007.0608794013E-01+
*       -4.366408979E-02               0
GRID*                539               0-7.615122812E-023.7409011193E-01+
*       -1.250084812E-01               0
GRID*                540               0-2.125640802E-054.9953991708E-01+
*       -1.250837424E-01               0
GRID*                541               07.5996713680E-026.2594097275E-01+
*       -1.251367115E-01               0
GRID*                542               05.6527175022E-056.8739492711E-01+
*       -6.249972594E-02               0
GRID*                543               01.5216305662E-01-6.874330499E-01+
*       -1.875086986E-01               0
GRID*                544               0-6.096121533E-016.8469755897E-01+
*       -6.202255389E-02               0
GRID*                545               0-1.336142497E+00-6.784398600E-01+
*       3.7608484852E-01               0
GRID*                546               01.1023161068E+00-1.153493898E-01+
*       -1.396847329E-01               0
GRID*                547               0-1.287648166E+003.9312824823E-01+
*       8.1421685262E-01               0
GRID*                548               01.4377068729E+00-8.987865873E-02+
*       -1.220917615E-01               0
GRID*                549               0-1.214648952E+006.7240316388E-01+
*       -1.973967361E-02               0
GRID*                550               01.5054907599E+00-5.758645903E-01+
*       -2.077610378E-01               0
GRID*                551               0-1.861649939E-042.4944434201E-01+
*       -1.249615368E-01               0
GRID*                552               0-1.717689979E+00-3.417511988E-01+
*       -2.087936029E-01               0
GRID*                553               0-3.041694459E-01-2.488791299E-01+
*       -1.241498826E-01               0
GRID*                554               01.0625504021E+006.8421098147E-01+
*       -1.897643557E-01               0
GRID*                555               0-9.131173985E-01-6.855784020E-01+
*       -1.914075948E-01               0
GRID*                556               0-7.657544092E-01-6.860677782E-01+
*       -6.303602307E-02               0
GRID*                557               0-2.283959480E-01-3.747091280E-01+
*       -1.249889469E-01               0
GRID*                558               0-1.270055535E+006.2105641473E-01+
*       6.1050765934E-01               0
GRID*                559               0-1.289128836E+00-6.088866635E-01+
*       -1.418380997E-01               0
GRID*                560               0-1.336766262E+00-6.764009562E-01+
*       -1.829669590E-02               0
GRID*                561               0-1.337936473E+00-6.717284681E-01+
*       4.2140990876E-02               0
GRID*                562               0-1.336505886E+005.1637793960E-01+
*       1.1810069013E+00               0
GRID*                563               0-1.210564308E+006.9331530973E-01+
*       6.6201414684E-01               0
GRID*                564               0-1.212194159E+006.5797164520E-01+
*       9.7010309931E-01               0
GRID*                565               0-4.541617593E-012.6534945766E-01+
*       -1.208485639E-01               0
GRID*                566               0-5.544334300E-011.2639219414E-01+
*       -1.428310161E-01               0
GRID*                567               0-1.335711989E+006.2022068979E-01+
*       1.0021282692E+00               0
GRID*                568               0-1.337539450E+006.9526635580E-01+
*       9.2415439857E-02               0
GRID*                569               0-1.335391809E+006.7537414571E-01+
*       3.8936473260E-02               0
GRID*                570               0-2.279190794E-011.2336233437E-01+
*       -1.248678663E-01               0
GRID*                571               0-1.834574698E+001.6661930012E-01+
*       -1.873511148E-01               0
GRID*                572               01.5866022180E+003.4967395815E-01+
*       -2.072349082E-01               0
GRID*                573               0-7.606925533E-02-3.746855694E-01+
*       -1.251310658E-01               0
GRID*                574               01.2358143689E+006.3074974617E-01+
*       1.0361638497E+00               0
GRID*                575               0-1.337577091E+00-6.852613706E-01+
*       6.6701596175E-01               0
GRID*                576               0-1.334624061E+00-6.830006875E-01+
*       5.9681204434E-01               0
GRID*                577               01.3343446344E+00-6.837554929E-01+
*       3.7513104739E-01               0
GRID*                578               03.0386981099E-018.4580860341E-04+
*       -1.250375974E-01               0
GRID*                579               07.5890660382E-021.2472172590E-01+
*       -1.249918748E-01               0
GRID*                580               0-7.597177559E-021.2482021944E-01+
*       -1.249386309E-01               0
GRID*                581               01.5208463809E-018.8214391301E-05+
*       -1.250744194E-01               0
GRID*                582               01.1928858013E+00-2.550679217E-01+
*       6.0626456650E-01               0
GRID*                583               0-1.383474801E+007.0545010296E-01+
*       -2.071995296E-01               0
GRID*                584               0-1.375173485E+006.7591875207E-01+
*       -7.035042328E-02               0
GRID*                585               0-1.337523556E+006.7208617617E-01+
*       -2.002800785E-02               0
GRID*                586               0-1.191095251E+00-1.291637922E-01+
*       1.0170110979E+00               0
GRID*                587               0-1.173905194E+00-8.109537685E-02+
*       1.0185425884E+00               0
GRID*                588               0-1.634488319E+002.6378820576E-01+
*       -1.339341378E-01               0
GRID*                589               0-1.556003359E+003.1799016535E-01+
*       -4.531330956E-02               0
GRID*                590               0-1.538181096E+003.9285598146E-01+
*       -2.090221236E-01               0
GRID*                591               0-1.580695714E+003.5199982946E-01+
*       -2.059386934E-01               0
GRID*                592               01.1375369266E+006.8045029162E-01+
*       -1.840228708E-01               0
GRID*                593               01.2107473667E+006.8111087124E-01+
*       -1.866233055E-01               0
GRID*                594               01.1924490653E+00-1.242058014E-01+
*       4.8296866986E-01               0
GRID*                595               01.3552623545E+00-3.927920780E-02+
*       4.7041703808E-01               0
GRID*                596               0-1.253796819E+00-3.035575231E-01+
*       5.6467398901E-01               0
GRID*                597               09.8987749752E-016.8513898637E-01+
*       -1.876507446E-01               0
GRID*                598               09.1450292298E-016.8146449459E-01+
*       -1.885075968E-01               0
GRID*                599               09.0709379518E-014.9018230878E-01+
*       -1.249169664E-01               0
GRID*                600               01.2122062571E+00-6.785456920E-01+
*       3.7167921003E-01               0
GRID*                601               01.3350968798E+00-6.876488762E-01+
*       4.4694626806E-01               0
GRID*                602               01.2112242908E+00-7.042099231E-01+
*       3.0229987479E-01               0
GRID*                603               0-1.356976019E+00-8.227887120E-02+
*       1.0224931018E+00               0
GRID*                604               0-1.333620246E+006.8639111326E-01+
*       3.7503188371E-01               0
GRID*                605               0-1.358021232E+004.9268141500E-02+
*       1.0344239776E+00               0
GRID*                606               0-1.356281109E+002.8821756876E-01+
*       7.7839372029E-01               0
GRID*                607               0-1.190899116E+002.8003630377E-01+
*       6.9075843273E-01               0
GRID*                608               0-1.353874222E+001.2159894036E-01+
*       1.0016535923E+00               0
GRID*                609               0-1.356243373E+001.9758336351E-01+
*       9.7115804168E-01               0
GRID*                610               0-1.557895584E+00-8.546313595E-03+
*       -1.371005237E-01               0
GRID*                611               0-1.356933134E+001.9734830987E-01+
*       5.3893505953E-01               0
GRID*                612               0-1.829608769E+00-2.258044084E-01+
*       -6.092151309E-02               0
GRID*                613               0-1.837806617E+00-2.387684386E-03+
*       -6.145207683E-02               0
GRID*                614               01.5767317886E+001.9596232517E-01+
*       -1.222190127E-01               0
GRID*                615               0-1.783589463E+00-4.087996110E-01+
*       -2.086613347E-01               0
GRID*                616               01.8427046165E+00-3.652413412E-01+
*       -6.174639853E-02               0
GRID*                617               0-1.519855063E-012.4929290050E-01+
*       -1.249694065E-01               0
GRID*                618               01.3341824503E+00-6.837754435E-01+
*       6.5556869721E-01               0
GRID*                619               08.3213154920E-01-6.155632103E-01+
*       -1.255308321E-01               0
GRID*                620               07.5894574361E-02-3.745272151E-01+
*       -1.251029029E-01               0
GRID*                621               01.3346956484E+00-6.503868352E-01+
*       9.5226480931E-01               0
GRID*                622               01.3577222095E+00-6.131788028E-04+
*       4.6829126314E-01               0
GRID*                623               01.3552557379E+003.7834213541E-02+
*       4.7136059000E-01               0
GRID*                624               0-1.275774089E+007.3573608684E-02+
*       -2.133802442E-03               0
GRID*                625               01.3557080713E+004.5946573301E-02+
*       1.0372202889E+00               0
GRID*                626               01.2137292388E+00-6.826818220E-01+
*       5.9736936539E-01               0
GRID*                627               01.3564344173E+00-2.287960723E-01+
*       9.3258534368E-01               0
GRID*                628               01.2109082407E+001.0330179388E-01+
*       1.3999035012E+00               0
GRID*                629               01.1900312686E+007.0026721343E-01+
*       8.3886891634E-01               0
GRID*                630               01.2706307581E+005.9502423983E-01+
*       2.9861792643E-01               0
GRID*                631               01.3374357356E+006.8981454615E-01+
*       2.3625206044E-01               0
GRID*                632               01.2937714544E+005.1397245921E-01+
*       3.9175598138E-01               0
GRID*                633               01.2889372244E+005.0369114897E-01+
*       5.2274739906E-01               0
GRID*                634               01.2107235227E+006.8718822794E-01+
*       5.2301465979E-01               0
GRID*                635               0-1.719639170E+007.2013735023E-02+
*       -1.425255268E-01               0
GRID*                636               0-1.610936524E+001.3248308749E-01+
*       -1.406527155E-01               0
GRID*                637               01.2474689313E+003.7336049277E-01+
*       8.1211456620E-01               0
GRID*                638               01.2475763996E+004.8397694954E-01+
*       7.5507316339E-01               0
GRID*                639               01.2941722308E+003.6872653725E-01+
*       6.9066724343E-01               0
GRID*                640               01.3581096972E+006.8539680295E-01+
*       -1.918273176E-01               0
GRID*                641               01.3371292893E+006.7444873955E-01+
*       -1.925821510E-02               0
GRID*                642               01.1809506435E+006.7852920938E-01+
*       -6.801168250E-02               0
GRID*                643               01.1057761660E+006.7275684930E-01+
*       -6.335821117E-02               0
GRID*                644               09.7120858162E-01-5.955768584E-01+
*       -1.230169427E-01               0
GRID*                645               09.0775831351E-01-6.144363278E-01+
*       -1.242821072E-01               0
GRID*                646               0-1.263902496E+002.2301662752E-01+
*       1.3087281187E+00               0
GRID*                647               01.3546637393E+002.7700352452E-01+
*       8.1196749129E-01               0
GRID*                648               01.2093323228E+006.4786296739E-01+
*       9.4065656143E-01               0
GRID*                649               0-1.174905122E+00-8.900375200E-03+
*       1.0270742222E+00               0
GRID*                650               0-1.202721175E+00-3.209719778E-02+
*       1.0298443868E+00               0
GRID*                651               0-1.191182557E+00-5.760790776E-03+
*       1.0441545616E+00               0
GRID*                652               0-1.190767709E+001.4835343759E-01+
*       5.0700177151E-01               0
GRID*                653               0-1.193256256E+001.8973580411E-01+
*       5.2905708870E-01               0
GRID*                654               0-5.288006848E-01-1.255699368E-01+
*       -1.109189398E-01               0
GRID*                655               0-1.282915765E+00-5.349215833E-01+
*       2.9348559893E-02               0
GRID*                656               0-1.211769953E+00-6.742171195E-01+
*       3.9591726957E-02               0
GRID*                657               0-1.181006094E+001.1334907701E-01+
*       1.0353508337E+00               0
GRID*                658               0-1.212705921E+00-6.806777618E-01+
*       9.2548230869E-02               0
GRID*                659               09.2902397877E-01-5.802357996E-02+
*       -1.564407433E-01               0
GRID*                660               08.2005743590E-019.4767952901E-02+
*       -1.366639792E-01               0
GRID*                661               0-1.287506868E+00-2.856331319E-01+
*       3.9136172699E-01               0
GRID*                662               0-1.831205926E+00-1.784813133E-01+
*       -1.864090435E-01               0
GRID*                663               0-1.831405499E+00-1.028079690E-01+
*       -1.891646883E-01               0
GRID*                664               01.4988990514E+004.5921578056E-01+
*       -4.029347696E-02               0
GRID*                665               01.5152021986E+004.1303179173E-01+
*       -4.349887394E-02               0
GRID*                666               0-6.062794327E-014.9793934273E-01+
*       -1.212926818E-01               0
GRID*                667               0-5.330778958E-016.2705579444E-01+
*       -1.138654847E-01               0
GRID*                668               01.3375547580E+00-6.872381520E-01+
*       5.1838473104E-01               0
GRID*                669               01.3379583206E+00-6.826102650E-01+
*       5.8657902762E-01               0
GRID*                670               0-9.673582304E-01-9.132412974E-02+
*       -1.311878215E-01               0
GRID*                671               01.1913528746E+001.9638422174E-01+
*       5.3865984481E-01               0
GRID*                672               0-1.502714279E+006.9282958474E-01+
*       -6.427533880E-02               0
GRID*                673               0-1.474244564E+005.3656225750E-01+
*       -2.068210340E-01               0
GRID*                674               0-1.186892144E+00-5.407505839E-01+
*       -1.493772700E-01               0
GRID*                675               0-1.210004851E+00-6.834107719E-01+
*       -1.903163897E-01               0
GRID*                676               03.0435995065E-01-6.874327508E-01+
*       -1.875137304E-01               0
GRID*                677               0-1.272470441E+001.4884405093E-01+
*       1.6494051347E-03               0
GRID*                678               0-1.539482885E+003.7897894103E-01+
*       -4.002339067E-02               0
GRID*                679               0-1.355859778E+00-2.535579409E-01+
*       6.0703770972E-01               0
GRID*                680               0-1.504038941E+005.7828149979E-01+
*       -2.076740574E-01               0
GRID*                681               01.7114544236E+003.5305545280E-01+
*       -2.082223102E-01               0
GRID*                682               01.7617383335E+003.7791266970E-01+
*       -2.041183256E-01               0
GRID*                683               01.7572619820E+003.7924129055E-01+
*       -4.202264907E-02               0
GRID*                684               01.7164644630E+003.6494578056E-01+
*       -4.247156419E-02               0
GRID*                685               0-1.209935722E+006.9067797862E-01+
*       2.3672901976E-01               0
GRID*                686               0-1.210944467E+00-6.732415040E-01+
*       8.2254087149E-01               0
GRID*                687               0-1.331232977E+00-6.773809525E-01+
*       8.2718026399E-01               0
GRID*                688               0-1.192574110E+00-1.606190849E-01+
*       9.8105928053E-01               0
GRID*                689               0-1.355471988E+002.8336480648E-01+
*       6.9219823671E-01               0
GRID*                690               0-1.189475105E+002.6771263041E-01+
*       8.5369522659E-01               0
GRID*                691               0-1.193229683E+002.7750060016E-01+
*       8.1071133015E-01               0
GRID*                692               0-1.355344872E+002.6994777304E-01+
*       8.6264984202E-01               0
GRID*                693               01.2109128144E+006.8641257423E-01+
*       3.7490686392E-01               0
GRID*                694               0-1.803369799E+004.5823262005E-01+
*       -4.303229805E-02               0
GRID*                695               0-1.863869149E+004.1664346227E-01+
*       -6.306510549E-02               0
GRID*                696               0-1.780601886E+004.0819710738E-01+
*       -4.220129338E-02               0
GRID*                697               0-1.831381315E+004.8914758249E-01+
*       -1.049908705E-01               0
GRID*                698               01.5279917112E+00-7.085539627E-01+
*       -1.897610189E-01               0
GRID*                699               01.3359358263E+006.9557207089E-01+
*       3.7870163175E-01               0
GRID*                700               01.0435412762E+00-6.004550672E-01+
*       -1.268242739E-01               0
GRID*                701               0-1.620447933E+003.5490599362E-01+
*       -4.229851295E-02               0
GRID*                702               0-1.664558697E+003.3471960415E-01+
*       -4.491162568E-02               0
GRID*                703               0-5.297175479E-013.7370676326E-01+
*       -1.061125612E-01               0
GRID*                704               0-9.265168996E-01-6.816051793E-01+
*       -6.339372448E-02               0
GRID*                705               0-1.677210315E+00-6.495134577E-01+
*       -2.061597282E-01               0
GRID*                706               0-1.758758808E+00-6.263190433E-01+
*       -2.056604504E-01               0
GRID*                707               0-9.867637509E-01-6.820865690E-01+
*       -1.859101204E-01               0
GRID*                708               01.4399708601E+00-1.482342477E-02+
*       -1.270772588E-01               0
GRID*                709               01.4090523756E+004.5167660686E-02+
*       -1.252635701E-01               0
GRID*                710               01.4640989897E+00-5.676983942E-01+
*       -4.421369752E-02               0
GRID*                711               0-1.788163624E-017.0382373311E-01+
*       -4.897835273E-02               0
GRID*                712               01.3554487874E+002.3553542764E-01+
*       9.4081964295E-01               0
GRID*                713               01.3543739149E+001.2796416165E-01+
*       1.0141025741E+00               0
GRID*                714               01.1939303722E+00-2.651785607E-01+
*       8.4655831348E-01               0
GRID*                715               0-1.212321468E+006.8573963015E-01+
*       1.0238385668E-01               0
GRID*                716               0-1.211449941E+006.8581079321E-01+
*       1.7189460104E-01               0
GRID*                717               01.3585662415E+00-2.717585390E-01+
*       6.8696934730E-01               0
GRID*                718               0-1.003125046E+00-6.816663371E-01+
*       -6.084706017E-02               0
GRID*                719               0-1.109290444E+00-6.733365503E-01+
*       -6.398433116E-02               0
GRID*                720               0-1.526208962E+007.0890896972E-01+
*       -1.900592291E-01               0
GRID*                721               07.5523388619E-01-6.655056653E-02+
*       -1.134591721E-01               0
GRID*                722               0-4.583851098E-01-6.875731383E-01+
*       -6.250772988E-02               0
GRID*                723               0-1.846169761E+003.6893528141E-01+
*       -1.886367575E-01               0
GRID*                724               01.6753518378E+003.4070901528E-01+
*       -2.086269761E-01               0
GRID*                725               01.6244185891E+003.3646635220E-01+
*       -2.062892456E-01               0
GRID*                726               0-1.190258766E+002.1577094799E-01+
*       5.5710601464E-01               0
GRID*                727               0-1.190590673E+00-1.919829774E-01+
*       9.5644922178E-01               0
GRID*                728               0-1.192524743E+00-2.297657339E-01+
*       9.3419061734E-01               0
GRID*                729               0-1.189909598E+001.1584447022E-01+
*       4.8941849563E-01               0
GRID*                730               0-1.821084609E+003.1864544938E-02+
*       -1.873340861E-01               0
GRID*                731               01.8402349611E+00-1.495977744E-01+
*       -6.410176123E-02               0
GRID*                732               0-1.713393717E+003.5636184506E-01+
*       -2.068057694E-01               0
GRID*                733               01.8345377783E+007.4669199380E-02+
*       -6.244138724E-02               0
GRID*                734               0-1.190749533E+002.7535394043E-01+
*       6.3204686297E-01               0
GRID*                735               0-1.189459885E+002.8669489338E-01+
*       7.2707785457E-01               0
GRID*                736               0-1.192664433E+002.8526184896E-01+
*       7.7170215639E-01               0
GRID*                737               0-1.192191118E+002.3578313883E-01+
*       9.4159626526E-01               0
GRID*                738               0-1.211405187E+006.9388285581E-01+
*       5.2246896472E-01               0
GRID*                739               0-1.197672706E+007.1206180740E-01+
*       3.5521366413E-01               0
GRID*                740               0-1.834666179E+007.4680974897E-02+
*       -6.149261814E-02               0
GRID*                741               0-1.841882102E+001.4703188141E-01+
*       -6.357781148E-02               0
GRID*                742               0-1.838577709E+002.2163871112E-01+
*       -6.356931416E-02               0
GRID*                743               0-1.836140950E+009.1878880935E-02+
*       -1.891300789E-01               0
GRID*                744               01.3352372112E+00-3.938014913E-01+
*       1.3027603541E+00               0
GRID*                745               01.3363287068E+00-3.381297874E-01+
*       1.3468572378E+00               0
GRID*                746               01.1915457747E+00-2.668455259E-01+
*       6.5135008064E-01               0
GRID*                747               01.2091572820E+00-6.637461777E-01+
*       8.8813706990E-01               0
GRID*                748               01.2122519914E+005.6176188407E-02+
*       1.4391662639E+00               0
GRID*                749               01.2429688186E+004.9388562088E-01+
*       6.5393572076E-01               0
GRID*                750               01.2576063756E+006.4434017512E-01+
*       5.9424381455E-01               0
GRID*                751               01.3358892302E+006.9425242769E-01+
*       5.2204914070E-01               0
GRID*                752               01.1919597901E+00-2.832342226E-01+
*       7.2883250966E-01               0
GRID*                753               01.1916430257E+00-2.780714594E-01+
*       6.8570660930E-01               0
GRID*                754               0-1.576253937E+006.8902985885E-01+
*       -1.011880943E-01               0
GRID*                755               0-1.653109954E+006.8607747819E-01+
*       -1.023559528E-01               0
GRID*                756               0-1.604673100E+006.8767708136E-01+
*       -4.366078679E-02               0
GRID*                757               01.4826117050E+005.2231822345E-01+
*       -2.059271590E-01               0
GRID*                758               01.1806856651E+006.0478659052E-01+
*       -1.270848003E-01               0
GRID*                759               01.1092286920E+00-3.362464260E-01+
*       -1.247265418E-01               0
GRID*                760               01.2103325589E+006.8845263408E-01+
*       2.2456464221E-01               0
GRID*                761               01.8406888105E+002.2729706431E-01+
*       -1.887848881E-01               0
GRID*                762               0-1.337016815E+00-5.795813212E-01+
*       1.1304992525E+00               0
GRID*                763               0-1.335932182E+00-6.011816923E-01+
*       1.0786180896E+00               0
GRID*                764               0-1.337700151E+00-5.410315813E-01+
*       1.1883330777E+00               0
GRID*                765               0-1.337673450E+00-4.313826044E-01+
*       1.2562733742E+00               0
GRID*                766               0-1.211614899E+00-6.804040437E-01+
*       1.6172722186E-01               0
GRID*                767               0-1.512337797E+00-4.134626478E-01+
*       -4.153924129E-02               0
GRID*                768               0-1.464841356E+00-4.571338496E-01+
*       -4.568560373E-02               0
GRID*                769               01.3359914051E+006.3337489872E-01+
*       1.0368631952E+00               0
GRID*                770               01.3562462216E+002.7611669462E-01+
*       6.3217589415E-01               0
GRID*                771               01.3557061008E+002.8014822454E-01+
*       6.8972200517E-01               0
GRID*                772               01.3583975432E+002.8598490932E-01+
*       7.2663874239E-01               0
GRID*                773               01.3549910833E+002.8401036573E-01+
*       7.7193460919E-01               0
GRID*                774               0-1.355218628E+00-2.825160922E-01+
*       7.2946546434E-01               0
GRID*                775               01.1914021334E+008.3543433044E-02+
*       4.7239566772E-01               0
GRID*                776               01.3364303611E+00-6.728172395E-01+
*       8.1906014692E-01               0
GRID*                777               01.3546234520E+007.4243019469E-02+
*       4.7874125789E-01               0
GRID*                778               01.1925009750E+00-3.975476141E-02+
*       4.6002800602E-01               0
GRID*                779               01.3572279155E+002.0835022548E-01+
*       9.6849038139E-01               0
GRID*                780               0-1.262609550E+00-2.057953710E-01+
*       4.8707736352E-01               0
GRID*                781               0-1.354429004E+00-2.042204888E-01+
*       5.2639597749E-01               0
GRID*                782               01.2117408486E+00-6.771914813E-01+
*       8.2343050912E-01               0
GRID*                783               01.2108730931E+00-6.801134814E-01+
*       7.7774413321E-01               0
GRID*                784               01.2099625819E+00-3.470283942E-01+
*       1.3596481094E+00               0
GRID*                785               01.8495069828E+007.0409391495E-01+
*       -1.272925405E-01               0
GRID*                786               01.7622921596E+006.7386623101E-01+
*       -1.456448450E-01               0
GRID*                787               0-1.192001710E+00-8.809192946E-02+
*       1.4408892911E+00               0
GRID*                788               01.3364781746E+00-6.748704231E-01+
*       -1.863902112E-02               0
GRID*                789               0-1.863848892E+004.1684907903E-01+
*       -1.873229943E-01               0
GRID*                790               0-1.865611761E+004.8552453660E-01+
*       -1.870321157E-01               0
GRID*                791               0-1.801266241E+004.5718763210E-01+
*       -2.096517225E-01               0
GRID*                792               01.3365110603E+00-6.737751589E-01+
*       4.0596855923E-02               0
GRID*                793               0-1.337451198E+005.6872152109E-02+
*       1.4358634083E+00               0
GRID*                794               0-1.237271243E+00-1.563260845E-02+
*       1.4409677442E+00               0
GRID*                795               0-1.843049187E+003.6460336630E-01+
*       -6.244885112E-02               0
GRID*                796               0-1.756969912E+003.7598762549E-01+
*       -4.221638537E-02               0
GRID*                797               0-1.702197152E+003.4664051837E-01+
*       -4.104464239E-02               0
GRID*                798               01.8046074969E+00-4.574522273E-01+
*       -4.374822226E-02               0
GRID*                799               01.7992584305E+00-5.000924229E-01+
*       -4.381483365E-02               0
GRID*                800               01.8330622452E+00-4.879309484E-01+
*       -1.047449908E-01               0
GRID*                801               01.8663983870E+00-4.852140377E-01+
*       -6.243982648E-02               0
GRID*                802               01.7797599327E+00-4.081662167E-01+
*       -4.204287428E-02               0
GRID*                803               01.2100644561E+00-7.037631204E-01+
*       2.3103093283E-01               0
GRID*                804               01.6130779026E+003.5259378906E-01+
*       -4.220771655E-02               0
GRID*                805               01.6478897978E+003.2483945282E-01+
*       -4.414609167E-02               0
GRID*                806               01.1110522510E+00-4.112246631E-01+
*       -1.271584835E-01               0
GRID*                807               01.2100283819E+00-6.035331446E-01+
*       1.0805346057E+00               0
GRID*                808               01.1459645783E+00-2.640895594E-01+
*       -1.252344907E-01               0
GRID*                809               01.3559821934E+00-2.302183593E-01+
*       5.6790604156E-01               0
GRID*                810               01.1912333102E+00-2.321804505E-01+
*       5.7231108159E-01               0
GRID*                811               01.1888247437E+00-4.169104130E-01+
*       -1.246450626E-01               0
GRID*                812               0-1.848333964E+006.5310325641E-01+
*       -1.879822310E-01               0
GRID*                813               0-1.799984204E+006.9758502319E-01+
*       -1.854211495E-01               0
GRID*                814               01.6616442606E+006.4456523002E-01+
*       -4.423645788E-02               0
GRID*                815               01.1914781963E+002.7703460028E-01+
*       6.4089116144E-01               0
GRID*                816               0-3.295522656E-01-7.072928612E-01+
*       -4.518125003E-02               0
GRID*                817               01.1381362596E+00-6.860199283E-01+
*       -1.928069361E-01               0
GRID*                818               01.2127781066E+00-6.877996387E-01+
*       -1.915062637E-01               0
GRID*                819               01.3552695798E+00-6.888203837E-01+
*       -1.924442616E-01               0
GRID*                820               0-1.484248353E+00-4.816126949E-01+
*       -2.075003284E-01               0
GRID*                821               0-1.506156763E+00-4.301245244E-01+
*       -2.076366231E-01               0
GRID*                822               0-1.214437192E+00-6.736711331E-01+
*       -2.078340006E-02               0
GRID*                823               0-1.336097422E+001.7520966337E-01+
*       1.3835507072E+00               0
GRID*                824               0-1.336491966E+002.4026902556E-01+
*       1.4039094126E+00               0
GRID*                825               0-1.210120210E+003.7493012062E-01+
*       1.3160549445E+00               0
GRID*                826               0-1.335435307E+00-4.062280282E-01+
*       1.3182202771E+00               0
GRID*                827               0-1.356666422E+001.5421760791E-01+
*       9.8112680993E-01               0
GRID*                828               0-1.191617730E+00-5.049849516E-04+
*       4.6838640385E-01               0
GRID*                829               0-1.190866180E+003.7911141648E-02+
*       4.7069070590E-01               0
GRID*                830               0-1.334401361E+006.8558394129E-01+
*       7.0530753715E-01               0
GRID*                831               01.8119007162E+00-6.022890275E-01+
*       -4.431827622E-02               0
GRID*                832               01.8328160815E+004.8807764083E-01+
*       -1.043245654E-01               0
GRID*                833               01.8324590365E+00-5.282578384E-01+
*       -1.478467301E-01               0
GRID*                834               01.8322293105E+00-5.690072543E-01+
*       -2.058392876E-01               0
GRID*                835               01.8099569650E+00-6.762777254E-01+
*       -1.041848604E-01               0
GRID*                836               01.7358382622E+00-6.796356717E-01+
*       -2.075127772E-01               0
GRID*                837               01.7871892418E+00-5.908370182E-01+
*       -2.090225359E-01               0
GRID*                838               01.8325091669E+00-7.079568741E-01+
*       -2.067315067E-01               0
GRID*                839               01.8020909204E+00-5.016410805E-01+
*       -2.092487666E-01               0
GRID*                840               01.8127189871E+00-6.293305657E-01+
*       -1.422190345E-01               0
GRID*                841               01.2107816042E+002.4026761353E-01+
*       1.4038969805E+00               0
GRID*                842               01.1905084663E+002.8858997625E-01+
*       7.7747246783E-01               0
GRID*                843               01.1935919580E+002.8915411555E-01+
*       7.3060104333E-01               0
GRID*                844               01.1915292559E+002.7138870583E-01+
*       8.6192580695E-01               0
GRID*                845               01.1908387106E+001.2622094684E-01+
*       4.9180958913E-01               0
GRID*                846               01.1901786819E+004.5536522698E-02+
*       4.6325430149E-01               0
GRID*                847               01.1909924227E+00-1.390288086E-03+
*       4.5996347561E-01               0
GRID*                848               01.6727220993E+00-6.441197895E-01+
*       -2.067037318E-01               0
GRID*                849               0-1.845512770E+00-3.670974550E-01+
*       -6.130475838E-02               0
GRID*                850               0-4.578285774E-016.8613385764E-01+
*       -6.228527502E-02               0
GRID*                851               0-6.088192595E-016.8757335587E-01+
*       -1.871727780E-01               0
GRID*                852               01.5042525157E+005.7705240322E-01+
*       -4.442870897E-02               0
GRID*                853               01.5081267487E+005.8173333561E-01+
*       -2.099908167E-01               0
GRID*                854               01.5405487495E+006.7285135777E-01+
*       -1.457519304E-01               0
GRID*                855               0-1.536714130E+006.7479226662E-01+
*       -1.061568971E-01               0
GRID*                856               0-1.138284689E+00-6.808027156E-01+
*       -1.915660268E-01               0
GRID*                857               0-1.062835272E+00-6.807649739E-01+
*       -1.885860791E-01               0
GRID*                858               0-1.376292419E+00-6.724575500E-01+
*       -6.615690621E-02               0
GRID*                859               0-1.434654750E+00-5.646856901E-01+
*       -1.445822743E-01               0
GRID*                860               0-1.422105720E+00-6.871677926E-01+
*       -1.914678253E-01               0
GRID*                861               06.0873222984E-01-6.875827564E-01+
*       -1.873501512E-01               0
GRID*                862               01.3553577389E+001.4882073115E-01+
*       5.0767514110E-01               0
GRID*                863               01.3553487354E+001.8916964708E-01+
*       5.3071300888E-01               0
GRID*                864               0-1.178796740E+001.1861272457E-01+
*       1.0118818339E+00               0
GRID*                865               0-1.764329140E+006.1535030875E-01+
*       -4.223742504E-02               0
GRID*                866               0-1.675120792E+003.4206035135E-01+
*       -2.082168915E-01               0
GRID*                867               0-1.618241698E+003.3946247415E-01+
*       -2.077580767E-01               0
GRID*                868               0-1.190981885E+00-2.710986201E-01+
*       6.8387309082E-01               0
GRID*                869               0-1.192008257E+00-2.605773802E-01+
*       6.4572262848E-01               0
GRID*                870               0-1.190835118E+00-2.503613244E-01+
*       5.9991298670E-01               0
GRID*                871               0-1.189950175E+00-1.869431722E-01+
*       5.3327976126E-01               0
GRID*                872               0-1.192487298E+00-2.304610250E-01+
*       5.6854542447E-01               0
GRID*                873               04.5655105562E-016.8677530382E-01+
*       -1.837215002E-01               0
GRID*                874               01.6751161199E+00-3.402740131E-01+
*       -2.074751118E-01               0
GRID*                875               0-1.463288905E+00-4.982612327E-01+
*       -4.243076165E-02               0
GRID*                876               01.3554861963E+00-1.869063955E-01+
*       5.3361304604E-01               0
GRID*                877               01.8079194726E+006.2822878065E-01+
*       -1.056304670E-01               0
GRID*                878               01.1898378067E+001.9799223197E-01+
*       9.7114987206E-01               0
GRID*                879               01.1915639032E+001.5484500757E-01+
*       9.8106913255E-01               0
GRID*                880               0-1.356637418E+001.2661784604E-01+
*       4.9233696388E-01               0
GRID*                881               0-1.356920244E+00-6.835624370E-01+
*       -1.924537848E-01               0
GRID*                882               01.8663564585E+00-4.136022940E-01+
*       -1.910125880E-01               0
GRID*                883               01.8571084177E+00-3.405914966E-01+
*       -2.006070433E-01               0
GRID*                884               0-1.210653244E+00-6.823952712E-01+
*       7.0441546298E-01               0
GRID*                885               0-1.213806323E+00-6.777780982E-01+
*       7.7349648260E-01               0
GRID*                886               01.3365665221E+00-6.644263922E-01+
*       8.8652182846E-01               0
GRID*                887               0-1.061771603E+006.8864155884E-01+
*       -1.912442519E-01               0
GRID*                888               0-1.212603341E+00-3.934149944E-01+
*       1.3048719837E+00               0
GRID*                889               0-1.209004838E+00-5.224433463E-01+
*       1.1597746267E+00               0
GRID*                890               0-1.211248833E+00-5.133020827E-01+
*       1.2230898182E+00               0
GRID*                891               0-9.879364611E-016.9108907466E-01+
*       -1.853317676E-01               0
GRID*                892               0-9.146513819E-016.8565092883E-01+
*       -1.842365195E-01               0
GRID*                893               06.1010497641E-01-6.850357187E-01+
*       -6.223920102E-02               0
GRID*                894               01.3359980618E+006.9153399958E-01+
*       6.6237901332E-01               0
GRID*                895               0-1.357198940E+00-2.333175523E-01+
*       5.7378923426E-01               0
GRID*                896               01.3574832989E+001.6215421958E-01+
*       9.9547867100E-01               0
GRID*                897               01.2129332908E+006.9925795715E-01+
*       1.6278409522E-01               0
GRID*                898               01.1903538197E+00-8.106503767E-02+
*       1.0241779884E+00               0
GRID*                899               01.1907332066E+00-3.807689309E-02+
*       1.0298124351E+00               0
GRID*                900               01.5284211836E-016.8743359352E-01+
*       -6.250844459E-02               0
GRID*                901               03.0429766906E-016.8741755923E-01+
*       -1.875147373E-01               0
GRID*                902               01.3556619298E+002.6689738336E-01+
*       8.5372380184E-01               0
GRID*                903               0-1.194127550E+009.1205630501E-03+
*       1.4416740617E+00               0
GRID*                904               0-1.336586469E+007.0376480878E-01+
*       -2.017393736E-01               0
GRID*                905               01.5378732310E+003.7999049505E-01+
*       -4.265281095E-02               0
GRID*                906               01.5767849160E+003.6482488450E-01+
*       -4.317016175E-02               0
GRID*                907               01.3373566849E+006.8669647895E-01+
*       1.0100012919E-01               0
GRID*                908               01.7949835978E+006.9837492741E-01+
*       -1.881755257E-01               0
GRID*                909               0-1.337593518E+00-6.854238842E-01+
*       5.3128744528E-01               0
GRID*                910               0-1.807992220E+00-6.301705531E-01+
*       -1.452731324E-01               0
GRID*                911               01.8660785469E+00-4.860768671E-01+
*       -1.865187440E-01               0
GRID*                912               01.8305126553E+00-4.184363514E-01+
*       -1.039081204E-01               0
GRID*                913               0-1.496384142E+00-6.866305804E-01+
*       -1.899764569E-01               0
GRID*                914               01.8630575661E+00-5.274378383E-01+
*       -6.026351872E-02               0
GRID*                915               0-1.530450966E+00-6.101950603E-01+
*       -4.174824423E-02               0
GRID*                916               0-1.498448747E+00-5.006221177E-01+
*       -3.981665262E-02               0
GRID*                917               01.2760468265E+00-6.136553708E-01+
*       3.0432890388E-01               0
GRID*                918               01.2743925998E+00-6.133809195E-01+
*       3.7477100882E-01               0
GRID*                919               0-1.760505360E+006.2761572552E-01+
*       -2.056800424E-01               0
GRID*                920               0-1.693576212E+006.7451516074E-01+
*       -1.454464789E-01               0
GRID*                921               0-4.563092902E-01-6.872831782E-01+
*       -1.875133949E-01               0
GRID*                922               0-1.499047936E+00-4.604339861E-01+
*       -4.113290431E-02               0
GRID*                923               0-1.508636332E+00-5.800891588E-01+
*       -2.090606670E-01               0
GRID*                924               0-1.484939820E+00-5.218845492E-01+
*       -2.080252931E-01               0
GRID*                925               0-1.355229006E+00-1.691692725E-01+
*       9.9032614910E-01               0
GRID*                926               0-1.357670669E+00-1.176064645E-01+
*       1.0101648051E+00               0
GRID*                927               0-1.356367319E+00-3.930846137E-02+
*       1.0295656851E+00               0
GRID*                928               0-1.355138467E+00-2.751979690E-01+
*       8.0969603084E-01               0
GRID*                929               0-1.357678598E+00-2.820242554E-01+
*       7.6866559713E-01               0
GRID*                930               0-1.357822635E+00-2.773697006E-01+
*       6.8575247238E-01               0
GRID*                931               0-1.355860532E+00-2.667462025E-01+
*       6.5065295604E-01               0
GRID*                932               0-1.862792365E+005.2821596998E-01+
*       -5.880628837E-02               0
GRID*                933               0-1.357469555E+004.6437023082E-02+
*       4.6450699389E-01               0
GRID*                934               0-1.210216324E+001.5066683021E-01+
*       1.4102664424E+00               0
GRID*                935               0-1.209891063E+002.0594037971E-01+
*       1.4177250135E+00               0
GRID*                936               0-1.211690685E+00-2.035810180E-01+
*       1.3937648975E+00               0
GRID*                937               0-1.419854179E+00-6.847645015E-01+
*       -6.813016292E-02               0
GRID*                938               01.2106944817E+006.8904447370E-01+
*       6.6105619187E-01               0
GRID*                939               0-1.210176459E+00-3.360932371E-01+
*       1.3460785481E+00               0
GRID*                940               0-1.847050988E+00-7.020100481E-01+
*       -1.221459437E-01               0
GRID*                941               01.5309060850E+006.1174928089E-01+
*       -4.325141746E-02               0
GRID*                942               0-1.213509608E+00-6.113583708E-01+
*       1.0751465928E+00               0
GRID*                943               0-1.190049775E+00-2.848693817E-01+
*       8.1796118597E-01               0
GRID*                944               0-1.190809455E+00-2.952186280E-01+
*       7.6446415900E-01               0
GRID*                945               0-1.212621842E+005.2860037943E-01+
*       1.1919067125E+00               0
GRID*                946               0-1.357396333E+00-1.751305890E-01+
*       5.0178482293E-01               0
GRID*                947               0-1.354703789E+00-1.220992250E-01+
*       4.8401705075E-01               0
GRID*                948               0-1.337533438E+00-3.469903565E-01+
*       1.3597396817E+00               0
GRID*                949               0-1.338081829E+00-6.632500101E-01+
*       8.9474022910E-01               0
GRID*                950               0-1.337400085E+00-6.524995573E-01+
*       9.5556829307E-01               0
GRID*                951               0-1.274359163E+00-6.041366938E-01+
*       8.0531016516E-01               0
GRID*                952               01.3379823100E+00-6.755331463E-01+
*       7.7109518878E-01               0
GRID*                953               01.3367553191E+00-6.827555884E-01+
*       7.0543539434E-01               0
GRID*                954               0-1.336693606E+00-2.106759441E-01+
*       1.4043102490E+00               0
GRID*                955               01.2110043293E+00-1.362559335E-02+
*       1.4370456623E+00               0
GRID*                956               0-1.210714829E+00-6.551839999E-01+
*       9.5317422698E-01               0
GRID*                957               01.1918940246E+00-2.037872617E-01+
*       5.2611561890E-01               0
GRID*                958               0-1.338303645E+00-6.829592374E-01+
*       7.1479309856E-01               0
GRID*                959               0-1.331751954E+00-6.773332972E-01+
*       7.7812854904E-01               0
GRID*                960               0-1.629709729E+00-6.459521602E-01+
*       -4.094594623E-02               0
GRID*                961               0-1.193776578E+00-2.972007405E-01+
*       7.2697580636E-01               0
GRID*                962               0-1.212260438E+00-6.838137287E-01+
*       6.5394520323E-01               0
GRID*                963               0-1.209476993E+00-6.829948894E-01+
*       5.8687922221E-01               0
GRID*                964               01.2117488643E+00-4.066495728E-01+
*       1.3184743660E+00               0
GRID*                965               01.2118744245E+003.0785947289E-01+
*       1.3768492812E+00               0
GRID*                966               01.7814256750E+004.0927229993E-01+
*       -2.094736619E-01               0
GRID*                967               01.7607410235E+00-6.765853682E-01+
*       -1.015908724E-01               0
GRID*                968               01.7249143458E+00-6.777101604E-01+
*       -4.390613865E-02               0
GRID*                969               01.4891271270E+00-6.818902455E-01+
*       -1.868289730E-01               0
GRID*                970               01.2153142265E+006.7449774302E-01+
*       -1.911558858E-02               0
GRID*                971               01.3558409178E+00-2.541361324E-01+
*       6.0071310255E-01               0
GRID*                972               01.3562095148E+00-2.599836261E-01+
*       6.4942824794E-01               0
GRID*                973               01.3357503549E+00-2.037131354E-01+
*       1.3938237812E+00               0
GRID*                974               01.3367379298E+006.7202867397E-01+
*       4.1906311034E-02               0
GRID*                975               0-1.802023125E+00-4.585207721E-01+
*       -2.076740690E-01               0
GRID*                976               0-1.847159877E+00-3.663821098E-01+
*       -1.875646502E-01               0
GRID*                977               0-1.836196805E+00-1.479281513E-01+
*       -6.298991985E-02               0
GRID*                978               0-1.835700529E+00-7.549752361E-02+
*       -6.105530346E-02               0
GRID*                979               01.8075042022E+003.8665629467E-01+
*       -1.038470346E-01               0
GRID*                980               0-1.682252827E+00-7.101420194E-01+
*       -1.883612600E-01               0
GRID*                981               0-1.689981383E+00-6.750276061E-01+
*       -1.459371570E-01               0
GRID*                982               01.1908992478E+00-8.708853371E-02+
*       4.6998300878E-01               0
GRID*                983               0-1.335152790E+00-7.114126480E-02+
*       1.4298556735E+00               0
GRID*                984               0-1.338000010E+006.8992413792E-01+
*       6.5997649214E-01               0
GRID*                985               01.5214985098E-016.8743830344E-01+
*       -1.875191853E-01               0
GRID*                986               0-1.208605717E+004.3392436615E-01+
*       1.2751097320E+00               0
GRID*                987               0-1.211123329E+004.7788659837E-01+
*       1.2416665945E+00               0
GRID*                988               01.3764894377E+00-6.733982021E-01+
*       -6.711486161E-02               0
GRID*                989               0-1.181034906E+00-6.731010806E-01+
*       -6.711622722E-02               0
GRID*                990               0-1.355895815E+002.2573375339E-01+
*       9.4328925165E-01               0
GRID*                991               0-1.357143464E+002.5397455318E-01+
*       8.9615262171E-01               0
GRID*                992               0-1.310866546E-056.8744425381E-01+
*       -1.875174028E-01               0
GRID*                993               01.2098757646E+00-6.849854825E-01+
*       5.3065508171E-01               0
GRID*                994               01.0017352305E+006.8398475636E-01+
*       -6.297669518E-02               0
GRID*                995               0-1.492624854E+00-6.832573597E-01+
*       -6.301153011E-02               0
GRID*                996               0-1.539208959E+00-6.741240887E-01+
*       -1.042304891E-01               0
GRID*                997               0-1.570860538E+00-6.759488669E-01+
*       -4.347730615E-02               0
GRID*                998               0-1.832150759E+00-4.904050208E-01+
*       -1.465241018E-01               0
GRID*                999               01.5366775632E+00-6.728762753E-01+
*       -1.466536600E-01               0
GRID*               1000               0-1.619280085E+00-7.132675925E-01+
*       -1.870774360E-01               0
GRID*               1001               0-1.546326722E+00-7.119440049E-01+
*       -1.888338705E-01               0
GRID*               1002               01.4178608560E+00-6.820001907E-01+
*       -1.930737631E-01               0
GRID*               1003               0-1.209943772E+00-6.876186485E-01+
*       5.1871828521E-01               0
GRID*               1004               0-2.819389212E-017.0047440609E-01+
*       -5.013719110E-02               0
GRID*               1005               01.8364131764E+007.3213449903E-02+
*       -1.871956023E-01               0
GRID*               1006               0-1.209445861E+006.8408266980E-01+
*       8.2594631786E-01               0
GRID*               1007               0-1.211888229E+00-5.714572785E-01+
*       1.1339268260E+00               0
GRID*               1008               0-1.764229803E+00-6.233385108E-01+
*       -4.222999236E-02               0
GRID*               1009               01.7869957652E+00-5.805093550E-01+
*       -3.950212734E-02               0
GRID*               1010               01.7972175773E+00-5.380728642E-01+
*       -4.201586653E-02               0
GRID*               1011               0-1.834764761E+00-5.315895284E-01+
*       -1.033983303E-01               0
GRID*               1012               0-1.652889627E+00-6.835884747E-01+
*       -1.446032673E-01               0
GRID*               1013               01.4977886009E+004.9957263781E-01+
*       -3.979225417E-02               0
GRID*               1014               01.5389637474E+006.8410191402E-01+
*       -4.942313416E-02               0
GRID*               1015               01.6091953537E+007.2134788261E-01+
*       -4.687246857E-02               0
GRID*               1016               01.6143427828E+006.7761070696E-01+
*       -1.465942036E-01               0
GRID*               1017               01.5908449612E+006.4607573841E-01+
*       -4.026001391E-02               0
GRID*               1018               01.8026203695E+00-4.566058083E-01+
*       -2.071902041E-01               0
GRID*               1019               01.7826167932E+00-4.112488134E-01+
*       -2.079580678E-01               0
GRID*               1020               01.2122623025E+006.7206190775E-01+
*       4.1464533994E-02               0
GRID*               1021               01.2091638542E+006.9732416941E-01+
*       9.2566081268E-02               0
GRID*               1022               01.1903441207E+00-1.751116049E-01+
*       5.0322702548E-01               0
GRID*               1023               01.8460683750E+003.6541095268E-01+
*       -1.877256807E-01               0
GRID*               1024               01.8454072381E+002.9136893274E-01+
*       -1.872186117E-01               0
GRID*               1025               01.5403600768E+006.7385285598E-01+
*       -1.033858916E-01               0
GRID*               1026               0-1.832224159E+005.9698372236E-01+
*       -1.459705780E-01               0
GRID*               1027               0-1.834137846E+005.6819739543E-01+
*       -2.050987712E-01               0
GRID*               1028               0-1.833562156E+004.8796006712E-01+
*       -1.456634400E-01               0
GRID*               1029               01.8082677113E+003.8645446140E-01+
*       -1.456185025E-01               0
GRID*               1030               0-1.761946622E+00-3.761762469E-01+
*       -2.063135227E-01               0
GRID*               1031               01.2097370333E+00-6.832015936E-01+
*       7.1592139099E-01               0
GRID*               1032               0-1.336640955E+006.9024385610E-01+
*       2.2653092211E-01               0
GRID*               1033               0-1.191279149E+00-1.564992415E-01+
*       5.0854591664E-01               0
GRID*               1034               0-1.190828961E+00-1.141455240E-01+
*       4.9200135233E-01               0
GRID*               1035               01.1916374259E+002.5381682327E-01+
*       8.9649041687E-01               0
GRID*               1036               01.7564709156E+00-3.745522067E-01+
*       -4.088599174E-02               0
GRID*               1037               0-1.614781395E+00-6.780436745E-01+
*       -1.030754124E-01               0
GRID*               1038               0-1.670471336E+00-7.157215940E-01+
*       -6.196442112E-02               0
GRID*               1039               01.8421663375E+00-2.230336033E-01+
*       -6.097762930E-02               0
GRID*               1040               0-1.657583237E+00-6.893378603E-01+
*       -1.049399475E-01               0
GRID*               1041               0-1.726409186E+00-6.864410486E-01+
*       -1.038458403E-01               0
GRID*               1042               0-1.855561687E+00-2.361073811E-01+
*       -1.866236292E-01               0
GRID*               1043               01.5792248178E+00-3.502865787E-01+
*       -2.067275732E-01               0
GRID*               1044               01.1909733264E+002.8265812508E-01+
*       6.9249521203E-01               0
GRID*               1045               01.3575652640E+002.5144285316E-01+
*       8.8713470522E-01               0
GRID*               1046               01.1901134891E+005.0047296439E-02+
*       1.0338495425E+00               0
GRID*               1047               01.3384123344E+00-6.388477055E-01+
*       1.0083581591E+00               0
GRID*               1048               01.8095828675E+00-3.816724570E-01+
*       -1.454762433E-01               0
GRID*               1049               01.5032140717E+00-5.429016535E-02+
*       -1.230681481E-01               0
GRID*               1050               0-1.801550888E+006.8771983189E-01+
*       -6.065181345E-02               0
GRID*               1051               01.6355649742E+00-6.555789093E-01+
*       -2.079690697E-01               0
GRID*               1052               01.1916462761E+006.0604951098E-01+
*       1.0931560337E+00               0
GRID*               1053               0-1.336479840E+006.8687286933E-01+
*       5.2310724315E-01               0
GRID*               1054               0-1.194191480E+007.0520796995E-01+
*       4.0173066066E-01               0
GRID*               1055               01.8657257070E+00-4.162314413E-01+
*       -6.099751879E-02               0
GRID*               1056               0-1.801830601E+00-5.021680601E-01+
*       -2.095038128E-01               0
GRID*               1057               0-1.834126563E+00-5.709059067E-01+
*       -2.067448058E-01               0
GRID*               1058               0-1.778575187E+00-5.936412088E-01+
*       -2.079117980E-01               0
GRID*               1059               0-1.866933345E+00-4.208789087E-01+
*       -1.882605607E-01               0
GRID*               1060               01.3570709641E+002.1500700162E-01+
*       5.5720212839E-01               0
GRID*               1061               01.3369479283E+006.8593418757E-01+
*       1.7116799968E-01               0
GRID*               1062               01.1896228543E+002.8281068755E-01+
*       8.1416329732E-01               0
GRID*               1063               01.6512797751E+006.8736142267E-01+
*       -1.040388106E-01               0
GRID*               1064               01.5773865250E+006.8891488011E-01+
*       -1.039356322E-01               0
GRID*               1065               01.6255702214E+006.5771986759E-01+
*       -4.459943137E-02               0
GRID*               1066               01.8112759300E+00-6.747045853E-01+
*       -1.458328899E-01               0
GRID*               1067               01.5380069436E+00-3.924606149E-01+
*       -2.072639110E-01               0
GRID*               1068               01.7629437325E+00-6.160579598E-01+
*       -4.133221414E-02               0
GRID*               1069               01.8321698453E+005.2936559128E-01+
*       -1.045080919E-01               0
GRID*               1070               0-1.191432248E+00-3.999320174E-02+
*       4.6993359468E-01               0
GRID*               1071               0-1.190882039E+00-8.070510232E-02+
*       4.7842071067E-01               0
GRID*               1072               0-1.355790118E+00-8.734447371E-02+
*       4.6980547719E-01               0
GRID*               1073               0-1.865307533E+004.8590765838E-01+
*       -6.079468088E-02               0
GRID*               1074               0-1.832449503E+004.1957958484E-01+
*       -1.040910622E-01               0
GRID*               1075               0-1.854385927E+005.7295853193E-01+
*       -6.246894655E-02               0
GRID*               1076               0-1.850950460E+006.4046685515E-01+
*       -6.257738953E-02               0
GRID*               1077               01.8317404008E+00-5.287504149E-01+
*       -1.019063398E-01               0
GRID*               1078               01.7257835307E+007.0036409803E-01+
*       -5.957282913E-02               0
GRID*               1079               0-1.706067041E+006.4550404652E-01+
*       -4.301404056E-02               0
GRID*               1080               0-1.744474850E+007.1689923332E-01+
*       -6.368642440E-02               0
GRID*               1081               0-1.714695344E+00-6.382195101E-01+
*       -2.094934168E-01               0
GRID*               1082               01.8453095028E+006.5485809873E-01+
*       -1.883104512E-01               0
GRID*               1083               01.6176832653E+00-3.373930805E-01+
*       -2.075482013E-01               0
GRID*               1084               01.6638287679E+00-3.351250485E-01+
*       -4.290120687E-02               0
GRID*               1085               01.8569215998E+00-2.481399848E-01+
*       -2.025449750E-01               0
GRID*               1086               01.8028670764E+004.5590811716E-01+
*       -2.063026624E-01               0
GRID*               1087               01.5371024228E+00-6.727024147E-01+
*       -1.050962053E-01               0
GRID*               1088               01.8313360604E+00-4.183294949E-01+
*       -1.470974023E-01               0
GRID*               1089               01.3567389605E+00-8.119726569E-02+
*       4.7926620132E-01               0
GRID*               1090               0-1.512889230E+005.9086991088E-01+
*       -4.322794463E-02               0
GRID*               1091               01.3567704637E+00-1.564573641E-01+
*       5.0885517107E-01               0
GRID*               1092               0-1.212033157E+00-6.882183862E-01+
*       4.4726848343E-01               0
GRID*               1093               0-1.833853063E+00-5.980294710E-01+
*       -1.024121400E-01               0
GRID*               1094               0-1.725642265E+00-6.348323258E-01+
*       -4.143112807E-02               0
GRID*               1095               0-1.798302987E+00-6.954083462E-01+
*       -6.237118799E-02               0
GRID*               1096               07.7969320776E-01-7.040998418E-01+
*       -2.041026037E-01               0
GRID*               1097               01.8323288704E+005.9826069843E-01+
*       -1.479411186E-01               0
GRID*               1098               01.7796306006E+005.9351566722E-01+
*       -2.080806558E-01               0
GRID*               1099               01.8339358818E+005.6823090004E-01+
*       -2.051865870E-01               0
GRID*               1100               0-1.211266008E+003.1822527659E-01+
*       1.3532762967E+00               0
GRID*               1101               0-1.357553726E+004.6911467337E-04+
*       4.5749289280E-01               0
GRID*               1102               0-1.337446116E+005.9623508764E-01+
*       1.0652753867E+00               0
GRID*               1103               07.3843113836E-01-7.060361836E-01+
*       -4.032902181E-02               0
GRID*               1104               01.7850385643E+00-7.024018989E-01+
*       -4.225443087E-02               0
GRID*               1105               01.6332479164E+00-7.179359197E-01+
*       -6.176235964E-02               0
GRID*               1106               01.8666431164E+004.1770924051E-01+
*       -1.871196525E-01               0
GRID*               1107               01.8660241233E+004.8771988621E-01+
*       -1.887197565E-01               0
GRID*               1108               01.6894958704E+00-6.758034237E-01+
*       -1.016570360E-01               0
GRID*               1109               01.6189560520E+007.1375177509E-01+
*       -1.863951257E-01               0
GRID*               1110               01.5463506176E+007.1201159122E-01+
*       -1.889187416E-01               0
GRID*               1111               0-1.761477591E+006.7682941510E-01+
*       -1.038797803E-01               0
GRID*               1112               0-1.831711430E+005.9813276157E-01+
*       -1.048211830E-01               0
GRID*               1113               0-1.625079535E+00-3.353919156E-01+
*       -2.079185079E-01               0
GRID*               1114               0-1.538351634E+00-6.730249415E-01+
*       -1.473472653E-01               0
GRID*               1115               0-1.526983285E+00-3.987046597E-01+
*       -2.076991253E-01               0
GRID*               1116               09.1583416615E-01-6.858237128E-01+
*       -1.869456334E-01               0
GRID*               1117               0-1.653775907E+006.8344424084E-01+
*       -1.480755127E-01               0
GRID*               1118               0-1.692399874E+006.7753768437E-01+
*       -1.027957229E-01               0
GRID*               1119               0-1.535806192E+006.2297028795E-01+
*       -4.306243914E-02               0
GRID*               1120               01.7628143394E+00-6.248195130E-01+
*       -2.084066925E-01               0
GRID*               1121               0-1.582527502E+003.6572246864E-01+
*       -4.347108180E-02               0
GRID*               1122               0-1.663046279E+006.5509630254E-01+
*       -4.002470304E-02               0
GRID*               1123               0-1.810515185E+006.2933235829E-01+
*       -1.040374565E-01               0
GRID*               1124               0-8.946530550E-016.9442074486E-01+
*       -5.453515634E-02               0
GRID*               1125               0-1.831318720E+00-5.977521067E-01+
*       -1.459478997E-01               0
GRID*               1126               01.6201670579E+00-3.548782428E-01+
*       -4.293890142E-02               0
GRID*               1127               01.5338858330E+00-6.225869397E-01+
*       -4.352571152E-02               0
GRID*               1128               01.3379230132E+007.8338479742E-02+
*       1.4276009445E+00               0
GRID*               1129               01.1911562443E+002.2082469129E-01+
*       5.6582317546E-01               0
GRID*               1130               01.3569859026E+008.2396953735E-02+
*       1.0307669303E+00               0
GRID*               1131               09.0989343762E-01-6.768467887E-01+
*       -6.210220909E-02               0
GRID*               1132               07.8644070091E-01-6.983986843E-01+
*       -4.810608902E-02               0
GRID*               1133               09.7241227186E-01-6.580293012E-01+
*       -6.642973851E-02               0
GRID*               1134               01.6809919289E+003.5225367173E-01+
*       -4.239635870E-02               0
GRID*               1135               01.8028492542E+005.0129996474E-01+
*       -2.083799768E-01               0
GRID*               1136               01.7561912727E+006.2521242567E-01+
*       -2.080539852E-01               0
GRID*               1137               01.8015330282E+006.9915579294E-01+
*       -6.300128090E-02               0
GRID*               1138               01.8323483993E+004.1929811707E-01+
*       -1.054210336E-01               0
GRID*               1139               01.5557751679E+00-7.189868330E-01+
*       -6.398244637E-02               0
GRID*               1140               0-1.212533016E+00-6.275396668E-02+
*       1.4197030789E+00               0
GRID*               1141               01.7630955357E+00-6.786817928E-01+
*       -1.472323455E-01               0
GRID*               1142               01.6662933879E+00-6.446571596E-01+
*       -4.317385732E-02               0
GRID*               1143               0-1.844886260E+002.3178353873E-01+
*       -1.888710443E-01               0
GRID*               1144               0-1.616298142E+00-3.532588654E-01+
*       -4.242817447E-02               0
GRID*               1145               0-1.835636819E+00-5.309841274E-01+
*       -1.481900415E-01               0
GRID*               1146               0-1.868413426E+00-5.227353546E-01+
*       -2.039439905E-01               0
GRID*               1147               01.7018653907E+00-3.467909824E-01+
*       -4.193827814E-02               0
GRID*               1148               0-1.212353235E+006.8655884518E-01+
*       7.0749651853E-01               0
GRID*               1149               01.3568133743E+001.1568889818E-01+
*       4.8844751435E-01               0
GRID*               1150               01.3378645549E+001.2111551548E-02+
*       1.4192969147E+00               0
GRID*               1151               01.3552740332E+00-2.977453169E-01+
*       7.2632889824E-01               0
GRID*               1152               01.8337293177E+004.8805362627E-01+
*       -1.463372839E-01               0
GRID*               1153               01.8318623573E+004.1813704815E-01+
*       -1.471738614E-01               0
GRID*               1154               0-1.842761778E+00-6.518826036E-01+
*       -1.894037912E-01               0
GRID*               1155               0-1.782218418E+004.1049158533E-01+
*       -2.079135120E-01               0
GRID*               1156               0-1.530113726E+00-6.141761834E-01+
*       -2.069700995E-01               0
GRID*               1157               0-1.355920936E+002.8444890240E-01+
*       8.1700639833E-01               0
GRID*               1158               04.8230497336E-017.0732183765E-01+
*       -4.523501829E-02               0
GRID*               1159               0-1.762700176E+006.7515006675E-01+
*       -1.461885726E-01               0
GRID*               1160               0-1.833000467E+00-4.878509979E-01+
*       -1.047225252E-01               0
GRID*               1161               0-1.829840926E+00-4.172071113E-01+
*       -1.026136042E-01               0
GRID*               1162               01.8495472990E+006.5267357572E-01+
*       -6.009981800E-02               0
GRID*               1163               01.3567865973E+00-1.149726272E-01+
*       4.9156430594E-01               0
GRID*               1164               01.5719173088E+00-6.336291898E-01+
*       -4.166402811E-02               0
GRID*               1165               01.6033641189E+00-7.086840974E-01+
*       -1.892470081E-01               0
GRID*               1166               04.3501444462E-017.0095570853E-01+
*       -5.009832117E-02               0
GRID*               1167               0-1.821713634E+00-4.054887977E-02+
*       -1.876709742E-01               0
GRID*               1168               0-1.210118620E+006.3334476926E-01+
*       1.0370510870E+00               0
GRID*               1169               0-1.672764231E+00-6.577964387E-01+
*       -4.032701697E-02               0
GRID*               1170               0-1.351419772E+006.9425048308E-01+
*       8.4058906634E-01               0
GRID*               1171               0-1.209810697E+00-6.656937526E-01+
*       8.8818508250E-01               0
GRID*               1172               0-1.576625310E+006.3514643207E-01+
*       -3.110599527E-02               0
GRID*               1173               0-1.808601784E+00-3.848906576E-01+
*       -1.448508659E-01               0
GRID*               1174               0-1.762471844E+00-6.773058783E-01+
*       -1.042357988E-01               0
GRID*               1175               0-1.810128263E+00-6.298685105E-01+
*       -1.035328435E-01               0
GRID*               1176               0-1.850654098E+00-6.525344694E-01+
*       -6.118079616E-02               0
GRID*               1177               01.8094927612E+006.3259486708E-01+
*       -1.469827115E-01               0
GRID*               1178               01.6512705837E+00-6.867291844E-01+
*       -1.049906244E-01               0
GRID*               1179               01.8087509884E+00-3.849021146E-01+
*       -1.045368050E-01               0
GRID*               1180               09.9074297155E-01-6.880619493E-01+
*       -1.862767016E-01               0
GRID*               1181               0-1.674064629E+007.1878914194E-01+
*       -6.156891949E-02               0
GRID*               1182               0-1.731222682E+006.9732070819E-01+
*       -1.897299094E-01               0
GRID*               1183               0-1.689596676E+006.7599940069E-01+
*       -1.887791030E-01               0
GRID*               1184               01.6904647825E+00-6.760736520E-01+
*       -1.483605904E-01               0
GRID*               1185               01.6337846912E+007.1721937808E-01+
*       -6.240223822E-02               0
GRID*               1186               01.8314722861E+005.9780898286E-01+
*       -1.035712511E-01               0
GRID*               1187               0-1.810138770E+003.8459309983E-01+
*       -1.041431816E-01               0
GRID*               1188               0-1.831706757E+004.1789715492E-01+
*       -1.456398976E-01               0
GRID*               1189               0-1.832544698E+005.2955883825E-01+
*       -1.462006674E-01               0
GRID*               1190               0-1.833023875E+00-4.191468505E-01+
*       -1.463861986E-01               0
GRID*               1191               01.8474015406E+00-3.676087008E-01+
*       -1.882288497E-01               0
GRID*               1192               0-1.808709264E+00-3.845378509E-01+
*       -1.029216350E-01               0
GRID*               1193               0-1.351915915E+00-7.064767812E-01+
*       6.9967901266E-02               0
GRID*               1194               0-1.809565480E+006.2998284430E-01+
*       -1.454262870E-01               0
GRID*               1195               0-1.504665098E+00-5.775552782E-01+
*       -4.299264385E-02               0
GRID*               1196               01.4917820665E+006.8439187460E-01+
*       -6.390069482E-02               0
GRID*               1197               01.8321818466E+005.2988713182E-01+
*       -1.465221389E-01               0
GRID*               1198               0-1.181615075E+001.9571028314E-01+
*       9.6094316923E-01               0
GRID*               1199               0-1.173967625E+001.4465029801E-01+
*       9.9606363273E-01               0
GRID*               1200               0-1.191587495E+008.1955329531E-02+
*       1.0299439454E+00               0
GRID*               1201               03.7966203452E-02-2.496633160E-01+
*       -1.875869280E-01               0
GRID*               1202               07.6069310380E-02-2.495870946E-01+
*       -1.251160641E-01               0
GRID*               1203               01.1390234095E-01-2.496625855E-01+
*       -1.875291361E-01               0
GRID*               1204               07.5878552236E-02-1.872007956E-01+
*       -1.875399966E-01               0
GRID*               1205               03.8045521669E-02-1.871253047E-01+
*       -1.251269245E-01               0
GRID*               1206               01.1398165916E-01-1.871245741E-01+
*       -1.250691327E-01               0
GRID*               1207               05.1223095996E-05-6.231782405E-02+
*       -1.875105599E-01               0
GRID*               1208               0-3.795145830E-02-6.230424435E-02+
*       -1.250766271E-01               0
GRID*               1209               0-3.809819560E-02-1.248328977E-01+
*       -1.875660673E-01               0
GRID*               1210               03.7931178123E-02-1.247546308E-01+
*       -1.875399966E-01               0
GRID*               1211               03.8077915426E-02-6.222597745E-02+
*       -1.250505564E-01               0
GRID*               1212               0-7.150326972E-05-1.247410511E-01+
*       -1.251060638E-01               0
GRID*               1213               01.5220510101E-01-1.866534015E-01+
*       -6.252913611E-02               0
GRID*               1214               01.1412292183E-01-2.494434546E-01+
*       -6.252913611E-02               0
GRID*               1215               07.6099133117E-02-1.869816647E-01+
*       -6.253999657E-02               0
GRID*               1216               01.1418131230E-01-1.241916116E-01+
*       -6.253999657E-02               0
GRID*               1217               08.6660679168E-06-1.871612969E-01+
*       -6.258692796E-02               0
GRID*               1218               0-3.798385205E-02-1.872035716E-01+
*       -1.251529952E-01               0
GRID*               1219               0-3.810835887E-02-1.247770433E-01+
*       -6.256606727E-02               0
GRID*               1220               03.7921014852E-02-1.246987764E-01+
*       -6.253999657E-02               0
GRID*               1221               03.8186784333E-02-2.494441852E-01+
*       -6.258692796E-02               0
GRID*               1222               0-1.140288264E-01-2.497637379E-01+
*       -1.875377984E-01               0
GRID*               1223               0-7.597135575E-02-2.496866178E-01+
*       -1.251247263E-01               0
GRID*               1224               0-3.792429773E-02-2.496649453E-01+
*       -1.875869280E-01               0
GRID*               1225               0-7.604132266E-02-1.872806917E-01+
*       -1.875660673E-01               0
GRID*               1226               0-1.140883807E-01-1.873023642E-01+
*       -1.251038656E-01               0
GRID*               1227               0-1.143435025E-01-2.497772519E-01+
*       -6.253779836E-02               0
GRID*               1228               0-1.524129528E-01-1.876032926E-01+
*       -6.253779836E-02               0
GRID*               1229               0-1.144254491E-01-1.251202464E-01+
*       -6.256606727E-02               0
GRID*               1230               0-7.635599882E-02-1.872942058E-01+
*       -6.256606727E-02               0
GRID*               1231               0-1.900996436E-01-1.874043832E-01+
*       -1.250898068E-01               0
GRID*               1232               0-1.904367120E-01-1.252222654E-01+
*       -6.255200848E-02               0
GRID*               1233               0-1.521121399E-01-1.249213370E-01+
*       -1.251180758E-01               0
GRID*               1234               0-1.524315047E-01-6.276035409E-02+
*       -6.250009833E-02               0
GRID*               1235               0-1.142429825E-01-2.258709571E-04+
*       -6.250009833E-02               0
GRID*               1236               0-7.623692681E-02-6.258576327E-02+
*       -6.256606727E-02               0
GRID*               1237               0-1.141069326E-01-6.245942570E-02+
*       -1.250661656E-01               0
GRID*               1238               0-7.595751395E-025.5647960988E-05+
*       -1.250106582E-01               0
GRID*               1239               0-3.808750812E-02-7.068960415E-05+
*       -6.251055986E-02               0
GRID*               1240               0-3.823897388E-02-2.496784593E-01+
*       -6.258692796E-02               0
GRID*               1241               01.2183442978E+002.7255520623E-01+
*       9.5049866164E-01               0
GRID*               1242               01.2183442978E+003.0296876085E-01+
*       9.0302507129E-01               0
GRID*               1243               01.1982336760E+003.2101488295E-01+
*       9.4739976214E-01               0
GRID*               1244               01.1982336760E+002.9060132833E-01+
*       9.9487335248E-01               0
GRID*               1245               01.2678280262E+003.2229014790E-01+
*       9.4902705432E-01               0
GRID*               1246               01.6699853620E+006.5050002827E-01+
*       -1.562934433E-01               0
GRID*               1247               01.7067357158E+006.3855356252E-01+
*       -1.562934298E-01               0
GRID*               1248               01.6824816611E+006.3247203848E-01+
*       -1.862556321E-01               0
GRID*               1249               01.7037170756E+006.5797206675E-01+
*       -1.758824088E-01               0
GRID*               1250               01.7192320150E+006.2052557272E-01+
*       -1.862556187E-01               0
GRID*               1251               01.2183442978E+003.6901974707E-01+
*       8.9680845504E-01               0
GRID*               1252               01.2885146168E+003.9033222768E-01+
*       9.2887739539E-01               0
GRID*               1253               01.2189202666E+004.5510794895E-01+
*       9.2103348696E-01               0
GRID*               1254               01.1982336760E+003.8706586917E-01+
*       9.4118314589E-01               0
GRID*               1255               01.2684039950E+004.0837834978E-01+
*       9.7325208624E-01               0
GRID*               1256               01.2124145007E+002.6677205122E-01+
*       1.0742820349E+00               0
GRID*               1257               01.2124145007E+002.3274336192E-01+
*       1.0146737248E+00               0
GRID*               1258               01.1982336760E+003.2463001763E-01+
*       1.0544816626E+00               0
GRID*               1259               01.2618982292E+002.8247830359E-01+
*       1.0132021175E+00               0
GRID*               1260               01.6440214422E+006.3147419364E-01+
*       -2.290639167E-01               0
GRID*               1261               01.6072996086E+006.1954756430E-01+
*       -2.290639167E-01               0
GRID*               1262               01.6072962748E+006.1954499225E-01+
*       -1.873977852E-01               0
GRID*               1263               01.6144977199E+006.4269869686E-01+
*       -1.569374254E-01               0
GRID*               1264               01.6512228873E+006.5462789826E-01+
*       -1.569368903E-01               0
GRID*               1265               01.6619446000E+006.3567707802E-01+
*       -1.868383387E-01               0
GRID*               1266               01.6252194326E+006.2374787662E-01+
*       -1.868388738E-01               0
GRID*               1267               01.6644175397E+006.6530497627E-01+
*       -1.771085624E-01               0
GRID*               1268               01.6265403459E+006.5522211875E-01+
*       -1.775221073E-01               0
GRID*               1269               01.6585370078E+006.7362551379E-01+
*       -1.982521556E-01               0
GRID*               1270               01.5770336591E+006.2167773750E-01+
*       -1.868993699E-01               0
GRID*               1271               01.6282743921E+006.7575825904E-01+
*       -1.977537403E-01               0
GRID*               1272               01.6090303210E+006.4008113253E-01+
*       -2.076294182E-01               0
GRID*               1273               01.6619446000E+006.3567707802E-01+
*       -2.285050054E-01               0
GRID*               1274               01.4153268903E+00-5.802425343E-01+
*       -7.223081619E-02               0
GRID*               1275               01.4662416260E+00-6.271327778E-01+
*       -1.033994448E-01               0
GRID*               1276               01.4496646833E+00-6.468902435E-01+
*       -3.116862861E-02               0
GRID*               1277               01.4225702410E+00-6.380356032E-01+
*       -3.247961339E-02               0
GRID*               1278               01.4391471837E+00-6.182781375E-01+
*       -1.047104296E-01               0
GRID*               1279               01.4734849768E+00-6.849258467E-01+
*       -6.364824199E-02               0
GRID*               1280               01.2029823701E+004.1491497675E-01+
*       1.1564342336E+00               0
GRID*               1281               01.2029823701E+003.7623290658E-01+
*       1.0922908911E+00               0
GRID*               1282               01.2106957196E+004.8445831879E-01+
*       1.1100196710E+00               0
GRID*               1283               01.2649281422E+004.4454648751E-01+
*       1.1272047058E+00               0
GRID*               1284               01.2106957196E+004.4577624862E-01+
*       1.0458763286E+00               0
GRID*               1285               01.3433442978E+002.8365588072E-01+
*       9.4805475297E-01               0
GRID*               1286               01.2820088509E+002.6443218149E-01+
*       9.6882742668E-01               0
GRID*               1287               01.3374145007E+002.4384403641E-01+
*       1.0122298162E+00               0
GRID*               1288               01.3232336760E+003.0170200282E-01+
*       9.9242944382E-01               0
GRID*               1289               01.2029823701E+003.4196345537E-01+
*       1.1445904241E+00               0
GRID*               1290               01.1982336760E+003.5889946884E-01+
*       1.0021821296E+00               0
GRID*               1291               01.2524660986E+003.5766970774E-01+
*       1.0835105067E+00               0
GRID*               1292               01.3374145007E+003.0168265951E-01+
*       1.0579709049E+00               0
GRID*               1293               01.3232336760E+003.5954062592E-01+
*       1.0381705326E+00               0
GRID*               1294               01.3356957196E+004.4641740570E-01+
*       1.0818647316E+00               0
GRID*               1295               01.2808660386E+004.9525512955E-01+
*       1.0169462853E+00               0
GRID*               1296               01.3439202666E+004.2758270570E-01+
*       1.0180208736E+00               0
GRID*               1297               01.2601794481E+004.2721304978E-01+
*       1.0370959442E+00               0
GRID*               1298               05.6930908866E-01-5.023238757E-01+
*       -1.787493431E-01               0
GRID*               1299               06.0706916344E-01-4.399015046E-01+
*       -1.787493431E-01               0
GRID*               1300               05.3096864046E-01-4.306660162E-01+
*       -1.873101042E-01               0
GRID*               1301               05.6887438787E-01-4.332632169E-01+
*       -1.160594474E-01               0
GRID*               1302               05.6872871524E-01-3.682436451E-01+
*       -1.873101042E-01               0
GRID*               1303               04.9272331094E-01-2.442900292E-01+
*       -1.862060653E-01               0
GRID*               1304               04.5497363414E-01-3.066794889E-01+
*       -1.862060653E-01               0
GRID*               1305               04.9296200493E-01-3.681488400E-01+
*       -1.873101042E-01               0
GRID*               1306               05.3071168173E-01-3.057593804E-01+
*       -1.873101042E-01               0
GRID*               1307               04.9254556888E-01-3.001360062E-01+
*       -1.235161695E-01               0
GRID*               1308               04.9173504659E-01-2.391173196E-01+
*       -6.120606529E-02               0
GRID*               1309               05.2986524171E-01-2.498391292E-01+
*       -1.204509123E-01               0
GRID*               1310               05.6704309022E-01-2.502897938E-01+
*       -5.924484699E-02               0
GRID*               1311               05.2972341738E-01-3.005866708E-01+
*       -6.231010422E-02               0
GRID*               1312               05.6785361250E-01-3.113084804E-01+
*       -1.215549512E-01               0
GRID*               1313               0-1.783696558E+005.1914649939E-01+
*       -2.172312627E-02               0
GRID*               1314               0-1.783696657E+005.1914620078E-01+
*       -6.338977609E-02               0
GRID*               1315               0-1.783704267E+004.8049622112E-01+
*       -6.338977576E-02               0
GRID*               1316               05.6803135456E-01-2.554625034E-01+
*       -1.842448470E-01               0
GRID*               1317               06.4284129789E-01-3.692561371E-01+
*       -1.803500102E-01               0
GRID*               1318               06.4196619516E-01-3.123209724E-01+
*       -1.145948572E-01               0
GRID*               1319               06.0604838808E-01-3.179467681E-01+
*       -1.842448470E-01               0
GRID*               1320               06.0464652232E-01-3.626178494E-01+
*       -1.176601144E-01               0
GRID*               1321               0-1.646242946E+006.7029605021E-01+
*       -1.788466693E-01               0
GRID*               1322               0-1.612058005E+006.8596639616E-01+
*       -1.839111842E-01               0
GRID*               1323               0-1.614565006E+006.4067034595E-01+
*       -1.717311815E-01               0
GRID*               1324               0-1.642421316E+006.4027932817E-01+
*       -1.875050712E-01               0
GRID*               1325               0-1.639914315E+006.8557537838E-01+
*       -1.996850739E-01               0
GRID*               1326               0-1.608236375E+006.5594967413E-01+
*       -1.925695861E-01               0
GRID*               1327               0-1.587665011E+007.0317034595E-01+
*       -2.133978482E-01               0
GRID*               1328               0-1.601115008E+006.7192034595E-01+
*       -2.133978482E-01               0
GRID*               1329               0-1.565836203E+006.6111717071E-01+
*       -2.133978482E-01               0
GRID*               1330               06.4183072078E-01-3.626541428E-01+
*       -5.535001019E-02               0
GRID*               1331               06.4298697052E-01-4.342757088E-01+
*       -1.090993533E-01               0
GRID*               1332               06.0605858633E-01-4.332995103E-01+
*       -5.374934315E-02               0
GRID*               1333               05.6771813812E-01-3.616416509E-01+
*       -6.231010422E-02               0
GRID*               1334               0-1.540613193E+007.0317034595E-01+
*       -1.512442162E-01               0
GRID*               1335               0-1.619095681E+007.0317034595E-01+
*       -1.509698371E-01               0
GRID*               1336               0-1.577814659E+006.2872385434E-01+
*       -1.717311681E-01               0
GRID*               1337               0-1.577814476E+006.2872373404E-01+
*       -2.133978482E-01               0
GRID*               1338               01.4240163266E+003.8731908062E-01+
*       -1.900406212E-01               0
GRID*               1339               01.4469843984E+004.3825472527E-01+
*       -1.900406212E-01               0
GRID*               1340               01.4114974812E+004.9620476808E-01+
*       -1.866945503E-01               0
GRID*               1341               01.3885294094E+004.4526912343E-01+
*       -1.866945503E-01               0
GRID*               1342               01.4190697932E+004.3259667323E-01+
*       -1.267351715E-01               0
GRID*               1343               0-1.643785545E+00-6.324892242E-01+
*       -2.284499126E-01               0
GRID*               1344               0-1.607030282E+00-6.205575202E-01+
*       -1.867832523E-01               0
GRID*               1345               0-1.643785546E+00-6.324892242E-01+
*       -1.867832459E-01               0
GRID*               1346               0-1.594345979E+00-6.386760497E-01+
*       -1.565921886E-01               0
GRID*               1347               0-1.626086339E+00-6.580969881E-01+
*       -1.767087616E-01               0
GRID*               1348               0-1.576374609E+00-6.213499181E-01+
*       -1.865148662E-01               0
GRID*               1349               0-1.595430665E+00-6.588893860E-01+
*       -1.764403754E-01               0
GRID*               1350               0-1.608114968E+00-6.407708565E-01+
*       -2.066314391E-01               0
GRID*               1351               0-1.523274302E+004.3694827766E-01+
*       -2.118343791E-02               0
GRID*               1352               0-1.545984069E+004.0569651794E-01+
*       -6.285011841E-02               0
GRID*               1353               0-1.523275383E+004.3694568615E-01+
*       -6.285046463E-02               0
GRID*               1354               01.3400505282E+005.6535119732E-01+
*       -3.870869646E-05               0
GRID*               1355               01.2900503043E+005.7942425533E-01+
*       -6.846102709E-02               0
GRID*               1356               01.3487497236E+006.1407305802E-01+
*       -6.842231839E-02               0
GRID*               1357               01.3911664118E+005.4527335802E-01+
*       -6.169455027E-02               0
GRID*               1358               01.3324669925E+005.1062455534E-01+
*       -6.173325897E-02               0
GRID*               1359               01.3411661879E+005.5934641604E-01+
*       -1.301168687E-01               0
GRID*               1360               01.5770369928E+006.2168030955E-01+
*       -2.285655015E-01               0
GRID*               1361               01.5528286347E+006.0862979541E-01+
*       -2.277583959E-01               0
GRID*               1362               01.5528253009E+006.0862722336E-01+
*       -1.860922643E-01               0
GRID*               1363               01.5545593471E+006.2916336365E-01+
*       -2.063238974E-01               0
GRID*               1364               01.2762183764E+003.7947695566E-01+
*       -1.919076231E-01               0
GRID*               1365               01.2861082066E+003.5887320053E-01+
*       -1.380047779E-01               0
GRID*               1366               01.3276453821E+003.0415282953E-01+
*       -1.960971547E-01               0
GRID*               1367               01.3506692140E+004.0765165035E-01+
*       -1.866945503E-01               0
GRID*               1368               01.3091320384E+004.6237202135E-01+
*       -1.286021734E-01               0
GRID*               1369               01.3605590442E+003.8704789522E-01+
*       -1.327917050E-01               0
GRID*               1370               01.3167155742E+004.4209866333E-01+
*       -6.690762315E-02               0
GRID*               1371               01.2580161549E+004.8244986065E-01+
*       -6.694633184E-02               0
GRID*               1372               01.3400505282E+004.9035119732E-01+
*       -3.870869646E-05               0
GRID*               1373               01.3911664118E+004.7027335802E-01+
*       -6.169455027E-02               0
GRID*               1374               01.3681425799E+003.6677453720E-01+
*       -7.109715474E-02               0
GRID*               1375               01.2051221190E+004.3849000825E-01+
*       3.3894997013E-02               0
GRID*               1376               01.2480876860E+004.3058867158E-01+
*       -3.301262613E-02               0
GRID*               1377               01.1917156338E+004.4209866333E-01+
*       -6.690762315E-02               0
GRID*               1378               01.2150505878E+004.9035119732E-01+
*       -3.870869646E-05               0
GRID*               1379               01.2714226400E+004.7884120557E-01+
*       3.3856288316E-02               0
GRID*               1380               01.3301220594E+004.6909229926E-01+
*       7.8854005590E-02               0
GRID*               1381               01.2732634242E+005.0342786469E-01+
*       1.0159183073E-01               0
GRID*               1382               01.3418913124E+005.4554014745E-01+
*       1.1265584229E-01               0
GRID*               1383               01.3400505282E+005.2095348833E-01+
*       4.4920299881E-02               0
GRID*               1384               01.2831918931E+005.5528905375E-01+
*       6.7658125018E-02               0
GRID*               1385               01.3301220594E+004.3849000825E-01+
*       3.3894997013E-02               0
GRID*               1386               01.3336422980E+002.6215715149E-01+
*       1.8155931872E-02               0
GRID*               1387               01.3336422980E+002.2822687439E-01+
*       7.9908057668E-02               0
GRID*               1388               01.3293752007E+003.0233059642E-01+
*       7.1279035386E-02               0
GRID*               1389               01.2642675511E+002.6448774791E-01+
*       8.9434967258E-02               0
GRID*               1390               01.3293752007E+002.6840031932E-01+
*       1.3303116118E-01               0
GRID*               1391               01.2082790349E+002.1739751295E-01+
*       2.2926257449E-01               0
GRID*               1392               01.2082790545E+002.0973231668E-01+
*       1.5436231155E-01               0
GRID*               1393               01.2043752388E+002.7500821196E-01+
*       1.4322607900E-01               0
GRID*               1394               01.2043752193E+002.8267340823E-01+
*       2.1812634194E-01               0
GRID*               1395               01.2639042695E+002.3938529757E-01+
*       1.5369430332E-01               0
GRID*               1396               01.2196118147E+002.7499989705E-01+
*       3.2771824999E-01               0
GRID*               1397               01.2791408650E+002.3171178640E-01+
*       2.6328621137E-01               0
GRID*               1398               01.2752370493E+002.9698768167E-01+
*       2.5214997883E-01               0
GRID*               1399               01.3332790164E+002.4699381891E-01+
*       2.1742484664E-01               0
GRID*               1400               01.3446117962E+003.0459620301E-01+
*       3.1588052215E-01               0
GRID*               1401               01.3293752007E+003.1226971418E-01+
*       2.0628861409E-01               0
GRID*               1402               01.5795967759E+00-3.829719371E-01+
*       -2.096939869E-02               0
GRID*               1403               01.5795934436E+00-3.829745094E-01+
*       -6.263553027E-02               0
GRID*               1404               01.5575121549E+00-3.896578186E-01+
*       -2.266544273E-02               0
GRID*               1405               01.5618026498E+00-3.737765175E-01+
*       -4.363484142E-02               0
GRID*               1406               01.5575088226E+00-3.896603909E-01+
*       -6.433157431E-02               0
GRID*               1407               01.5348005133E+00-4.208945444E-01+
*       -6.433209255E-02               0
GRID*               1408               01.3332790164E+002.0312442404E-01+
*       1.4416739373E-01               0
GRID*               1409               01.5680965195E+00-6.185079727E-01+
*       -2.277976010E-01               0
GRID*               1410               01.6048135990E+00-6.304494223E-01+
*       -1.861309343E-01               0
GRID*               1411               01.5680931745E+00-6.185053920E-01+
*       -1.861314711E-01               0
GRID*               1412               01.5875651546E+00-6.255257286E-01+
*       -2.277015747E-01               0
GRID*               1413               01.6242822342E+00-6.374671782E-01+
*       -2.277015747E-01               0
GRID*               1414               01.6242822341E+00-6.374671782E-01+
*       -1.860349080E-01               0
GRID*               1415               01.3244249425E+00-9.018677041E-02+
*       1.3391547920E+00               0
GRID*               1416               01.2671968566E+00-4.176343041E-02+
*       1.3192320497E+00               0
GRID*               1417               01.3415218616E+00-2.911124521E-03+
*       1.3253384565E+00               0
GRID*               1418               01.3209248969E+00-5.182901832E-02+
*       1.2781004824E+00               0
GRID*               1419               01.2465998918E+00-9.068132421E-02+
*       1.2719940756E+00               0
GRID*               1420               01.2636968109E+00-3.405678327E-03+
*       1.2581777401E+00               0
GRID*               1421               01.3415218616E+004.3315854938E-02+
*       1.2564302921E+00               0
GRID*               1422               01.3209248969E+00-5.602038864E-03+
*       1.2091923180E+00               0
GRID*               1423               01.3379559549E+00-6.196005700E-02+
*       1.0975556184E+00               0
GRID*               1424               01.3379559549E+00-9.769878757E-02+
*       1.1536293315E+00               0
GRID*               1425               01.3209248969E+00-3.961362853E-02+
*       1.1494620062E+00               0
GRID*               1426               01.2601309043E+00-7.467000060E-02+
*       1.1590333783E+00               0
GRID*               1427               01.3209248969E+00-7.535235910E-02+
*       1.2055357193E+00               0
GRID*               1428               01.3284270660E+003.0222639326E-02+
*       1.1015283741E+00               0
GRID*               1429               01.2676330734E+00-4.833732744E-03+
*       1.1110997461E+00               0
GRID*               1430               01.2506020153E+001.7512695725E-02+
*       1.1630061339E+00               0
GRID*               1431               0-3.417725185E-012.5232323328E-01+
*       -1.843275235E-01               0
GRID*               1432               0-3.038348181E-013.1480778660E-01+
*       -1.843275235E-01               0
GRID*               1433               0-3.795286010E-013.0761605766E-01+
*       -1.842837098E-01               0
GRID*               1434               0-3.417222046E-013.1016984670E-01+
*       -1.186112333E-01               0
GRID*               1435               0-3.415909006E-013.7010061099E-01+
*       -1.842837098E-01               0
GRID*               1436               0-4.175374300E-014.9860947179E-01+
*       -1.879641994E-01               0
GRID*               1437               0-4.554699246E-014.3608407945E-01+
*       -1.879641994E-01               0
GRID*               1438               0-4.174950689E-013.7008761468E-01+
*       -1.842837098E-01               0
GRID*               1439               0-3.795625743E-014.3261300702E-01+
*       -1.842837098E-01               0
GRID*               1440               0-4.174531429E-014.3145913587E-01+
*       -1.222479092E-01               0
GRID*               1441               0-4.181999402E-014.9698535853E-01+
*       -6.296419942E-02               0
GRID*               1442               0-3.798970580E-015.0140450556E-01+
*       -1.223585131E-01               0
GRID*               1443               0-3.426689996E-015.0093426345E-01+
*       -5.939431365E-02               0
GRID*               1444               0-3.802250845E-014.3098889375E-01+
*       -5.928370981E-02               0
GRID*               1445               0-3.419222022E-014.3540804079E-01+
*       -1.186780235E-01               0
GRID*               1446               0-3.420064893E-015.0255837672E-01+
*       -1.843943137E-01               0
GRID*               1447               0-2.658322215E-013.7447695540E-01+
*       -1.874628650E-01               0
GRID*               1448               0-2.661635231E-014.3978438520E-01+
*       -1.218571787E-01               0
GRID*               1449               0-3.040348157E-014.4004598069E-01+
*       -1.843943137E-01               0
GRID*               1450               0-3.037196081E-013.6983901550E-01+
*       -1.217465748E-01               0
GRID*               1451               0-2.659635255E-013.1454619111E-01+
*       -1.217903885E-01               0
GRID*               1452               04.1917511648E-014.9988160410E-01+
*       -6.242189128E-02               0
GRID*               1453               04.5707374271E-014.3763896757E-01+
*       -6.242189128E-02               0
GRID*               1454               04.1923258780E-013.7848143051E-01+
*       -5.939865494E-02               0
GRID*               1455               03.8133396157E-014.4072406705E-01+
*       -5.939865494E-02               0
GRID*               1456               04.1813190900E-014.4037861241E-01+
*       -1.218205462E-01               0
GRID*               1457               03.4161654497E-014.9957995319E-01+
*       -1.874948901E-01               0
GRID*               1458               03.0373143204E-014.3713687497E-01+
*       -1.874948901E-01               0
GRID*               1459               03.7962292580E-014.4033350545E-01+
*       -1.843986549E-01               0
GRID*               1460               03.4228437326E-014.4046752309E-01+
*       -1.218935450E-01               0
GRID*               1461               03.4173781286E-013.7789042722E-01+
*       -1.843986549E-01               0
GRID*               1462               01.1700222481E+001.2528978242E-01+
*       5.1399395923E-01               0
GRID*               1463               01.1700222481E+001.5755804041E-01+
*       5.3262405327E-01               0
GRID*               1464               01.2116872010E+001.5756395854E-01+
*       5.3262862682E-01               0
GRID*               1465               01.8664897663E+00-5.584111102E-01+
*       -1.358790530E-01               0
GRID*               1466               01.8664897663E+00-5.990254620E-01+
*       -7.337905296E-02               0
GRID*               1467               01.8658668084E+00-5.842464535E-01+
*       -4.331114124E-02               0
GRID*               1468               01.8658668084E+00-5.436321017E-01+
*       -1.058111412E-01               0
GRID*               1469               01.8336066272E+00-5.832719156E-01+
*       -1.166901942E-01               0
GRID*               1470               01.8643453785E+00-5.846658971E-01+
*       -2.187111625E-02               0
GRID*               1471               01.8643453785E+00-5.440515453E-01+
*       -8.437111625E-02               0
GRID*               1472               01.8314622394E+00-5.689123506E-01+
*       -6.518225749E-02               0
GRID*               1473               01.8749953935E+00-6.968190324E-01+
*       -3.003955745E-02               0
GRID*               1474               01.8749953935E+00-6.968190324E-01+
*       -9.253955745E-02               0
GRID*               1475               01.8731736995E+00-7.183693096E-01+
*       -9.380818297E-02               0
GRID*               1476               01.8731736995E+00-7.183693096E-01+
*       -3.130818297E-02               0
GRID*               1477               01.8494191455E+00-6.651883419E-01+
*       -6.134774042E-02               0
GRID*               1478               01.8247754128E+00-7.183693096E-01+
*       -9.389161713E-02               0
GRID*               1479               01.8747463162E+00-7.009598816E-01+
*       -1.565139530E-01               0
GRID*               1480               01.8747463162E+00-7.009598816E-01+
*       -2.190139530E-01               0
GRID*               1481               01.8733076456E+00-7.232349100E-01+
*       -2.183296445E-01               0
GRID*               1482               01.8733076456E+00-7.232349100E-01+
*       -1.558296445E-01               0
GRID*               1483               01.8493040143E+00-6.741947917E-01+
*       -1.873435975E-01               0
GRID*               1484               01.6125043688E+00-6.553271426E-01+
*       -1.557211491E-01               0
GRID*               1485               01.5880869751E+00-6.677943310E-01+
*       -1.750893905E-01               0
GRID*               1486               01.6510213280E+00-6.547106403E-01+
*       -1.567971493E-01               0
GRID*               1487               01.6148260690E+00-6.850377930E-01+
*       -1.458516318E-01               0
GRID*               1488               01.6266039343E+00-6.671778287E-01+
*       -1.761653907E-01               0
GRID*               1489               02.6637661780E-014.4055824602E-01+
*       -1.219030199E-01               0
GRID*               1490               02.6583005740E-013.7798115015E-01+
*       -1.844081299E-01               0
GRID*               1491               03.0438299863E-013.8131179828E-01+
*       -1.188067848E-01               0
GRID*               1492               04.5450508543E-013.0875590087E-01+
*       -1.842468357E-01               0
GRID*               1493               04.9370472268E-013.0878300865E-01+
*       -1.151239567E-01               0
GRID*               1494               04.9316788233E-013.7402224264E-01+
*       -1.808771210E-01               0
GRID*               1495               04.1712949958E-013.7760810510E-01+
*       -1.843986549E-01               0
GRID*               1496               04.1766633994E-013.1236887112E-01+
*       -1.186454907E-01               0
GRID*               1497               04.5632913683E-013.7763521289E-01+
*       -1.152757759E-01               0
GRID*               1498               03.4332758074E-014.9997051479E-01+
*       -6.249489008E-02               0
GRID*               1499               03.8012552817E-014.9962506015E-01+
*       -1.249167814E-01               0
GRID*               1500               04.1746408071E-014.9949104251E-01+
*       -1.874218913E-01               0
GRID*               1501               01.4808934154E+00-5.109058791E-01+
*       -1.138974660E-01               0
GRID*               1502               01.4808858193E+00-5.495558616E-01+
*       -1.138974657E-01               0
GRID*               1503               01.5127613865E+00-4.815248863E-01+
*       -6.225889154E-02               0
GRID*               1504               01.4637718040E+00-5.311040757E-01+
*       -9.282305791E-02               0
GRID*               1505               01.5127537904E+00-5.201748688E-01+
*       -6.225889120E-02               0
GRID*               1506               01.3613131318E+00-5.369866466E-01+
*       -1.972308162E-01               0
GRID*               1507               01.3944048109E+00-5.956656623E-01+
*       -1.972308162E-01               0
GRID*               1508               01.4259759361E+00-5.448659736E-01+
*       -1.972308162E-01               0
GRID*               1509               01.2950333449E+00-1.919712914E-01+
*       9.6526908656E-01               0
GRID*               1510               01.2786723179E+00-2.406790290E-01+
*       9.7613497574E-01               0
GRID*               1511               01.2990537244E+00-2.319749489E-01+
*       9.3090230205E-01               0
GRID*               1512               01.3356464362E+00-1.868758180E-01+
*       9.3751589540E-01               0
GRID*               1513               01.3152650297E+00-1.955798981E-01+
*       9.8274856909E-01               0
GRID*               1514               01.3192854091E+00-2.355835556E-01+
*       9.4838178458E-01               0
GRID*               1515               01.2533676097E+00-1.628376875E-01+
*       9.8850406440E-01               0
GRID*               1516               01.2759069504E+00-1.488459003E-01+
*       1.0588143754E+00               0
GRID*               1517               01.2546226216E+00-1.110082163E-01+
*       1.0368166795E+00               0
GRID*               1518               01.2119714671E+00-1.212247073E-01+
*       9.8795363247E-01               0
GRID*               1519               01.2332557958E+00-1.590623914E-01+
*       1.0099513283E+00               0
GRID*               1520               01.2345108078E+00-1.072329201E-01+
*       1.0582639434E+00               0
GRID*               1521               01.2573875793E+00-2.319735684E-01+
*       9.3090410125E-01               0
GRID*               1522               01.2533671998E+00-1.919699110E-01+
*       9.6527088577E-01               0
GRID*               1523               0-1.530565716E+006.3672796778E-01+
*       -2.133978482E-01               0
GRID*               1524               0-1.512423430E+006.5133578886E-01+
*       -1.535458569E-01               0
GRID*               1525               0-1.462609080E+006.3172306473E-01+
*       -1.901480087E-01               0
GRID*               1526               0-1.485968110E+006.5015100403E-01+
*       -2.190678684E-01               0
GRID*               1527               0-1.535782460E+006.6976372815E-01+
*       -1.824657166E-01               0
GRID*               1528               0-1.467825824E+006.6475882511E-01+
*       -1.592158771E-01               0
GRID*               1529               01.2129559549E+00-1.021600994E-01+
*       1.0789445382E+00               0
GRID*               1530               01.2129559549E+00-1.371352546E-01+
*       1.1173914518E+00               0
GRID*               1531               01.2117009430E+00-1.539895706E-01+
*       1.0306319231E+00               0
GRID*               1532               01.2117009430E+00-1.889647259E-01+
*       1.0690788367E+00               0
GRID*               1533               01.2034270660E+001.3705165772E-01+
*       1.1062618508E+00               0
GRID*               1534               01.2034270660E+009.9117363433E-02+
*       1.1463157726E+00               0
GRID*               1535               01.2034270660E+008.3893448679E-02+
*       1.0913862809E+00               0
GRID*               1536               01.2320096491E+00-3.176154421E-01+
*       1.0686620220E+00               0
GRID*               1537               01.2320096491E+00-3.374727938E-01+
*       1.0148525135E+00               0
GRID*               1538               01.2117009430E+00-2.689185259E-01+
*       1.0027615772E+00               0
GRID*               1539               01.2117009430E+00-2.490611742E-01+
*       1.0565710857E+00               0
GRID*               1540               01.2949606445E+00-2.692296395E-01+
*       1.0225926966E+00               0
GRID*               1541               01.2157213225E+00-3.089221833E-01+
*       9.6839479264E-01               0
GRID*               1542               01.2157213225E+00-2.767359633E-01+
*       9.2987224344E-01               0
GRID*               1543               01.2117009430E+00-2.367323059E-01+
*       9.6423902796E-01               0
GRID*               1544               01.2120603108E+00-2.051646015E-01+
*       9.2076240071E-01               0
GRID*               1545               01.2373654289E+00-2.538737195E-01+
*       9.3162649069E-01               0
GRID*               1546               01.2333450494E+00-2.138700621E-01+
*       9.6599327520E-01               0
GRID*               1547               01.6125043689E+00-6.553271426E-01+
*       -1.140544825E-01               0
GRID*               1548               01.5757897118E+00-6.433875346E-01+
*       -1.140540997E-01               0
GRID*               1549               01.5746395235E+00-6.593902385E-01+
*       -7.283529527E-02               0
GRID*               1550               01.5382255826E+00-6.909610382E-01+
*       -8.286968297E-02               0
GRID*               1551               01.6122856871E+00-6.565707896E-01+
*       -9.336772103E-02               0
GRID*               1552               01.6376962002E+00-6.413598523E-01+
*       -6.345279810E-02               0
GRID*               1553               01.5636360957E+00-6.757501009E-01+
*       -5.295476004E-02               0
GRID*               1554               01.6012822593E+00-6.729306521E-01+
*       -7.348718580E-02               0
GRID*               1555               01.2119742367E+003.7640412631E-02+
*       3.5751443639E-01               0
GRID*               1556               01.2119742276E+005.4464793853E-03+
*       4.1737481181E-01               0
GRID*               1557               01.2069800141E+00-2.439716594E-03+
*       3.2080248433E-01               0
GRID*               1558               01.2702042816E+00-7.282518489E-03+
*       3.8179706571E-01               0
GRID*               1559               01.2069800050E+00-3.463364984E-02+
*       3.8066285974E-01               0
GRID*               1560               0-1.420440581E+00-3.475754010E-01+
*       -6.814166463E-02               0
GRID*               1561               0-1.472336573E+00-3.793517571E-01+
*       -6.814166463E-02               0
GRID*               1562               0-1.446790166E+00-2.875097905E-01+
*       -6.425771278E-02               0
GRID*               1563               0-1.468480799E+00-3.350851915E-01+
*       -1.323993774E-01               0
GRID*               1564               0-1.498686158E+00-3.192861466E-01+
*       -6.425771278E-02               0
GRID*               1565               0-1.583856526E+00-2.295622175E-01+
*       -1.924463271E-01               0
GRID*               1566               0-1.597232063E+00-2.221097662E-01+
*       -1.401321662E-01               0
GRID*               1567               0-1.612752115E+00-2.888940399E-01+
*       -1.976858391E-01               0
GRID*               1568               0-1.547103481E+00-2.856830361E-01+
*       -1.892577128E-01               0
GRID*               1569               0-1.531583429E+00-2.188987624E-01+
*       -1.317040399E-01               0
GRID*               1570               0-1.560479019E+00-2.782305848E-01+
*       -1.369435518E-01               0
GRID*               1571               0-1.600688455E+00-3.401672831E-01+
*       -1.560191589E-01               0
GRID*               1572               0-1.535039821E+00-3.369562793E-01+
*       -1.475910327E-01               0
GRID*               1573               0-1.581165520E+00-3.725721414E-01+
*       -1.869715980E-01               0
GRID*               1574               0-1.606604718E+00-3.138464468E-01+
*       -1.763241172E-01               0
GRID*               1575               0-1.540956084E+00-3.106354430E-01+
*       -1.678959909E-01               0
GRID*               1576               0-1.600688353E+00-3.401673502E-01+
*       -1.143524996E-01               0
GRID*               1577               0-1.535039719E+00-3.369563464E-01+
*       -1.059243733E-01               0
GRID*               1578               0-1.480121916E+00-3.604914322E-01+
*       -1.931416646E-01               0
GRID*               1579               0-1.435744242E+00-3.537448119E-01+
*       -1.931416646E-01               0
GRID*               1580               0-1.462093828E+00-2.936792014E-01+
*       -1.892577128E-01               0
GRID*               1581               0-1.506471502E+00-3.004258217E-01+
*       -1.892577128E-01               0
GRID*               1582               0-1.337538491E+00-4.941624624E-02+
*       1.1186380290E+00               0
GRID*               1583               0-1.289246884E+00-2.019995734E-02+
*       1.1013646589E+00               0
GRID*               1584               0-1.350458340E+005.2151910450E-02+
*       1.1215020963E+00               0
GRID*               1585               0-1.333524402E+00-9.801788641E-03+
*       1.1673612996E+00               0
GRID*               1586               0-1.272312945E+00-8.215365643E-02+
*       1.1472238622E+00               0
GRID*               1587               0-1.285232795E+001.9414500263E-02+
*       1.1500879295E+00               0
GRID*               1588               0-1.350458340E+004.4337719906E-02+
*       1.1772437087E+00               0
GRID*               1589               0-1.333524402E+00-1.761597919E-02+
*       1.2231029120E+00               0
GRID*               1590               0-1.330364262E+002.1525826762E-02+
*       1.2793165629E+00               0
GRID*               1591               0-1.277988369E+00-4.343023811E-02+
*       1.3194003445E+00               0
GRID*               1592               0-1.346374055E+00-5.764882442E-02+
*       1.2903424727E+00               0
GRID*               1593               0-1.265138716E+00-3.397392881E-03+
*       1.2521607838E+00               0
GRID*               1594               0-1.281148510E+00-8.257204406E-02+
*       1.2631866935E+00               0
GRID*               1595               0-1.348075126E+00-1.596945819E-01+
*       1.2148056700E+00               0
GRID*               1596               0-1.348075126E+00-1.293347020E-01+
*       1.1662825734E+00               0
GRID*               1597               0-1.333524402E+00-5.385768609E-02+
*       1.1697444054E+00               0
GRID*               1598               0-1.333524402E+00-8.421756601E-02+
*       1.2182675020E+00               0
GRID*               1599               0-1.282849580E+00-1.180162147E-01+
*       1.1924853009E+00               0
GRID*               1600               0-1.253035641E+006.1484613337E-01+
*       -2.020613369E-01               0
GRID*               1601               0-1.291181811E+005.5723294634E-01+
*       -2.020613369E-01               0
GRID*               1602               0-1.214369401E+005.5746296213E-01+
*       -1.996785669E-01               0
GRID*               1603               0-1.253191990E+005.4287676622E-01+
*       -1.517399038E-01               0
GRID*               1604               0-1.252515571E+004.9984977510E-01+
*       -1.996785669E-01               0
GRID*               1605               0-1.110990488E+004.6426390959E-01+
*       -6.484310436E-02               0
GRID*               1606               0-1.159732715E+003.8248821104E-01+
*       -1.264836535E-01               0
GRID*               1607               0-1.197492294E+003.6822430145E-01+
*       -6.164054912E-02               0
GRID*               1608               0-1.181637909E+004.6774679749E-01+
*       -7.467856693E-02               0
GRID*               1609               0-1.143878330E+004.8201070708E-01+
*       -1.395216713E-01               0
GRID*               1610               0-1.230380136E+003.8597109894E-01+
*       -1.363191160E-01               0
GRID*               1611               0-1.235602336E+003.3493852606E-01+
*       -1.866405491E-01               0
GRID*               1612               0-1.149100530E+004.3097813420E-01+
*       -1.898431044E-01               0
GRID*               1613               0-1.219747950E+004.3446102209E-01+
*       -1.996785669E-01               0
GRID*               1614               0-1.302246664E+004.6639094400E-01+
*       -1.850106653E-01               0
GRID*               1615               0-1.269479044E+004.0100219099E-01+
*       -1.850106653E-01               0
GRID*               1616               0-1.264256844E+004.5203476387E-01+
*       -1.346892323E-01               0
GRID*               1617               01.1290723761E+00-6.368088180E-01+
*       -3.204888432E-02               0
GRID*               1618               01.1170984874E+00-6.151550663E-01+
*       -9.663554774E-02               0
GRID*               1619               01.1367761781E+00-5.783462482E-01+
*       -6.458666342E-02               0
GRID*               1620               01.1649161062E+00-6.373073464E-01+
*       -3.338933326E-02               0
GRID*               1621               01.1452384155E+00-6.741161644E-01+
*       -6.543821758E-02               0
GRID*               1622               01.1529422175E+00-6.156535946E-01+
*       -9.797599668E-02               0
GRID*               1623               09.4846328258E-01-4.913854801E-01+
*       -1.881504883E-01               0
GRID*               1624               09.8625435408E-01-5.542118292E-01+
*       -1.881504883E-01               0
GRID*               1625               01.0565865898E+00-5.288725944E-01+
*       -1.895866634E-01               0
GRID*               1626               01.0166789822E+00-5.192053821E-01+
*       -1.277371517E-01               0
GRID*               1627               01.0943776613E+00-5.916989435E-01+
*       -1.895866634E-01               0
GRID*               1628               01.0576527160E+00-7.054691376E-01+
*       -9.668158270E-02               0
GRID*               1629               01.0868881707E+00-6.088153858E-01+
*       -9.805472074E-02               0
GRID*               1630               01.0955668347E+00-6.533462482E-01+
*       -1.278001888E-01               0
GRID*               1631               01.0659395168E+00-7.198861098E-01+
*       -1.561349552E-01               0
GRID*               1632               01.0572608528E+00-6.753552474E-01+
*       -1.263894872E-01               0
GRID*               1633               01.0951749715E+00-6.232323580E-01+
*       -1.575080933E-01               0
GRID*               1634               01.2070077051E+00-1.792162906E-01+
*       1.7281742430E-01               0
GRID*               1635               01.2639552498E+00-2.086273390E-01+
*       1.4916971739E-01               0
GRID*               1636               01.2056975741E+00-2.523070471E-01+
*       1.0462843195E-01               0
GRID*               1637               01.2170315452E+00-1.676361032E-01+
*       9.8490360886E-02               0
GRID*               1638               01.2752892210E+00-1.239563951E-01+
*       1.4303164633E-01               0
GRID*               1639               01.2739790900E+00-1.970471515E-01+
*       7.4842653978E-02               0
GRID*               1640               01.3215570512E+00-2.176422050E-01+
*       -5.829382038E-02               0
GRID*               1641               01.2535046368E+00-2.835012527E-01+
*       -1.780345786E-02               0
GRID*               1642               01.3306975332E+00-2.158590477E-01+
*       4.0490362519E-02               0
GRID*               1643               01.3420315043E+00-1.311881038E-01+
*       3.4352291458E-02               0
GRID*               1644               01.2648386080E+00-1.988303088E-01+
*       -2.394152892E-02               0
GRID*               1645               0-1.778106649E+00-5.646308610E-01+
*       -6.263181702E-02               0
GRID*               1646               0-1.778106749E+00-5.646305580E-01+
*       -2.096516754E-02               0
GRID*               1647               0-1.785434250E+00-5.192159335E-01+
*       -2.133241979E-02               0
GRID*               1648               0-1.785434149E+00-5.192162366E-01+
*       -6.299906928E-02               0
GRID*               1649               0-1.795908627E+00-5.452205348E-01+
*       -4.229758733E-02               0
GRID*               1650               01.7410048168E+006.1351018072E-01+
*       -6.369801999E-02               0
GRID*               1651               01.7616217330E+006.5078958679E-01+
*       -7.442685859E-02               0
GRID*               1652               01.7428677741E+006.3838634060E-01+
*       -9.406215973E-02               0
GRID*               1653               01.7041886741E+006.3851700414E-01+
*       -9.208829523E-02               0
GRID*               1654               01.7229426330E+006.5092025034E-01+
*       -7.245299409E-02               0
GRID*               1655               01.7248055902E+006.7579641021E-01+
*       -1.028171338E-01               0
GRID*               1656               01.3306975332E+00-2.468950723E-01+
*       1.0701916952E-01               0
GRID*               1657               01.3320076642E+00-1.738043158E-01+
*       1.7520816187E-01               0
GRID*               1658               01.3420315043E+00-1.622241283E-01+
*       1.0088109846E-01               0
GRID*               1659               01.3353690389E+00-1.626692726E-02+
*       9.4836969293E-02               0
GRID*               1660               01.3353690389E+001.6749511275E-02+
*       3.0202083687E-02               0
GRID*               1661               01.3420315043E+00-5.618810380E-02+
*       3.4352291458E-02               0
GRID*               1662               01.3420315043E+00-8.920454234E-02+
*       9.8987177065E-02               0
GRID*               1663               01.2786505957E+00-3.943859253E-02+
*       6.4554375145E-02               0
GRID*               1664               0-1.334407820E+002.6392415397E-01+
*       4.5876616923E-01               0
GRID*               1665               0-1.263652871E+002.1675884433E-01+
*       4.7111066135E-01               0
GRID*               1666               0-1.327994998E+002.0749076921E-01+
*       4.2852694111E-01               0
GRID*               1667               0-1.332267892E+002.7235863563E-01+
*       3.8824977780E-01               0
GRID*               1668               0-1.267925764E+002.8162671075E-01+
*       4.3083349804E-01               0
GRID*               1669               0-1.261512942E+002.2519332599E-01+
*       4.0059426992E-01               0
GRID*               1670               01.3320076642E+00-1.007847298E-01+
*       1.7331424048E-01               0
GRID*               1671               0-1.345271658E+001.6281802064E-01+
*       -1.914925422E-01               0
GRID*               1672               0-1.373079631E+001.2643766530E-01+
*       -1.357056547E-01               0
GRID*               1673               0-1.294105570E+009.4472146890E-02+
*       -1.942131125E-01               0
GRID*               1674               0-1.232721826E+001.2316408527E-01+
*       -2.036368919E-01               0
GRID*               1675               0-1.311695887E+001.5512960368E-01+
*       -1.451294341E-01               0
GRID*               1676               0-1.260529799E+008.6783729927E-02+
*       -1.478500044E-01               0
GRID*               1677               01.8688156540E+00-1.180765963E-01+
*       -2.174741326E-01               0
GRID*               1678               01.8098107210E+00-8.707596337E-02+
*       -2.174741326E-01               0
GRID*               1679               01.8699353707E+00-1.556056804E-01+
*       -2.202190558E-01               0
GRID*               1680               01.8400010771E+00-1.236822767E-01+
*       -1.876931884E-01               0
GRID*               1681               01.8109304376E+00-1.246050475E-01+
*       -2.202190558E-01               0
GRID*               1682               0-1.118952640E+00-3.740270285E-01+
*       -6.109954427E-02               0
GRID*               1683               0-1.066815676E+00-3.314808880E-01+
*       -6.109954427E-02               0
GRID*               1684               0-1.110925068E+00-4.872445261E-01+
*       -4.678510994E-02               0
GRID*               1685               0-1.081127641E+00-4.112715546E-01+
*       -1.078846542E-01               0
GRID*               1686               0-1.058788104E+00-4.446983856E-01+
*       -4.678510994E-02               0
GRID*               1687               0-1.219431296E+001.8753268825E-01+
*       -1.090225418E-02               0
GRID*               1688               0-1.268173523E+002.5575698970E-01+
*       -7.254280330E-02               0
GRID*               1689               0-1.197492294E+002.1822430145E-01+
*       -6.164054912E-02               0
GRID*               1690               0-1.173948061E+001.3273783415E-01+
*       -7.863689188E-02               0
GRID*               1691               0-1.244629290E+001.7027052241E-01+
*       -8.953914606E-02               0
GRID*               1692               0-1.222690289E+002.0096213560E-01+
*       -1.402774410E-01               0
GRID*               1693               0-1.357179121E+002.0992445778E-01+
*       -7.739479640E-02               0
GRID*               1694               0-1.306013034E+001.4157858403E-01+
*       -8.011536670E-02               0
GRID*               1695               0-1.115182379E+001.3384043847E-01+
*       -6.712920328E-02               0
GRID*               1696               0-1.115182379E+005.8840438471E-02+
*       -6.712920328E-02               0
GRID*               1697               0-1.140380374E+001.1657827262E-01+
*       -1.457660952E-01               0
GRID*               1698               0-1.173948061E+005.7737834154E-02+
*       -7.863689188E-02               0
GRID*               1699               01.5127536940E+00-5.201745619E-01+
*       -2.059224172E-02               0
GRID*               1700               01.5202572553E+00-5.640635829E-01+
*       -2.104947222E-02               0
GRID*               1701               01.5031433363E+00-5.456121039E-01+
*       -4.164171394E-02               0
GRID*               1702               01.5202573517E+00-5.640638899E-01+
*       -6.271612171E-02               0
GRID*               1703               01.5125115547E+00-4.592552715E-01+
*       -6.376208899E-02               0
GRID*               1704               01.5125116481E+00-4.592549734E-01+
*       -2.209543917E-02               0
GRID*               1705               01.5235493929E+00-4.368159063E-01+
*       -2.087540267E-02               0
GRID*               1706               01.5235492994E+00-4.368162044E-01+
*       -6.254205249E-02               0
GRID*               1707               01.5061778562E+00-4.347447862E-01+
*       -4.297084184E-02               0
GRID*               1708               01.5127614800E+00-4.815245881E-01+
*       -2.059224172E-02               0
GRID*               1709               01.4266172944E+00-3.399053729E-01+
*       -6.076308542E-02               0
GRID*               1710               01.4266172944E+00-4.149053729E-01+
*       -6.076308542E-02               0
GRID*               1711               01.3534126938E+00-3.700770562E-01+
*       -6.391697058E-02               0
GRID*               1712               01.3812800406E+00-4.099824292E-01+
*       -1.246800560E-01               0
GRID*               1713               01.3534126938E+00-4.450770562E-01+
*       -6.391697058E-02               0
GRID*               1714               01.3047313494E+001.8377040650E-01+
*       1.4398816024E+00               0
GRID*               1715               01.3052506019E+001.8554104509E-01+
*       1.3591581434E+00               0
GRID*               1716               01.2742705030E+002.1948774307E-01+
*       1.3869796447E+00               0
GRID*               1717               01.3055663763E+002.1171967650E-01+
*       1.4426832419E+00               0
GRID*               1718               01.3365464753E+001.7777297852E-01+
*       1.4148617406E+00               0
GRID*               1719               01.3060856288E+002.1349031509E-01+
*       1.3619597829E+00               0
GRID*               1720               0-1.336555182E+006.7107598928E-01+
*       8.7819868534E-01               0
GRID*               1721               0-1.336555182E+005.9649826605E-01+
*       8.8370258572E-01               0
GRID*               1722               0-1.336555182E+006.1339940415E-01+
*       8.2477151780E-01               0
GRID*               1723               0-1.272449830E+006.3161345488E-01+
*       7.6319172213E-01               0
GRID*               1724               0-1.272755035E+005.5989532327E-01+
*       8.1823161545E-01               0
GRID*               1725               0-1.274055212E+006.7828186840E-01+
*       8.0503989331E-01               0
GRID*               1726               0-1.306090720E+007.1706036723E-01+
*       7.6097539738E-01               0
GRID*               1727               0-1.304790542E+005.9867382211E-01+
*       7.7416711952E-01               0
GRID*               1728               0-1.306395925E+006.4534223563E-01+
*       8.1601529069E-01               0
GRID*               1729               0-1.209949819E+005.6704013045E-01+
*       7.9397303688E-01               0
GRID*               1730               0-1.209949800E+004.9908965446E-01+
*       8.2358895565E-01               0
GRID*               1731               0-1.211555182E+005.4575806798E-01+
*       8.6543712683E-01               0
GRID*               1732               0-1.211555202E+006.1370854397E-01+
*       8.3582120805E-01               0
GRID*               1733               01.3367698515E+002.5413543397E-01+
*       1.3745828224E+00               0
GRID*               1734               01.2742687727E+002.8739984492E-01+
*       1.3588498255E+00               0
GRID*               1735               01.3677503235E+003.0342274168E-01+
*       1.3972805298E+00               0
GRID*               1736               01.3057702274E+002.7054568937E-01+
*       1.3289538931E+00               0
GRID*               1737               01.3052492447E+003.3668715263E-01+
*       1.3815475329E+00               0
GRID*               1738               01.2165218616E+008.9556301742E-02+
*       1.3049392831E+00               0
GRID*               1739               01.2795417656E+001.3338529857E-01+
*       1.3058359499E+00               0
GRID*               1740               01.2117698515E+001.7742938483E-01+
*       1.3053595188E+00               0
GRID*               1741               01.1804056727E+001.5370962585E-01+
*       1.3452109740E+00               0
GRID*               1742               01.2481775868E+001.0966553959E-01+
*       1.3456874051E+00               0
GRID*               1743               01.2434255767E+001.9753862268E-01+
*       1.3461076409E+00               0
GRID*               1744               01.3672306980E+001.4807069541E-01+
*       1.4488243487E+00               0
GRID*               1745               01.3680657248E+001.7601996541E-01+
*       1.4516259883E+00               0
GRID*               1746               01.3679088918E+00-5.679554939E-01+
*       1.1947667608E+00               0
GRID*               1747               01.3054074882E+00-5.459806283E-01+
*       1.2243888118E+00               0
GRID*               1748               01.3679088918E+00-5.213192759E-01+
*       1.2515927865E+00               0
GRID*               1749               0-1.325953971E+00-4.656078653E-01+
*       9.4368705035E-01               0
GRID*               1750               0-1.325953971E+00-5.306773623E-01+
*       9.2774015180E-01               0
GRID*               1751               0-1.325953971E+00-4.808060266E-01+
*       8.8786075888E-01               0
GRID*               1752               01.3296706183E+00-3.175075980E-01+
*       1.2332448014E+00               0
GRID*               1753               01.3296706183E+00-3.314179532E-01+
*       1.1649245462E+00               0
GRID*               1754               01.3296706183E+00-3.812934028E-01+
*       1.2051475577E+00               0
GRID*               1755               0-1.274055204E+006.6123196798E-01+
*       9.1682865479E-01               0
GRID*               1756               0-1.368412499E+006.9159430953E-01+
*       9.1832639670E-01               0
GRID*               1757               0-1.306217734E+006.2708205704E-01+
*       9.0020749798E-01               0
GRID*               1758               0-1.305912521E+006.8175028823E-01+
*       9.5695636614E-01               0
GRID*               1759               01.3681698953E+00-4.937344188E-01+
*       1.2769293202E+00               0
GRID*               1760               01.3056696259E+00-4.664565160E-01+
*       1.3016519215E+00               0
GRID*               1761               01.3681698953E+00-4.369081436E-01+
*       1.3235651996E+00               0
GRID*               1762               0-1.211555182E+006.7107598928E-01+
*       8.7819868534E-01               0
GRID*               1763               0-1.274054223E+006.7561861016E-01+
*       8.4965029887E-01               0
GRID*               1764               01.2146010121E+00-3.674862352E-01+
*       6.7400303409E-01               0
GRID*               1765               01.2795058927E+00-3.835216851E-01+
*       7.0253816637E-01               0
GRID*               1766               01.2136548551E+00-4.156847563E-01+
*       7.2122413172E-01               0
GRID*               1767               01.2124542261E+00-4.203617894E-01+
*       6.3172293455E-01               0
GRID*               1768               01.2783052638E+00-3.881987182E-01+
*       6.1303696920E-01               0
GRID*               1769               01.2773591068E+00-4.363972393E-01+
*       6.6025806683E-01               0
GRID*               1770               01.2098743379E+00-3.940556736E-01+
*       4.5494768240E-01               0
GRID*               1771               01.2098743519E+00-4.578511260E-01+
*       4.6488645917E-01               0
GRID*               1772               01.2098743521E+00-4.412357764E-01+
*       3.9981601214E-01               0
GRID*               1773               0-1.242087040E+007.1628383479E-01+
*       7.6550692366E-01               0
GRID*               1774               0-1.242392245E+006.4456570319E-01+
*       8.2054681698E-01               0
GRID*               1775               0-1.240786862E+005.9789728967E-01+
*       7.7869864580E-01               0
GRID*               1776               01.3215570512E+00-2.926422050E-01+
*       -5.829382038E-02               0
GRID*               1777               01.4198571956E+00-1.805921170E-01+
*       -6.128468496E-02               0
GRID*               1778               01.4198571956E+00-2.555921170E-01+
*       -6.128468496E-02               0
GRID*               1779               01.3426642993E+00-2.482343220E-01+
*       -1.195785053E-01               0
GRID*               1780               01.2169791575E+00-3.367009148E-01+
*       4.9530239761E-01               0
GRID*               1781               01.2806834129E+00-3.774536183E-01+
*       5.4344297052E-01               0
GRID*               1782               01.2124542225E+00-4.003215689E-01+
*       5.2261629674E-01               0
GRID*               1783               01.2781035282E+00-3.711877230E-01+
*       4.7577435618E-01               0
GRID*               1784               01.2735785932E+00-4.348083772E-01+
*       5.0308825531E-01               0
GRID*               1785               01.4952010554E+00-3.085034240E-01+
*       -6.076308542E-02               0
GRID*               1786               01.4796595996E+00-3.713113304E-01+
*       -6.076308542E-02               0
GRID*               1787               01.2836787810E+00-1.415152445E-02+
*       -3.549965597E-02               0
GRID*               1788               01.3470596896E+00-3.090103572E-02+
*       -6.570173966E-02               0
GRID*               1789               01.2903412464E+00-8.708913953E-02+
*       -3.134944820E-02               0
GRID*               1790               01.2069800127E+00-6.926622504E-02+
*       3.3121014782E-01               0
GRID*               1791               01.2597959123E+00-1.152297136E-01+
*       3.3611489102E-01               0
GRID*               1792               01.2015658660E+00-1.371332909E-01+
*       3.2223992520E-01               0
GRID*               1793               01.2070076736E+00-1.133531924E-01+
*       2.6734694587E-01               0
GRID*               1794               01.2652377199E+00-9.144961511E-02+
*       2.8122191169E-01               0
GRID*               1795               01.2598235733E+00-1.593166810E-01+
*       2.7225168907E-01               0
GRID*               1796               01.3847408608E+00-3.204975186E-01+
*       -1.857630854E-01               0
GRID*               1797               01.3494243981E+00-3.325475779E-01+
*       -1.190569058E-01               0
GRID*               1798               01.2796806176E+00-2.732343506E-01+
*       -1.832938204E-01               0
GRID*               1799               01.3115362602E+00-3.506692018E-01+
*       -1.889169706E-01               0
GRID*               1800               01.2762197974E+00-3.627192612E-01+
*       -1.222107910E-01               0
GRID*               1801               01.4554630160E+00-3.289082460E-01+
*       -1.857630854E-01               0
GRID*               1802               01.4487029173E+00-2.445949901E-01+
*       -1.862846850E-01               0
GRID*               1803               01.3779807620E+00-2.361842626E-01+
*       -1.862846850E-01               0
GRID*               1804               01.4477245425E+00-2.954974900E-01+
*       -1.220477704E-01               0
GRID*               1805               01.4884409566E+00-2.241901681E-01+
*       -6.128468496E-02               0
GRID*               1806               01.4842331998E+00-1.429334753E-01+
*       -6.128468496E-02               0
GRID*               1807               01.5661223163E+00-1.760390937E-01+
*       -6.508814605E-02               0
GRID*               1808               01.5703300731E+00-2.572957865E-01+
*       -6.508814605E-02               0
GRID*               1809               01.5228535602E+00-2.442898525E-01+
*       -1.263728310E-01               0
GRID*               1810               01.2092672808E+00-5.297465288E-01+
*       4.9411842390E-01               0
GRID*               1811               01.2092673012E+00-5.902202086E-01+
*       4.3454174741E-01               0
GRID*               1812               01.2092672810E+00-5.131311792E-01+
*       4.2904797688E-01               0
GRID*               1813               01.4900127308E+00-1.869785793E-01+
*       -1.862846850E-01               0
GRID*               1814               01.5133450964E+00-2.556258959E-01+
*       -1.862846850E-01               0
GRID*               1815               01.5719018473E+00-2.200841977E-01+
*       -1.900881460E-01               0
GRID*               1816               01.5952342129E+00-2.887315143E-01+
*       -1.900881460E-01               0
GRID*               1817               09.7786780910E-01-2.652278844E-01+
*       -7.101200175E-02               0
GRID*               1818               09.4490096149E-01-3.373335700E-01+
*       -7.101200175E-02               0
GRID*               1819               08.8332189700E-01-2.758122753E-01+
*       -6.255080129E-02               0
GRID*               1820               09.1628874462E-01-2.037065898E-01+
*       -6.255080129E-02               0
GRID*               1821               09.3303722004E-01-2.804822772E-01+
*       -1.335628030E-01               0
GRID*               1822               0-9.345938537E-01-4.007820584E-01+
*       -1.901092134E-01               0
GRID*               1823               0-8.953282607E-01-3.384282752E-01+
*       -1.901092134E-01               0
GRID*               1824               0-9.678428010E-01-3.348985942E-01+
*       -1.901092134E-01               0
GRID*               1825               01.2082790354E+001.6670333864E-01+
*       2.0679975043E-01               0
GRID*               1826               01.2831838892E+001.4363040450E-01+
*       2.3263434105E-01               0
GRID*               1827               01.2236548394E+001.3622434084E-01+
*       2.7460355562E-01               0
GRID*               1828               01.2081510771E+009.3155394629E-02+
*       2.2381265390E-01               0
GRID*               1829               01.2676801268E+001.0056145829E-01+
*       1.8184343933E-01               0
GRID*               1830               01.2830559309E+007.0082460489E-02+
*       2.4964724452E-01               0
GRID*               1831               01.3368062382E+00-1.906733817E-01+
*       4.3140955285E-01               0
GRID*               1832               01.2872931883E+00-1.514390627E-01+
*       4.5890240945E-01               0
GRID*               1833               01.3492368977E+00-1.350956029E-01+
*       4.0487746494E-01               0
GRID*               1834               01.3265658566E+00-1.787133507E-01+
*       3.5226463837E-01               0
GRID*               1835               01.2646221472E+00-1.950568105E-01+
*       4.0628958288E-01               0
GRID*               1836               01.2770528068E+00-1.394790317E-01+
*       3.7975749496E-01               0
GRID*               1837               09.5250225879E-01-3.583524814E-01+
*       -1.960120018E-01               0
GRID*               1838               09.8865884694E-01-2.939255826E-01+
*       -1.960120018E-01               0
GRID*               1839               08.9092319430E-01-2.968311868E-01+
*       -1.875508013E-01               0
GRID*               1840               09.2707978246E-01-2.324042880E-01+
*       -1.875508013E-01               0
GRID*               1841               08.6903243324E-01-3.775611892E-01+
*       -1.838266351E-01               0
GRID*               1842               09.1114645897E-01-3.612122797E-01+
*       -1.298386368E-01               0
GRID*               1843               08.4956739449E-01-2.996909850E-01+
*       -1.213774364E-01               0
GRID*               1844               03.7955663762E-02-6.878893162E-01+
*       -1.250039917E-01               0
GRID*               1845               0-1.366614624E-04-6.258166141E-01+
*       -1.250163106E-01               0
GRID*               1846               0-3.809198127E-02-6.879272979E-01+
*       -1.250216932E-01               0
GRID*               1847               0-3.092696929E-05-7.186901540E-01+
*       -9.375371575E-02               0
GRID*               1848               03.7924392841E-02-6.565794701E-01+
*       -9.374833317E-02               0
GRID*               1849               0-3.812325219E-02-6.566174519E-01+
*       -9.376603460E-02               0
GRID*               1850               0-1.903238812E-01-6.882088362E-01+
*       -1.250306136E-01               0
GRID*               1851               0-1.521511793E-01-6.261361341E-01+
*       -1.250432907E-01               0
GRID*               1852               0-1.143570085E-01-6.879272979E-01+
*       -1.250213349E-01               0
GRID*               1853               0-1.523646036E-01-7.187209908E-01+
*       -1.562601214E-01               0
GRID*               1854               0-1.901587744E-01-6.569298269E-01+
*       -1.562820773E-01               0
GRID*               1855               0-1.141919016E-01-6.566482887E-01+
*       -1.562727985E-01               0
GRID*               1856               0-7.638382214E-02-6.879272979E-01+
*       -6.251700600E-02               0
GRID*               1857               0-1.147128966E-01-6.253058474E-01+
*       -6.251700600E-02               0
GRID*               1858               0-3.815318348E-02-6.252869358E-01+
*       -6.251700600E-02               0
GRID*               1859               0-7.606715220E-02-6.879272979E-01+
*       -1.875170060E-01               0
GRID*               1860               0-3.798593805E-02-7.187166744E-01+
*       -2.187540988E-01               0
GRID*               1861               0-3.810309235E-02-6.566439724E-01+
*       -1.562711048E-01               0
GRID*               1862               0-1.076712540E-05-7.187166744E-01+
*       -1.562587859E-01               0
GRID*               1863               01.0222787216E+00-7.054691376E-01+
*       -3.346805732E-02               0
GRID*               1864               09.8198157608E-01-7.054691376E-01+
*       -9.611218207E-02               0
GRID*               1865               0-3.832276784E-02-7.186901540E-01+
*       -3.124902860E-02               0
GRID*               1866               0-3.417483700E-01-3.745738615E-01+
*       -1.874953091E-01               0
GRID*               1867               0-3.794858766E-01-3.119972808E-01+
*       -1.874953091E-01               0
GRID*               1868               0-4.171300187E-01-3.742921999E-01+
*       -1.874953091E-01               0
GRID*               1869               0-6.395785460E-01-1.074272852E-01+
*       -6.972879508E-02               0
GRID*               1870               0-6.790352318E-01-1.677241510E-01+
*       -6.972879508E-02               0
GRID*               1871               0-7.100897524E-01-1.027309643E-01+
*       -6.972879508E-02               0
GRID*               1872               0-5.696929835E-013.9270715552E-03+
*       -1.868135437E-01               0
GRID*               1873               0-6.438180170E-014.6708095695E-03+
*       -1.868135437E-01               0
GRID*               1874               0-6.064742699E-01-5.793979169E-02+
*       -1.868135437E-01               0
GRID*               1875               0-8.674020819E-013.7071631925E-01+
*       -1.736631963E-01               0
GRID*               1876               0-9.159575461E-013.4166554900E-01+
*       -1.169939255E-01               0
GRID*               1877               0-9.589632739E-013.4566594691E-01+
*       -1.933307292E-01               0
GRID*               1878               0-8.953328263E-012.8042749510E-01+
*       -1.794334974E-01               0
GRID*               1879               0-8.523270986E-012.7642709719E-01+
*       -1.030966937E-01               0
GRID*               1880               0-9.438882906E-012.5137672485E-01+
*       -1.227642267E-01               0
GRID*               1881               0-1.023534427E+004.6740329773E-01+
*       -6.484310436E-02               0
GRID*               1882               0-9.907221331E-014.6442701379E-01+
*       -1.251455642E-01               0
GRID*               1883               0-9.410256516E-014.5330249233E-01+
*       -6.030245989E-02               0
GRID*               1884               0-9.906783420E-013.8644697647E-01+
*       -6.833072924E-02               0
GRID*               1885               0-1.040374823E+003.9757149792E-01+
*       -1.331738336E-01               0
GRID*               1886               0-9.578660477E-013.8347069253E-01+
*       -1.286331891E-01               0
GRID*               1887               0-9.093105835E-014.1252146278E-01+
*       -1.853024599E-01               0
GRID*               1888               0-9.482862988E-014.7570780901E-01+
*       -1.853024599E-01               0
GRID*               1889               0-9.979389892E-014.0885229314E-01+
*       -1.933307292E-01               0
GRID*               1890               01.2950882000E+001.7603929639E-02+
*       -2.024114176E-01               0
GRID*               1891               01.3317499451E+007.4565188005E-02+
*       -2.024114176E-01               0
GRID*               1892               01.2676028035E+007.7863549413E-02+
*       -2.024114176E-01               0
GRID*               1893               01.3491253432E+00-1.056039993E-01+
*       -1.907017397E-01               0
GRID*               1894               01.3222300594E+00-4.280974058E-02+
*       -1.907017397E-01               0
GRID*               1895               01.2810775953E+00-9.468731958E-02+
*       -1.907017397E-01               0
GRID*               1896               0-1.738140760E+003.3587867169E-01+
*       -1.499927514E-01               0
GRID*               1897               0-1.781004050E+003.2910324661E-01+
*       -1.402193976E-01               0
GRID*               1898               0-1.765104576E+003.9211268236E-01+
*       -1.568943865E-01               0
GRID*               1899               0-1.740564780E+003.8904080782E-01+
*       -1.871887765E-01               0
GRID*               1900               0-1.756464254E+003.2603137207E-01+
*       -1.705137876E-01               0
GRID*               1901               0-1.783428070E+003.8226538273E-01+
*       -1.774154227E-01               0
GRID*               1902               01.2086423576E+001.8715715149E-01+
*       1.8155931872E-02               0
GRID*               1903               01.2548101807E+001.4166978599E-01+
*       -5.925548568E-02               0
GRID*               1904               01.1949178898E+001.0451263450E-01+
*       -7.741141755E-02               0
GRID*               1905               01.1770601453E+001.6642595246E-01+
*       -8.227296615E-02               0
GRID*               1906               01.2369524361E+002.0358310395E-01+
*       -6.411703427E-02               0
GRID*               1907               01.2232279684E+001.2093858696E-01+
*       -1.596843837E-01               0
GRID*               1908               0-1.110990488E+003.8926390959E-01+
*       -6.484310436E-02               0
GRID*               1909               0-1.078134402E+003.0830758833E-01+
*       -6.833072924E-02               0
GRID*               1910               0-1.128344305E+003.1793723084E-01+
*       -6.344291645E-02               0
GRID*               1911               0-1.090584726E+004.0720114043E-01+
*       -1.282860208E-01               0
GRID*               1912               0-1.057728641E+003.2624481917E-01+
*       -1.317736457E-01               0
GRID*               1913               01.5458390641E+007.1941428066E-01+
*       -2.206718664E-01               0
GRID*               1914               01.4926787554E+006.5713833762E-01+
*       -2.206718664E-01               0
GRID*               1915               01.5409281428E+006.8220096873E-01+
*       -2.206718664E-01               0
GRID*               1916               0-1.044566715E+002.1714802680E-01+
*       -1.354599325E-01               0
GRID*               1917               0-1.115182379E+002.0884043847E-01+
*       -6.712920328E-02               0
GRID*               1918               0-1.147271965E+002.8254093409E-01+
*       -6.275186574E-02               0
GRID*               1919               0-1.076656301E+002.9084852242E-01+
*       -1.310825950E-01               0
GRID*               1920               0-1.113704278E+001.9138137256E-01+
*       -1.298810690E-01               0
GRID*               1921               0-1.030795075E+004.8980861440E-01+
*       -1.898431044E-01               0
GRID*               1922               0-1.069774125E+004.2644340525E-01+
*       -1.898431044E-01               0
GRID*               1923               0-1.036918040E+003.4548708400E-01+
*       -1.933307292E-01               0
GRID*               1924               0-1.346374055E+00-1.344612858E-01+
*       1.4080074253E+00               0
GRID*               1925               0-1.283874709E+00-9.806085951E-02+
*       1.4134069707E+00               0
GRID*               1926               0-1.283874707E+00-1.701609969E-01+
*       1.3990646790E+00               0
GRID*               1927               07.6247160678E-02-6.878893162E-01+
*       -6.249930457E-02               0
GRID*               1928               03.8260569946E-02-7.186901540E-01+
*       -3.124902860E-02               0
GRID*               1929               07.5930490737E-02-6.878893162E-01+
*       -1.874993046E-01               0
GRID*               1930               01.1422365542E-01-6.878893162E-01+
*       -1.250039810E-01               0
GRID*               1931               07.6090923653E-02-5.625671411E-01+
*       -6.249930457E-02               0
GRID*               1932               03.7995388645E-02-5.626520212E-01+
*       -1.250876706E-01               0
GRID*               1933               03.8175328726E-02-4.994405300E-01+
*       -6.258836599E-02               0
GRID*               1934               01.1417304606E-01-4.994771908E-01+
*       -6.248858164E-02               0
GRID*               1935               01.1399310598E-01-5.626886820E-01+
*       -1.249878862E-01               0
GRID*               1936               07.6077511056E-02-4.995620709E-01+
*       -1.250769476E-01               0
GRID*               1937               03.7962397867E-02-4.996162127E-01+
*       -1.875883660E-01               0
GRID*               1938               07.5877992794E-02-5.627428238E-01+
*       -1.874993046E-01               0
GRID*               1939               01.1396011520E-01-4.996528734E-01+
*       -1.874885816E-01               0
GRID*               1940               03.7964059849E-02-7.187166744E-01+
*       -2.187540988E-01               0
GRID*               1941               03.7944552684E-02-6.566059906E-01+
*       -1.562534033E-01               0
GRID*               1942               02.4225426762E-05-5.621817653E-01+
*       -1.875883660E-01               0
GRID*               1943               03.7939820354E-02-6.253083764E-01+
*       -1.874993046E-01               0
GRID*               1944               0-9.924668614E-015.5193329870E-01+
*       -1.898431044E-01               0
GRID*               1945               0-9.099580857E-015.3783249331E-01+
*       -1.853024599E-01               0
GRID*               1946               01.6944282750E+00-7.340726924E-01+
*       -2.196262245E-01               0
GRID*               1947               01.6184782771E+00-7.340726924E-01+
*       -2.196262245E-01               0
GRID*               1948               01.6499321738E+00-7.340726924E-01+
*       -1.571851438E-01               0
GRID*               1949               0-1.107462108E+004.9178906014E-01+
*       -1.898431044E-01               0
GRID*               1950               0-1.074850620E+005.6464970838E-01+
*       -1.169210060E-01               0
GRID*               1951               0-1.109081819E+005.7791094934E-01+
*       -1.770779016E-01               0
GRID*               1952               0-1.178109529E+004.9527194804E-01+
*       -1.996785669E-01               0
GRID*               1953               0-1.145498041E+005.6813259628E-01+
*       -1.267564686E-01               0
GRID*               1954               0-1.112610199E+007.0038579879E-01+
*       -5.207790163E-02               0
GRID*               1955               0-1.112610199E+006.2538579879E-01+
*       -5.207790163E-02               0
GRID*               1956               0-1.165164300E+006.3802780737E-01+
*       -3.375935772E-02               0
GRID*               1957               0-1.165164300E+007.1302780737E-01+
*       -3.375935772E-02               0
GRID*               1958               0-1.129024432E+006.6341360616E-01+
*       -8.583725935E-02               0
GRID*               1959               0-1.107860150E+007.0038579879E-01+
*       -1.770779016E-01               0
GRID*               1960               0-1.070836607E+007.0038579879E-01+
*       -1.150516699E-01               0
GRID*               1961               0-1.144603054E+007.0038579879E-01+
*       -1.185421860E-01               0
GRID*               1962               0-1.509858024E+006.2371895129E-01+
*       -1.484813285E-01               0
GRID*               1963               0-1.551542395E+006.0482541624E-01+
*       -1.869236383E-01               0
GRID*               1964               0-1.554107801E+006.3244225380E-01+
*       -1.919881667E-01               0
GRID*               1965               0-1.486151166E+006.2743735076E-01+
*       -1.687383271E-01               0
GRID*               1966               0-1.145341692E+006.4010196343E-01+
*       -1.770779016E-01               0
GRID*               1967               0-1.175829558E+007.2000020103E-01+
*       -2.206893797E-01               0
GRID*               1968               0-1.213311100E+006.5971636567E-01+
*       -2.206893797E-01               0
GRID*               1969               0-1.144439739E+006.7038599982E-01+
*       -1.477672813E-01               0
GRID*               1970               0-1.184164280E+006.2551576752E-01+
*       -1.291392385E-01               0
GRID*               1971               0-1.220304148E+006.0012996873E-01+
*       -7.706133686E-02               0
GRID*               1972               0-1.236718382E+006.3815777610E-01+
*       -1.108206946E-01               0
GRID*               1973               01.2195402116E+00-4.778853398E-01+
*       1.2138202993E+00               0
GRID*               1974               01.2195402116E+00-4.072600217E-01+
*       1.1677827917E+00               0
GRID*               1975               01.1796167403E+00-4.806221480E-01+
*       1.2686860265E+00               0
GRID*               1976               01.2504070043E+00-4.281777759E-01+
*       1.2021766288E+00               0
GRID*               1977               01.1796167403E+00-4.099968300E-01+
*       1.2226485189E+00               0
GRID*               1978               0-1.785355745E+005.1993391685E-01+
*       -2.289925501E-01               0
GRID*               1979               0-1.785355644E+005.1993421947E-01+
*       -1.873259006E-01               0
GRID*               1980               0-1.778193017E+005.6536524575E-01+
*       -2.287030653E-01               0
GRID*               1981               0-1.795932008E+005.4662517339E-01+
*       -2.076956154E-01               0
GRID*               1982               0-1.778192917E+005.6536554837E-01+
*       -1.870364158E-01               0
GRID*               1983               01.3054086223E+00-4.940413731E-01+
*       1.2763153878E+00               0
GRID*               1984               01.1808286927E+00-5.213114637E-01+
*       1.1692625587E+00               0
GRID*               1985               01.1808286927E+00-5.826276154E-01+
*       1.1764338053E+00               0
GRID*               1986               01.1798033854E+00-6.015598983E-01+
*       1.1469178818E+00               0
GRID*               1987               01.1798033854E+00-5.402437466E-01+
*       1.1397466352E+00               0
GRID*               1988               01.2118821306E+00-5.605853658E-01+
*       1.1566740413E+00               0
GRID*               1989               01.3570096491E+00-3.418750132E-01+
*       1.0879816760E+00               0
GRID*               1990               01.3570096491E+00-3.510620402E-01+
*       1.0298025924E+00               0
GRID*               1991               01.3445402116E+00-3.948905704E-01+
*       1.0861162267E+00               0
GRID*               1992               01.3445402116E+00-3.857035434E-01+
*       1.1442953104E+00               0
GRID*               1993               01.3027999131E+00-3.816124375E-01+
*       1.0909972673E+00               0
GRID*               1994               0-1.068581398E+005.5263650899E-01+
*       -1.898431044E-01               0
GRID*               1995               0-1.070201109E+006.3875839819E-01+
*       -1.770779016E-01               0
GRID*               1996               0-1.614565006E+006.4067034595E-01+
*       -2.133978482E-01               0
GRID*               1997               0-8.114784113E-01-4.852665974E-01+
*       -6.405166359E-02               0
GRID*               1998               0-7.731045052E-01-5.504027009E-01+
*       -6.405166359E-02               0
GRID*               1999               0-8.244833570E-01-6.172052398E-01+
*       -7.477558168E-02               0
GRID*               2000               0-8.628572630E-01-5.520691364E-01+
*       -7.477558168E-02               0
GRID*               2001               0-8.300568750E-01-5.448813349E-01+
*       -1.388272453E-01               0
GRID*               2002               01.3379316352E+00-5.898844995E-01+
*       7.6168808369E-01               0
GRID*               2003               01.3379316352E+00-5.293625617E-01+
*       7.1517996224E-01               0
GRID*               2004               01.3379316352E+00-5.966036763E-01+
*       6.9067801203E-01               0
GRID*               2005               0-8.584428519E-01-6.808419369E-01+
*       -1.997755817E-01               0
GRID*               2006               0-8.220239146E-01-6.808419369E-01+
*       -1.373020865E-01               0
GRID*               2007               0-7.979495821E-01-7.181890442E-01+
*       -2.190628516E-01               0
GRID*               2008               0-8.209424570E-01-6.490309811E-01+
*       -1.688384332E-01               0
GRID*               2009               0-7.615306448E-01-7.181890442E-01+
*       -1.565893564E-01               0
GRID*               2010               0-7.835600628E-01-6.175368924E-01+
*       -1.369043317E-01               0
GRID*               2011               0-7.241482506E-01-6.866949555E-01+
*       -1.246552548E-01               0
GRID*               2012               0-7.230667930E-01-6.548839998E-01+
*       -1.561916016E-01               0
GRID*               2013               0-7.209480747E-01-6.231203371E-01+
*       -1.871287500E-01               0
GRID*               2014               0-7.321812110E-01-5.507343535E-01+
*       -1.261804136E-01               0
GRID*               2015               0-7.674448869E-01-5.504647795E-01+
*       -1.890516636E-01               0
GRID*               2016               0-8.188237386E-01-6.172673184E-01+
*       -1.997755817E-01               0
GRID*               2017               0-8.030310520E-01-4.863044020E-01+
*       -1.890516636E-01               0
GRID*               2018               0-8.544099038E-01-5.531069409E-01+
*       -1.997755817E-01               0
GRID*               2019               01.2546236051E+00-3.916290955E-02+
*       1.0532123910E+00               0
GRID*               2020               01.2450947162E+005.3019786779E-02+
*       1.0571851467E+00               0
GRID*               2021               01.2123807801E+009.8613533801E-03+
*       1.0170286305E+00               0
GRID*               2022               01.2349191373E+00-4.799216614E-02+
*       1.0709432300E+00               0
GRID*               2023               01.2253902483E+004.4190530182E-02+
*       1.0749159857E+00               0
GRID*               2024               01.3386548416E+00-5.182116102E-01+
*       7.7415961312E-01               0
GRID*               2025               01.3386548416E+00-4.433144020E-01+
*       7.9915295125E-01               0
GRID*               2026               01.3386548416E+00-4.576896725E-01+
*       7.2765149167E-01               0
GRID*               2027               01.2034270660E+004.7328102019E-02+
*       1.1826655964E+00               0
GRID*               2028               01.2165218616E+002.6409727966E-02+
*       1.2778372026E+00               0
GRID*               2029               01.2711989800E+006.6430589528E-02+
*       1.2102441080E+00               0
GRID*               2030               01.2165218616E+007.8198989380E-02+
*       1.2414873788E+00               0
GRID*               2031               01.2867616958E+005.3021135820E-02+
*       1.0571849692E+00               0
GRID*               2032               01.2962905848E+00-3.916156051E-02+
*       1.0532122136E+00               0
GRID*               2033               01.3350767456E+007.5242634704E-03+
*       1.0223762196E+00               0
GRID*               2034               01.3064192342E+004.1852091231E-02+
*       1.0802637522E+00               0
GRID*               2035               01.3159481231E+00-5.033060509E-02+
*       1.0762909965E+00               0
GRID*               2036               01.3284270660E+001.2477261525E-01+
*       1.0801011108E+00               0
GRID*               2037               01.3284270660E+001.1342182081E-01+
*       1.1296581434E+00               0
GRID*               2038               01.3378410268E+001.7236577270E-01+
*       1.1112904148E+00               0
GRID*               2039               01.2675181453E+001.3494212103E-01+
*       1.1462618057E+00               0
GRID*               2040               01.3378410268E+001.6101497826E-01+
*       1.1608474474E+00               0
GRID*               2041               01.3284270660E+006.4234228991E-02+
*       1.1612586859E+00               0
GRID*               2042               01.2708807737E+006.9823704261E-01+
*       7.8430071181E-01               0
GRID*               2043               01.3010916930E+006.6720711979E-01+
*       7.7641106165E-01               0
GRID*               2044               01.3039628392E+007.1364356071E-01+
*       8.3133116096E-01               0
GRID*               2045               01.2362435795E+007.2151447135E-01+
*       8.1625406253E-01               0
GRID*               2046               01.2333724333E+006.7507803044E-01+
*       7.6133396321E-01               0
GRID*               2047               01.2664544989E+006.9048454854E-01+
*       8.0836441236E-01               0
GRID*               2048               01.2069267531E+005.9619834472E-01+
*       8.8257044810E-01               0
GRID*               2049               01.2069267792E+005.6071700545E-01+
*       8.3464356164E-01               0
GRID*               2050               01.2069267907E+006.1309948281E-01+
*       8.2363938018E-01               0
GRID*               2051               01.2708798173E+007.0090030085E-01+
*       7.3969030625E-01               0
GRID*               2052               01.2708760231E+007.0090030085E-01+
*       6.9399100334E-01               0
GRID*               2053               01.3333797875E+007.0090030085E-01+
*       7.3969030625E-01               0
GRID*               2054               06.8775780633E-016.8757373345E-01+
*       -5.838036225E-02               0
GRID*               2055               06.4933746716E-016.2519334992E-01+
*       -5.838036225E-02               0
GRID*               2056               06.5027123627E-017.1882365780E-01+
*       -3.118496773E-02               0
GRID*               2057               06.4877900255E-016.5639739125E-01+
*       -8.956532997E-02               0
GRID*               2058               06.1185089710E-016.5644327427E-01+
*       -3.118496773E-02               0
GRID*               2059               01.3378410268E+001.1182738644E-01+
*       1.1924479898E+00               0
GRID*               2060               08.0715958718E-016.2110121409E-01+
*       -1.856403628E-01               0
GRID*               2061               08.4678974351E-016.8467972098E-01+
*       -1.856403628E-01               0
GRID*               2062               07.9772031824E-017.1816554297E-01+
*       -2.186561727E-01               0
GRID*               2063               07.5809016190E-016.5458703609E-01+
*       -2.186561727E-01               0
GRID*               2064               08.0906008483E-016.5284526395E-01+
*       -1.542965354E-01               0
GRID*               2065               01.1071529792E+004.0319017174E-01+
*       -1.851398466E-01               0
GRID*               2066               01.1617340141E+003.7862742861E-01+
*       -1.270474697E-01               0
GRID*               2067               01.1801001659E+004.5876006979E-01+
*       -1.919076231E-01               0
GRID*               2068               01.1080376178E+005.1835901325E-01+
*       -1.888571625E-01               0
GRID*               2069               01.0896714660E+004.3822637207E-01+
*       -1.239970091E-01               0
GRID*               2070               01.1626186527E+004.9379627012E-01+
*       -1.307647857E-01               0
GRID*               2071               01.1187684470E+003.8652876528E-01+
*       -6.013984656E-02               0
GRID*               2072               01.0666175298E+003.4400155957E-01+
*       -6.013984656E-02               0
GRID*               2073               01.1196530857E+005.0169760679E-01+
*       -6.385716253E-02               0
GRID*               2074               01.0675021684E+004.5917040108E-01+
*       -6.385716253E-02               0
GRID*               2075               0-1.759222898E+00-6.502563584E-01+
*       -1.768580110E-01               0
GRID*               2076               0-1.774247595E+00-7.037410433E-01+
*       -1.878382382E-01               0
GRID*               2077               0-1.737265986E+00-6.545965754E-01+
*       -1.776479676E-01               0
GRID*               2078               0-1.741529586E+00-6.380267731E-01+
*       -1.561701790E-01               0
GRID*               2079               0-1.778511196E+00-6.871712411E-01+
*       -1.663604497E-01               0
GRID*               2080               0-1.756554284E+00-6.915114580E-01+
*       -1.671504062E-01               0
GRID*               2081               01.0321477685E+004.0667060507E-01+
*       -1.851398466E-01               0
GRID*               2082               01.0330324072E+005.2183944658E-01+
*       -1.888571625E-01               0
GRID*               2083               09.9319977454E-014.5842365314E-01+
*       -1.869738909E-01               0
GRID*               2084               01.0498388333E+003.7481057863E-01+
*       -1.221137375E-01               0
GRID*               2085               01.0507234720E+004.8997942013E-01+
*       -1.258310535E-01               0
GRID*               2086               0-1.267863608E+005.4630621394E-02+
*       1.4023810610E+00               0
GRID*               2087               0-1.267863610E+001.2673075878E-01+
*       1.3880387692E+00               0
GRID*               2088               0-1.241658751E+001.4789321535E-01+
*       1.4478136760E+00               0
GRID*               2089               0-1.241658750E+007.5793077965E-02+
*       1.4621559677E+00               0
GRID*               2090               0-1.235773717E+005.6906869637E-02+
*       1.3681493415E+00               0
GRID*               2091               08.5117245773E-015.5593799970E-01+
*       -6.064036279E-02               0
GRID*               2092               08.9411626235E-016.1778899208E-01+
*       -6.064036279E-02               0
GRID*               2093               09.3119782881E-015.4970449427E-01+
*       -6.064036279E-02               0
GRID*               2094               01.1023988111E+00-7.198861098E-01+
*       -2.179214298E-01               0
GRID*               2095               01.1384211969E+00-7.198861098E-01+
*       -1.590000352E-01               0
GRID*               2096               01.0988620594E+00-7.054691376E-01+
*       -3.346805732E-02               0
GRID*               2097               01.1290723761E+00-7.118088180E-01+
*       -3.204888432E-02               0
GRID*               2098               01.0716414234E+00-6.212521047E-01+
*       -3.204888432E-02               0
GRID*               2099               01.1680485148E+00-6.533462482E-01+
*       -1.306652687E-01               0
GRID*               2100               0-1.212539020E+00-6.739038728E-01+
*       3.0288605062E-01               0
GRID*               2101               0-1.212539008E+00-6.098051505E-01+
*       2.6985632464E-01               0
GRID*               2102               0-1.179495822E+00-7.166653946E-01+
*       2.6407770857E-01               0
GRID*               2103               0-1.243284776E+00-6.405692674E-01+
*       2.6696375919E-01               0
GRID*               2104               0-1.179495810E+00-6.525666723E-01+
*       2.3104798260E-01               0
GRID*               2105               01.2224754301E+005.2490309944E-01+
*       -1.919076231E-01               0
GRID*               2106               01.1504128820E+005.8450204289E-01+
*       -1.888571625E-01               0
GRID*               2107               01.1917156338E+005.1709866333E-01+
*       -6.690762315E-02               0
GRID*               2108               01.1196530857E+005.7669760679E-01+
*       -6.385716253E-02               0
GRID*               2109               01.3367698515E+002.3912248882E-01+
*       1.2270268269E+00               0
GRID*               2110               01.3367698515E+001.9426365661E-01+
*       1.2804627430E+00               0
GRID*               2111               01.3367698515E+002.5340146534E-01+
*       1.3037877363E+00               0
GRID*               2112               09.8061958890E-014.8798268292E-01+
*       -1.863779263E-01               0
GRID*               2113               09.9831065371E-014.5612265648E-01+
*       -1.233518172E-01               0
GRID*               2114               01.0381432863E+005.1953844991E-01+
*       -1.252350888E-01               0
GRID*               2115               0-7.581882731E-01-3.333058343E-02+
*       -1.871865334E-01               0
GRID*               2116               0-7.950273260E-012.8782082877E-02+
*       -1.871865334E-01               0
GRID*               2117               0-7.832366974E-01-1.203107068E-01+
*       -1.875558066E-01               0
GRID*               2118               0-7.918736345E-01-3.305684592E-02+
*       -1.247423399E-01               0
GRID*               2119               0-8.200757502E-01-5.819804051E-02+
*       -1.875558066E-01               0
GRID*               2120               0-8.332027198E-018.9486314297E-02+
*       -1.871865334E-01               0
GRID*               2121               0-8.745425313E-012.0860520973E-02+
*       -1.977891249E-01               0
GRID*               2122               0-8.463404155E-014.6001715560E-02+
*       -1.349756583E-01               0
GRID*               2123               0-9.127179251E-018.1564752393E-02+
*       -1.977891249E-01               0
GRID*               2124               0-8.172562160E-016.5416665650E-02+
*       -6.218653339E-02               0
GRID*               2125               0-7.737005135E-012.4465167083E-02+
*       -6.218653339E-02               0
GRID*               2126               0-8.967714213E-015.7495103746E-02+
*       -7.278912492E-02               0
GRID*               2127               0-8.532157188E-011.6543605179E-02+
*       -7.278912492E-02               0
GRID*               2128               0-1.169183180E+002.0335038376E-01+
*       9.1708817692E-01               0
GRID*               2129               0-1.210850830E+002.2869150770E-01+
*       8.8977811563E-01               0
GRID*               2130               0-1.164488831E+001.8265642479E-01+
*       9.4428062772E-01               0
GRID*               2131               0-1.184922063E+002.3013614773E-01+
*       9.1591324600E-01               0
GRID*               2132               0-1.206156481E+002.0799754872E-01+
*       9.1697056643E-01               0
GRID*               2133               0-1.163534400E+001.5658351891E-01+
*       9.6319879164E-01               0
GRID*               2134               0-1.163534400E+001.2431526098E-01+
*       9.8182888365E-01               0
GRID*               2135               0-1.163534400E+001.5974632196E-01+
*       1.0130358723E+00               0
GRID*               2136               0-1.206871554E+001.5601328910E-01+
*       1.0071666616E+00               0
GRID*               2137               0-1.248536507E+001.8828746438E-01+
*       9.8853199603E-01               0
GRID*               2138               0-1.248536177E+001.5602146052E-01+
*       1.0071632487E+00               0
GRID*               2139               0-8.713888398E-01-4.097840783E-02+
*       -1.353449315E-01               0
GRID*               2140               0-1.326359736E+00-4.389523540E-01+
*       3.9445261193E-01               0
GRID*               2141               0-1.264663565E+00-5.068413736E-01+
*       4.6523166429E-01               0
GRID*               2142               0-1.337053776E+00-5.218180904E-01+
*       4.3499143567E-01               0
GRID*               2143               0-1.337538961E+00-5.258684082E-01+
*       3.3499224228E-01               0
GRID*               2144               0-1.265148749E+00-5.108916914E-01+
*       3.6523247089E-01               0
GRID*               2145               0-1.275842790E+00-5.937574278E-01+
*       4.0577129463E-01               0
GRID*               2146               0-1.212053824E+00-6.078562621E-01+
*       4.3992686398E-01               0
GRID*               2147               0-1.212539008E+00-6.119065799E-01+
*       3.3992767059E-01               0
GRID*               2148               0-1.179543642E+00-6.556595521E-01+
*       3.7551169526E-01               0
GRID*               2149               0-1.242847423E+00-6.375104000E-01+
*       4.4135531931E-01               0
GRID*               2150               0-1.243332608E+00-6.415607178E-01+
*       3.4135612591E-01               0
GRID*               2151               0-1.305350724E+004.4861604769E-01+
*       1.3078677385E+00               0
GRID*               2152               0-1.367850994E+004.7589395046E-01+
*       1.2831451372E+00               0
GRID*               2153               0-1.367103572E+004.9824448185E-01+
*       1.2574972638E+00               0
GRID*               2154               0-1.304603302E+004.7096657908E-01+
*       1.2822198651E+00               0
GRID*               2155               0-1.336204618E+004.4380872045E-01+
*       1.2603127038E+00               0
GRID*               2156               0-1.367707756E+003.8681005872E-01+
*       1.3493485227E+00               0
GRID*               2157               0-1.305208835E+003.5524003354E-01+
*       1.3682706489E+00               0
GRID*               2158               0-1.367099752E+003.6229482252E-01+
*       1.3752176185E+00               0
GRID*               2159               0-1.336057561E+003.3242771975E-01+
*       1.3509646852E+00               0
GRID*               2160               0-1.304600831E+003.3072479734E-01+
*       1.3941397447E+00               0
GRID*               2161               0-1.850993038E+00-5.499029552E-01+
*       -2.133241979E-02               0
GRID*               2162               0-1.843665537E+00-5.953175796E-01+
*       -2.096516754E-02               0
GRID*               2163               0-1.865532452E+00-5.844895220E-01+
*       -2.212738915E-02               0
GRID*               2164               0-1.817775542E+00-5.343924771E-01+
*       -4.345980895E-02               0
GRID*               2165               0-1.810448042E+00-5.798071016E-01+
*       -4.309255669E-02               0
GRID*               2166               0-1.337053776E+00-6.698535550E-01+
*       4.7788524401E-01               0
GRID*               2167               0-1.337053776E+00-5.989071198E-01+
*       4.4048520620E-01               0
GRID*               2168               0-1.337053776E+00-6.042669454E-01+
*       5.2176353827E-01               0
GRID*               2169               0-1.212053803E+00-5.477296885E-01+
*       4.7218662689E-01               0
GRID*               2170               0-1.212538988E+00-5.517800063E-01+
*       3.7218743350E-01               0
GRID*               2171               0-1.254081898E+00-3.029704911E-01+
*       -1.975897735E-01               0
GRID*               2172               0-1.285661917E+00-3.225433589E-01+
*       -1.408250800E-01               0
GRID*               2173               0-1.216366244E+00-3.661998555E-01+
*       -1.932353065E-01               0
GRID*               2174               0-1.190112583E+00-2.662772214E-01+
*       -1.880429825E-01               0
GRID*               2175               0-1.259408256E+00-2.226207249E-01+
*       -1.356327561E-01               0
GRID*               2176               0-1.221692602E+00-2.858500892E-01+
*       -1.312782890E-01               0
GRID*               2177               0-1.872515673E+007.2546046867E-01+
*       -1.239800839E-01               0
GRID*               2178               0-1.824115359E+007.2546046867E-01+
*       -1.240658534E-01               0
GRID*               2179               0-1.872515673E+007.2546046867E-01+
*       -6.148008394E-02               0
GRID*               2180               0-1.280658965E+00-2.384776738E-01+
*       -1.975897735E-01               0
GRID*               2181               0-1.216689650E+00-2.017844041E-01+
*       -1.880429825E-01               0
GRID*               2182               0-1.308854712E+00-1.581105279E-01+
*       -1.990041150E-01               0
GRID*               2183               0-1.351573319E+00-1.789468487E-01+
*       -1.465938885E-01               0
GRID*               2184               0-1.287604004E+00-1.422535790E-01+
*       -1.370470975E-01               0
GRID*               2185               0-1.800461739E+005.3564570813E-01+
*       -9.291320965E-02               0
GRID*               2186               0-1.816590352E+005.3537108346E-01+
*       -7.239473617E-02               0
GRID*               2187               0-1.783745567E+005.3839876731E-01+
*       -6.281482616E-02               0
GRID*               2188               0-1.778550811E+005.6092900184E-01+
*       -6.406382100E-02               0
GRID*               2189               0-1.811395596E+005.5790131799E-01+
*       -7.364373102E-02               0
GRID*               2190               0-1.794679424E+005.6065437717E-01+
*       -4.354534753E-02               0
GRID*               2191               01.3666493405E+005.2957895779E-01+
*       1.2363039020E+00               0
GRID*               2192               01.3041496113E+005.0231217001E-01+
*       1.2610173812E+00               0
GRID*               2193               01.3041507336E+005.5429537252E-01+
*       1.2090328485E+00               0
GRID*               2194               01.3356957196E+005.6884598869E-01+
*       1.1237338945E+00               0
GRID*               2195               01.2731971127E+005.4692618543E-01+
*       1.1532888667E+00               0
GRID*               2196               01.2731942855E+005.8776286260E-01+
*       1.0921725594E+00               0
GRID*               2197               0-1.379731781E+00-3.598806967E-01+
*       -1.931416646E-01               0
GRID*               2198               0-1.376367421E+00-2.858264082E-01+
*       -1.975897735E-01               0
GRID*               2199               0-1.382754393E+00-3.272323982E-01+
*       -1.407314382E-01               0
GRID*               2200               0-1.320354960E+00-2.919622930E-01+
*       -1.975897735E-01               0
GRID*               2201               0-1.323348105E+00-3.428863616E-01+
*       -6.823530649E-02               0
GRID*               2202               0-1.345038739E+00-3.904617626E-01+
*       -1.363769711E-01               0
GRID*               2203               0-1.361063760E+00-2.796569973E-01+
*       -7.258977354E-02               0
GRID*               2204               0-5.690245973E-01-2.579662478E-01+
*       -4.774100225E-02               0
GRID*               2205               0-5.308218915E-01-2.574934581E-01+
*       -1.086679117E-01               0
GRID*               2206               0-4.935908329E-01-2.509361958E-01+
*       -6.092690948E-02               0
GRID*               2207               0-5.319284663E-01-3.196294969E-01+
*       -6.059151562E-02               0
GRID*               2208               0-5.691595248E-01-3.261867593E-01+
*       -1.083325179E-01               0
GRID*               2209               0-4.937257604E-01-3.191567072E-01+
*       -1.215184251E-01               0
GRID*               2210               01.2090914872E+006.9373847008E-01+
*       4.5013972184E-01               0
GRID*               2211               01.2090914755E+006.3024513080E-01+
*       4.8667235841E-01               0
GRID*               2212               01.2090914744E+006.3049568871E-01+
*       4.1249331288E-01               0
GRID*               2213               0-4.920786169E-01-2.494598766E-01+
*       -1.859269095E-01               0
GRID*               2214               0-5.675123814E-01-2.564899287E-01+
*       -1.727410022E-01               0
GRID*               2215               0-5.304162503E-01-3.181531778E-01+
*       -1.855915156E-01               0
GRID*               2216               0-4.930717308E-01-3.809213820E-01+
*       -1.855915156E-01               0
GRID*               2217               0-5.308291744E-01-4.432885114E-01+
*       -1.855915156E-01               0
GRID*               2218               0-4.928594146E-01-4.992130436E-01+
*       -1.875766168E-01               0
GRID*               2219               0-4.551019711E-01-4.368459142E-01+
*       -1.875766168E-01               0
GRID*               2220               0-4.940936340E-01-4.437745406E-01+
*       -1.231681325E-01               0
GRID*               2221               01.3661161201E+00-7.178823640E-01+
*       2.2614388895E-01               0
GRID*               2222               01.3661161201E+00-6.537836417E-01+
*       2.6811416298E-01               0
GRID*               2223               01.3748300558E+00-7.256449082E-01+
*       1.7774331752E-01               0
GRID*               2224               01.3421962283E+00-6.935272722E-01+
*       2.5388720647E-01               0
GRID*               2225               01.3748300558E+00-6.615461859E-01+
*       2.1971359154E-01               0
GRID*               2226               0-4.561216817E-01-3.812208263E-01+
*       -1.230868247E-01               0
GRID*               2227               0-4.181519219E-01-4.371453585E-01+
*       -1.250719259E-01               0
GRID*               2228               0-4.547340975E-01-3.122280808E-01+
*       -1.859269095E-01               0
GRID*               2229               01.3409487724E+00-3.979078111E-01+
*       8.2936875939E-01               0
GRID*               2230               01.3409487724E+00-3.434523258E-01+
*       7.7513309974E-01               0
GRID*               2231               01.2808536665E+00-3.863136153E-01+
*       7.7997507215E-01               0
GRID*               2232               01.3386548416E+00-3.888589166E-01+
*       7.4491729160E-01               0
GRID*               2233               01.2129316638E+00-5.381005394E-01+
*       6.7380357540E-01               0
GRID*               2234               01.2129316826E+00-5.969463827E-01+
*       6.3128639683E-01               0
GRID*               2235               01.2092673044E+00-5.955800341E-01+
*       5.1582007948E-01               0
GRID*               2236               01.2092672855E+00-5.367341908E-01+
*       5.5833725805E-01               0
GRID*               2237               01.2734489447E+00-5.736996361E-01+
*       6.0934988779E-01               0
GRID*               2238               0-4.569274326E-01-3.130258559E-01+
*       -6.092690948E-02               0
GRID*               2239               0-4.177840483E-01-3.125275251E-01+
*       -1.234222186E-01               0
GRID*               2240               0-4.193233539E-01-3.750899750E-01+
*       -6.249530908E-02               0
GRID*               2241               0-4.952650660E-01-3.817191571E-01+
*       -6.059151562E-02               0
GRID*               2242               01.3254700726E+001.7806704000E-01+
*       4.1466032758E-01               0
GRID*               2243               01.3254700726E+001.4317836049E-01+
*       4.5335558993E-01               0
GRID*               2244               01.3363471499E+001.8688491744E-01+
*       4.8339576760E-01               0
GRID*               2245               01.3363471499E+002.2177359695E-01+
*       4.4470050526E-01               0
GRID*               2246               01.2630672750E+001.9059263719E-01+
*       4.7629900934E-01               0
GRID*               2247               01.2530121028E+001.9509084413E-01+
*       5.3044638971E-01               0
GRID*               2248               01.2421350255E+001.5138428718E-01+
*       5.0040621203E-01               0
GRID*               2249               01.2326194505E+001.9677230855E-01+
*       5.0852142413E-01               0
GRID*               2250               01.2217423731E+001.5306575161E-01+
*       4.7848124646E-01               0
GRID*               2251               01.3052089088E+004.7643589451E-01+
*       1.2857156766E+00               0
GRID*               2252               01.3677086380E+005.0370268229E-01+
*       1.2610021974E+00               0
GRID*               2253               01.3680428445E+004.8210224705E-01+
*       1.2786628590E+00               0
GRID*               2254               01.3055431153E+004.5483545927E-01+
*       1.3033763382E+00               0
GRID*               2255               01.3370015349E+004.5547521749E-01+
*       1.2593353593E+00               0
GRID*               2256               01.2106957196E+005.6884598869E-01+
*       1.1237338945E+00               0
GRID*               2257               01.2106957196E+005.2101525944E-01+
*       1.0529202598E+00               0
GRID*               2258               01.2157930509E+003.6967100493E-01+
*       4.6865602339E-01               0
GRID*               2259               01.2783902454E+003.1570999297E-01+
*       4.7811574343E-01               0
GRID*               2260               01.2113471578E+002.8826020610E-01+
*       4.9687946697E-01               0
GRID*               2261               01.2196118041E+003.1576769427E-01+
*       4.2458081691E-01               0
GRID*               2262               01.2866548916E+003.4321748115E-01+
*       4.0581709336E-01               0
GRID*               2263               01.2822089985E+002.6180668231E-01+
*       4.3404053695E-01               0
GRID*               2264               01.2113471569E+002.4447763649E-01+
*       4.6126081800E-01               0
GRID*               2265               01.2196118032E+002.7198512467E-01+
*       3.8896216794E-01               0
GRID*               2266               01.2113471525E+002.7242480878E-01+
*       5.5518413827E-01               0
GRID*               2267               01.2101534208E+003.4942669385E-01+
*       5.3107974492E-01               0
GRID*               2268               01.2101534155E+003.3359129653E-01+
*       5.8938441621E-01               0
GRID*               2269               01.2727506152E+002.9546568189E-01+
*       5.4053946496E-01               0
GRID*               2270               01.2518210630E+002.8159253917E-01+
*       5.9195215342E-01               0
GRID*               2271               01.2530148001E+002.2042605142E-01+
*       5.5775187548E-01               0
GRID*               2272               01.2122293185E+002.3243588543E-01+
*       6.0681841642E-01               0
GRID*               2273               01.2319651336E+003.0747551590E-01+
*       5.8960600591E-01               0
GRID*               2274               01.2331588707E+002.4630902815E-01+
*       5.5540572796E-01               0
GRID*               2275               01.2946817798E+002.2042522316E-01+
*       5.5775079598E-01               0
GRID*               2276               01.2934880427E+002.8159171091E-01+
*       5.9195107393E-01               0
GRID*               2277               01.3356025057E+002.3145884104E-01+
*       6.0249004270E-01               0
GRID*               2278               01.3148650782E+002.4533281201E-01+
*       5.5107843374E-01               0
GRID*               2279               01.3136713411E+003.0649929976E-01+
*       5.8527871168E-01               0
GRID*               2280               0-1.514824907E+004.8185589252E-01+
*       -2.294151916E-01               0
GRID*               2281               0-1.514817080E+005.2046501988E-01+
*       -2.294151916E-01               0
GRID*               2282               0-1.514818156E+005.2046759909E-01+
*       -1.877481665E-01               0
GRID*               2283               0-1.332979251E+005.0234563972E-01+
*       6.2051516763E-01               0
GRID*               2284               0-1.332979251E+005.0554555407E-01+
*       6.7905266419E-01               0
GRID*               2285               0-1.332979251E+004.5408890649E-01+
*       6.5136552207E-01               0
GRID*               2286               0-1.515481457E+004.6185809872E-01+
*       -1.863079015E-01               0
GRID*               2287               0-1.485060387E+004.2081950607E-01+
*       -1.639165406E-01               0
GRID*               2288               0-1.499450747E+004.2032529834E-01+
*       -1.442757141E-01               0
GRID*               2289               0-1.523381678E+004.4268318566E-01+
*       -1.869153056E-01               0
GRID*               2290               0-1.508991318E+004.4317739339E-01+
*       -2.065561322E-01               0
GRID*               2291               0-1.492960607E+004.0164459301E-01+
*       -1.645239447E-01               0
GRID*               2292               0-1.475304948E+005.1703246882E-01+
*       -1.478588384E-01               0
GRID*               2293               0-1.475312308E+004.7841930976E-01+
*       -1.478594010E-01               0
GRID*               2294               0-1.515474097E+005.0047125779E-01+
*       -1.863073390E-01               0
GRID*               2295               0-1.460921948E+004.7891351748E-01+
*       -1.675002276E-01               0
GRID*               2296               07.4685219875E-013.7236236028E-01+
*       -6.632646242E-02               0
GRID*               2297               07.1022276323E-014.3684351096E-01+
*       -6.632646242E-02               0
GRID*               2298               07.4120011396E-014.9113333093E-01+
*       -6.753289972E-02               0
GRID*               2299               07.7782954948E-014.2665218024E-01+
*       -6.753289972E-02               0
GRID*               2300               07.6329040340E-014.2884981074E-01+
*       -1.338593621E-01               0
GRID*               2301               07.2122761843E-016.2399522657E-01+
*       -1.833803622E-01               0
GRID*               2302               06.8258824258E-015.6116582300E-01+
*       -1.833803622E-01               0
GRID*               2303               07.7522870919E-015.5299130847E-01+
*       -1.925328997E-01               0
GRID*               2304               07.4026666337E-015.5414354880E-01+
*       -1.259132620E-01               0
GRID*               2305               07.3658933335E-014.9016190490E-01+
*       -1.925328997E-01               0
GRID*               2306               01.3254473438E+001.2716351905E-01+
*       -1.921727140E-01               0
GRID*               2307               01.3895944855E+001.2386515764E-01+
*       -1.921727140E-01               0
GRID*               2308               01.3622731320E+001.8296051553E-01+
*       -1.921727140E-01               0
GRID*               2309               01.2754316650E+00-6.625329923E-01+
*       7.3740810257E-01               0
GRID*               2310               01.2754278708E+00-6.625329923E-01+
*       6.9170879966E-01               0
GRID*               2311               01.2416523248E+00-7.177594985E-01+
*       7.0914256134E-01               0
GRID*               2312               01.2433339826E+00-6.302924909E-01+
*       6.9655066391E-01               0
GRID*               2313               01.2416485305E+00-7.177594985E-01+
*       6.6344325843E-01               0
GRID*               2314               06.4798143343E-015.6249774606E-01+
*       -1.147905527E-01               0
GRID*               2315               06.4430410340E-014.9851610215E-01+
*       -1.814101905E-01               0
GRID*               2316               07.0198252419E-014.9149382795E-01+
*       -1.239430902E-01               0
GRID*               2317               06.7100517346E-014.3720400799E-01+
*       -1.227366529E-01               0
GRID*               2318               06.4891488402E-014.9948752818E-01+
*       -5.641019050E-02               0
GRID*               2319               07.0561198262E-014.3587208494E-01+
*       -1.913264624E-01               0
GRID*               2320               07.4157252405E-013.7215720762E-01+
*       -1.913264624E-01               0
GRID*               2321               07.7254987478E-014.2644702758E-01+
*       -1.925328997E-01               0
GRID*               2322               01.2089679247E+00-5.864793804E-01+
*       9.7339817807E-02               0
GRID*               2323               01.2089679194E+00-5.200387232E-01+
*       9.5433903137E-02               0
GRID*               2324               01.2099157236E+00-5.639510464E-01+
*       1.5351846896E-01               0
GRID*               2325               01.2099157290E+00-6.303917036E-01+
*       1.5542438363E-01               0
GRID*               2326               01.2701336009E+00-5.852953885E-01+
*       1.2590946795E-01               0
GRID*               2327               01.2089679317E+00-4.956915327E-01+
*       3.3912451067E-02               0
GRID*               2328               01.2079217390E+00-4.257380528E-01+
*       3.2396733129E-02               0
GRID*               2329               01.2079217266E+00-4.500852434E-01+
*       9.3918185199E-02               0
GRID*               2330               01.2681396039E+00-4.714295854E-01+
*       6.6309184196E-02               0
GRID*               2331               01.2725602499E+00-6.896038559E-01+
*       1.3309281050E-01               0
GRID*               2332               01.3034099142E+00-6.542257911E-01+
*       1.3776556740E-01               0
GRID*               2333               01.3048887590E+00-7.146219352E-01+
*       8.6864344125E-02               0
GRID*               2334               01.2367674306E+00-7.253046804E-01+
*       1.0098946290E-01               0
GRID*               2335               01.2352885859E+00-6.649085363E-01+
*       1.5189068617E-01               0
GRID*               2336               01.2676170950E+00-6.899266156E-01+
*       1.0566221979E-01               0
GRID*               2337               01.1741229097E+00-6.660925281E-01+
*       1.2332103603E-01               0
GRID*               2338               01.2343407816E+00-6.209962131E-01+
*       9.3806120353E-02               0
GRID*               2339               01.1820470342E+00-6.370417295E-01+
*       -8.808456357E-03               0
GRID*               2340               01.2422648992E+00-6.077332621E-01+
*       2.5103994710E-02               0
GRID*               2341               01.2089679317E+00-5.706915327E-01+
*       3.3912451067E-02               0
GRID*               2342               01.1787216378E+00-6.375058768E-01+
*       2.1525293960E-02               0
GRID*               2343               01.2120186053E+00-6.745476063E-01+
*       1.2716837603E-02               0
GRID*               2344               01.2389395028E+00-6.081974095E-01+
*       5.5437745027E-02               0
GRID*               2345               0-1.815155917E+00-4.386789095E-01+
*       -7.247083866E-02               0
GRID*               2346               0-1.864144958E+00-4.507528228E-01+
*       -6.229238165E-02               0
GRID*               2347               0-1.816605997E+00-4.734005174E-01+
*       -7.315484262E-02               0
GRID*               2348               0-1.784214336E+00-4.596181547E-01+
*       -6.169110308E-02               0
GRID*               2349               0-1.831753297E+00-4.369704601E-01+
*       -5.082864211E-02               0
GRID*               2350               0-1.833203376E+00-4.716920680E-01+
*       -5.151264607E-02               0
GRID*               2351               01.2201288017E+00-6.103514630E-01+
*       -7.089906185E-02               0
GRID*               2352               01.2803466666E+00-5.810429957E-01+
*       -3.698661078E-02               0
GRID*               2353               01.2534257692E+00-6.473931925E-01+
*       -7.970751821E-02               0
GRID*               2354               0-1.032313713E+00-3.942003266E-01+
*       -1.860995443E-01               0
GRID*               2355               0-1.107265860E+00-3.907493563E-01+
*       -1.860995443E-01               0
GRID*               2356               0-1.099238288E+00-5.039668538E-01+
*       -1.717851099E-01               0
GRID*               2357               0-1.024286141E+00-5.074178241E-01+
*       -1.717851099E-01               0
GRID*               2358               0-1.046918221E+00-2.617319383E-01+
*       -6.109954427E-02               0
GRID*               2359               0-9.491983613E-01-2.683136701E-01+
*       -6.510921339E-02               0
GRID*               2360               0-9.690958167E-01-3.380626198E-01+
*       -6.510921339E-02               0
GRID*               2361               0-9.914353535E-01-3.046357889E-01+
*       -1.262087577E-01               0
GRID*               2362               0-1.746483180E+00-3.715151308E-01+
*       -2.014686908E-02               0
GRID*               2363               0-1.786181852E+00-3.871182099E-01+
*       -2.014686908E-02               0
GRID*               2364               0-1.769410735E+00-3.640795969E-01+
*       -1.712430688E-02               0
GRID*               2365               0-1.729712064E+00-3.484765178E-01+
*       -1.712430688E-02               0
GRID*               2366               0-1.762499203E+00-3.881962702E-01+
*       -3.727117596E-02               0
GRID*               2367               0-1.784214237E+00-4.596178561E-01+
*       -2.002445326E-02               0
GRID*               2368               0-1.773443539E+00-4.362804451E-01+
*       -2.014686908E-02               0
GRID*               2369               0-1.773443638E+00-4.362807437E-01+
*       -6.181351890E-02               0
GRID*               2370               0-1.790041017E+00-4.345722943E-01+
*       -4.017132234E-02               0
GRID*               2371               0-1.026987525E+00-2.678251119E-01+
*       -1.860995443E-01               0
GRID*               2372               0-1.065562660E+00-3.283168624E-01+
*       -1.860995443E-01               0
GRID*               2373               0-9.292676656E-01-2.744068437E-01+
*       -1.901092134E-01               0
GRID*               2374               01.8713252462E+004.0920944201E-01+
*       -3.135488316E-02               0
GRID*               2375               01.8185004865E+003.6571458532E-01+
*       -3.135488316E-02               0
GRID*               2376               01.8385451308E+004.1205115401E-01+
*       -3.135488316E-02               0
GRID*               2377               0-1.442481601E+00-1.545188706E-01+
*       -1.990041150E-01               0
GRID*               2378               0-1.474052770E+00-1.306788233E-01+
*       -1.414504421E-01               0
GRID*               2379               0-1.536765305E+00-1.866179911E-01+
*       -1.924463271E-01               0
GRID*               2380               0-1.500012260E+00-2.427388097E-01+
*       -1.892577128E-01               0
GRID*               2381               0-1.437299726E+00-1.867996419E-01+
*       -1.382618277E-01               0
GRID*               2382               0-1.290966435E+00-1.605161257E-01+
*       -5.435189789E-02               0
GRID*               2383               0-1.270218706E+00-1.741612799E-01+
*       5.8453825248E-02               0
GRID*               2384               0-1.302629842E+00-2.729591488E-01+
*       -3.237382394E-02               0
GRID*               2385               0-1.226997120E+00-1.238228560E-01+
*       -4.480510687E-02               0
GRID*               2386               0-1.238660527E+00-2.362658791E-01+
*       -2.282703292E-02               0
GRID*               2387               0-1.497521300E+00-1.237971278E-01+
*       -1.924463271E-01               0
GRID*               2388               0-1.403237596E+00-9.169800728E-02+
*       -1.990041150E-01               0
GRID*               2389               0-1.198348165E+00-3.428863616E-01+
*       -6.823530649E-02               0
GRID*               2390               0-1.236063819E+00-2.796569973E-01+
*       -7.258977354E-02               0
GRID*               2391               0-1.172094504E+00-2.429637276E-01+
*       -6.304298252E-02               0
GRID*               2392               0-1.215316090E+00-2.933021515E-01+
*       4.0215949603E-02               0
GRID*               2393               01.3417410579E+00-4.864746668E-01+
*       1.0151604624E+00               0
GRID*               2394               01.3417410579E+00-5.352084267E-01+
*       1.0456032531E+00               0
GRID*               2395               01.3417410579E+00-4.852394253E-01+
*       1.0723602268E+00               0
GRID*               2396               01.3445402116E+00-4.458838542E-01+
*       1.1209827604E+00               0
GRID*               2397               01.2820388080E+00-5.025466922E-01+
*       1.1866163247E+00               0
GRID*               2398               01.3136991558E+00-4.688749038E-01+
*       1.1850833887E+00               0
GRID*               2399               01.3048289356E+00-5.511692935E-01+
*       1.1924162921E+00               0
GRID*               2400               01.3131206032E+00-4.740635690E-01+
*       1.1531108690E+00               0
GRID*               2401               01.3364892834E+00-5.174975051E-01+
*       1.1908833562E+00               0
GRID*               2402               01.2792425317E+00-5.825474409E-01+
*       1.0772708831E+00               0
GRID*               2403               01.3417410579E+00-5.638771289E-01+
*       1.1083717401E+00               0
GRID*               2404               01.3673580206E+00-6.197849661E-01+
*       1.1194993259E+00               0
GRID*               2405               01.3048594944E+00-6.384552781E-01+
*       1.0883984689E+00               0
GRID*               2406               01.3103491309E+00-5.600599471E-01+
*       1.0611934202E+00               0
GRID*               2407               0-1.226086763E+00-1.320797004E-01+
*       -2.062349714E-01               0
GRID*               2408               0-1.254132838E+00-7.071688026E-02+
*       -2.062349714E-01               0
GRID*               2409               0-1.336900788E+00-9.674770780E-02+
*       -1.990041150E-01               0
GRID*               2410               0-1.297001117E+00-7.254887522E-02+
*       -1.552390864E-01               0
GRID*               2411               0-1.345552301E+00-2.332463570E-01+
*       -1.975897735E-01               0
GRID*               2412               0-1.373748049E+00-1.528792111E-01+
*       -1.990041150E-01               0
GRID*               2413               01.2962892883E+00-1.110082163E-01+
*       1.0368166795E+00               0
GRID*               2414               01.2962896981E+00-7.632158464E-02+
*       1.0504293420E+00               0
GRID*               2415               01.1695146533E+00-1.609881161E-01+
*       9.6578218469E-01               0
GRID*               2416               01.1695146533E+00-1.901193079E-01+
*       9.4255037184E-01               0
GRID*               2417               01.2111809101E+00-1.901203395E-01+
*       9.4254900605E-01               0
GRID*               2418               01.1703544914E+00-1.466900604E-01+
*       9.7717001211E-01               0
GRID*               2419               01.2120207482E+00-1.758222838E-01+
*       9.5393683348E-01               0
GRID*               2420               01.2120211581E+00-1.466900604E-01+
*       9.7717001211E-01               0
GRID*               2421               01.3356408770E+00-1.286614280E-01+
*       9.9164875994E-01               0
GRID*               2422               01.3356412868E+00-9.397479641E-02+
*       1.0052614224E+00               0
GRID*               2423               01.3165135510E+00-1.146696408E-01+
*       1.0619590709E+00               0
GRID*               2424               05.3160812608E-01-1.948201308E-01+
*       -1.971136469E-01               0
GRID*               2425               04.9344201323E-01-1.891967567E-01+
*       -1.333197122E-01               0
GRID*               2426               05.6875005685E-01-2.003692308E-01+
*       -1.313584939E-01               0
GRID*               2427               01.3284270660E+007.9428502351E-02+
*       1.0954159179E+00               0
GRID*               2428               05.3061986173E-01-1.896474212E-01+
*       -7.211364694E-02               0
GRID*               2429               05.6505719984E-01-1.259545856E-01+
*       -7.211364694E-02               0
GRID*               2430               06.0148042833E-01-1.865969582E-01+
*       -5.924484699E-02               0
GRID*               2431               01.1703048004E+00-8.653977393E-02+
*       1.0015660847E+00               0
GRID*               2432               01.1703048004E+00-1.212247073E-01+
*       9.8795363247E-01               0
GRID*               2433               04.9365124789E-01-1.323591650E-01+
*       -1.971136469E-01               0
GRID*               2434               04.5570739190E-01-1.313152572E-01+
*       -1.339976589E-01               0
GRID*               2435               04.1703181143E-01-1.239475639E-01+
*       -1.868840120E-01               0
GRID*               2436               04.5476643275E-01-1.818290634E-01+
*       -1.862060653E-01               0
GRID*               2437               04.1682257676E-01-1.807851556E-01+
*       -1.230900773E-01               0
GRID*               2438               04.1654617643E-01-1.206100580E-01+
*       -6.188401198E-02               0
GRID*               2439               04.9316561289E-01-1.290216591E-01+
*       -7.211364694E-02               0
GRID*               2440               04.5428079775E-01-1.784915575E-01+
*       -6.120606529E-02               0
GRID*               2441               0-1.295873789E+002.8180429789E-01+
*       5.9236571999E-01               0
GRID*               2442               0-1.273199311E+003.1512395809E-01+
*       5.3845838276E-01               0
GRID*               2443               0-1.292740170E+002.3987256890E-01+
*       5.5525722670E-01               0
GRID*               2444               0-1.335564046E+002.3274795277E-01+
*       6.0706495032E-01               0
GRID*               2445               0-1.316023188E+003.0799934196E-01+
*       5.9026610637E-01               0
GRID*               2446               0-1.312889569E+002.6606761297E-01+
*       5.5315761308E-01               0
GRID*               2447               0-1.209407829E+002.4122011443E-01+
*       4.4220585648E-01               0
GRID*               2448               0-1.209407829E+002.9676182836E-01+
*       4.6925640933E-01               0
GRID*               2449               0-1.207267901E+003.0519631002E-01+
*       3.9874001790E-01               0
GRID*               2450               0-1.207267900E+002.4965459609E-01+
*       3.7168946505E-01               0
GRID*               2451               0-1.251073190E+002.3987174064E-01+
*       5.5525614721E-01               0
GRID*               2452               0-1.254206809E+002.8180346963E-01+
*       5.9236464050E-01               0
GRID*               2453               0-1.212077013E+002.3181813058E-01+
*       6.0205829378E-01               0
GRID*               2454               0-1.231069516E+002.6513861904E-01+
*       5.4815203604E-01               0
GRID*               2455               0-1.234203134E+003.0707034803E-01+
*       5.8526052933E-01               0
GRID*               2456               0-1.202995007E+001.8478672967E-01+
*       4.1196662837E-01               0
GRID*               2457               01.3349464752E+00-4.427420691E-01+
*       3.1805148723E-01               0
GRID*               2458               01.3349464752E+00-4.986957015E-01+
*       2.8783996778E-01               0
GRID*               2459               01.3348743281E+00-4.111427952E-01+
*       4.0132086270E-01               0
GRID*               2460               01.2710708557E+00-4.601417558E-01+
*       3.5215026551E-01               0
GRID*               2461               01.3348743281E+00-4.670964276E-01+
*       3.7110934324E-01               0
GRID*               2462               0-1.292742867E+002.1453736161E-01+
*       5.2795174093E-01               0
GRID*               2463               0-1.286330045E+001.5810397684E-01+
*       4.9771251282E-01               0
GRID*               2464               0-1.334996939E+001.5841519334E-01+
*       5.3255675489E-01               0
GRID*               2465               0-1.312319765E+002.1707006083E-01+
*       5.0595490343E-01               0
GRID*               2466               0-1.305906943E+001.6063667607E-01+
*       4.7571567532E-01               0
GRID*               2467               01.3244249425E+00-1.137101112E-01+
*       1.2665900288E+00               0
GRID*               2468               01.2165218616E+00-1.280646350E-02+
*       1.3358243481E+00               0
GRID*               2469               01.1994249425E+00-1.000821094E-01+
*       1.3496406836E+00               0
GRID*               2470               01.1994249425E+00-6.086591792E-02+
*       1.2916535381E+00               0
GRID*               2471               06.8093490498E-01-4.317678876E-01+
*       -1.803500102E-01               0
GRID*               2472               06.4516277053E-01-5.024132551E-01+
*       -1.787493431E-01               0
GRID*               2473               07.2000266620E-01-4.967483879E-01+
*       -1.828152645E-01               0
GRID*               2474               07.1782686619E-01-4.286108416E-01+
*       -1.131652747E-01               0
GRID*               2475               06.8205473173E-01-4.992562091E-01+
*       -1.115646077E-01               0
GRID*               2476               04.9379238283E-01-4.975434373E-01+
*       -5.949757965E-02               0
GRID*               2477               05.3151514037E-01-5.038493507E-01+
*       -1.132469228E-01               0
GRID*               2478               05.6949207852E-01-4.986151629E-01+
*       -5.374934315E-02               0
GRID*               2479               05.3238615469E-01-5.586536972E-01+
*       -6.251994687E-02               0
GRID*               2480               04.9440921654E-01-5.638878850E-01+
*       -1.220175265E-01               0
GRID*               2481               05.7010891224E-01-5.649596106E-01+
*       -1.162692900E-01               0
GRID*               2482               06.4452965430E-01-4.955429316E-01+
*       -5.374934315E-02               0
GRID*               2483               06.8030178875E-01-4.248975641E-01+
*       -5.535001019E-02               0
GRID*               2484               0-1.731080303E+00-4.259076999E-02+
*       -1.860909698E-01               0
GRID*               2485               0-1.741346642E+00-1.064227864E-01+
*       -1.860909698E-01               0
GRID*               2486               0-1.692218565E+00-7.324381120E-02+
*       -1.860909698E-01               0
GRID*               2487               08.3144494820E-01-4.402852713E-01+
*       -1.838266351E-01               0
GRID*               2488               07.9228563041E-01-4.370061646E-01+
*       -1.166418996E-01               0
GRID*               2489               07.9605394519E-01-4.968704485E-01+
*       -1.828152645E-01               0
GRID*               2490               08.7188446901E-01-4.909339115E-01+
*       -1.881504883E-01               0
GRID*               2491               08.6811615423E-01-4.310696276E-01+
*       -1.219771233E-01               0
GRID*               2492               08.3272515122E-01-4.876548048E-01+
*       -1.209657528E-01               0
GRID*               2493               07.1840377377E-01-3.694485323E-01+
*       -1.803500102E-01               0
GRID*               2494               07.5747153499E-01-4.344290325E-01+
*       -1.828152645E-01               0
GRID*               2495               07.9286253800E-01-3.778438553E-01+
*       -1.838266351E-01               0
GRID*               2496               07.5321786920E-01-3.720256644E-01+
*       -1.141766453E-01               0
GRID*               2497               07.4976045455E-01-3.053470965E-01+
*       -6.112015393E-02               0
GRID*               2498               07.8137038224E-01-2.370966416E-01+
*       -6.112015393E-02               0
GRID*               2499               07.8903904652E-01-3.648627994E-01+
*       -5.882663506E-02               0
GRID*               2500               07.8839804146E-01-3.209052846E-01+
*       -1.199467890E-01               0
GRID*               2501               08.2064897421E-01-2.966123445E-01+
*       -5.882663506E-02               0
GRID*               2502               07.1458028229E-01-3.564674763E-01+
*       -5.535001019E-02               0
GRID*               2503               07.1393927723E-01-3.125099615E-01+
*       -1.164701641E-01               0
GRID*               2504               08.2812533096E-01-4.270334492E-01+
*       -5.882663506E-02               0
GRID*               2505               08.6143113594E-01-3.565422778E-01+
*       -5.882663506E-02               0
GRID*               2506               08.6856485177E-01-4.776820894E-01+
*       -6.315048828E-02               0
GRID*               2507               09.0187065675E-01-4.071909179E-01+
*       -6.315048828E-02               0
GRID*               2508               04.5386799551E-01-5.212297034E-02+
*       -6.803282735E-02               0
GRID*               2509               04.8995657905E-011.0097583450E-02+
*       -6.803282735E-02               0
GRID*               2510               04.9302921099E-01-6.282816951E-02+
*       -1.401464743E-01               0
GRID*               2511               05.2925419643E-01-6.680110533E-02+
*       -7.211364694E-02               0
GRID*               2512               0-6.484493525E-01-5.030021323E-01+
*       -6.194920816E-02               0
GRID*               2513               0-6.471770217E-01-5.651725687E-01+
*       -1.240779581E-01               0
GRID*               2514               0-6.869567297E-01-5.612194746E-01+
*       -6.212874998E-02               0
GRID*               2515               0-7.334535419E-01-4.885639170E-01+
*       -6.405166359E-02               0
GRID*               2516               0-6.936738339E-01-4.925170111E-01+
*       -1.260008718E-01               0
GRID*               2517               0-6.823242324E-01-5.602906615E-01+
*       -1.871287500E-01               0
GRID*               2518               0-6.438168552E-01-5.020733191E-01+
*       -1.869492082E-01               0
GRID*               2519               0-7.288210446E-01-4.876351039E-01+
*       -1.890516636E-01               0
GRID*               2520               0-6.846171900E-01-6.866949555E-01+
*       -1.871287500E-01               0
GRID*               2521               0-6.479047739E-01-6.866949555E-01+
*       -1.246404504E-01               0
GRID*               2522               0-6.457811185E-01-7.184855296E-01+
*       -2.187480613E-01               0
GRID*               2523               0-6.468483274E-01-6.551804851E-01+
*       -1.558768113E-01               0
GRID*               2524               0-6.090687024E-01-7.184855296E-01+
*       -1.562597617E-01               0
GRID*               2525               0-5.714118359E-01-6.878934767E-01+
*       -1.250643073E-01               0
GRID*               2526               0-6.091914609E-01-6.245884322E-01+
*       -1.246813568E-01               0
GRID*               2527               0-6.106773939E-01-7.187832158E-01+
*       -9.376477077E-02               0
GRID*               2528               0-5.719640809E-01-6.566766925E-01+
*       -9.380567716E-02               0
GRID*               2529               0-6.484570188E-01-6.554781714E-01+
*       -9.338182031E-02               0
GRID*               2530               01.6997561662E+00-3.215002552E-01+
*       -9.542032724E-02               0
GRID*               2531               01.7365065201E+00-3.334467210E-01+
*       -1.370869804E-01               0
GRID*               2532               01.6997561662E+00-3.215002552E-01+
*       -1.370869939E-01               0
GRID*               2533               01.7183778572E+00-3.763211562E-01+
*       -1.869868931E-01               0
GRID*               2534               01.7326337220E+00-3.108749457E-01+
*       -1.574072338E-01               0
GRID*               2535               01.7432119542E+00-3.888376785E-01+
*       -1.858845791E-01               0
GRID*               2536               01.7393391561E+00-3.662659032E-01+
*       -2.062048325E-01               0
GRID*               2537               01.7574678190E+00-3.233914679E-01+
*       -1.563049198E-01               0
GRID*               2538               0-6.072895006E-01-5.654544022E-01+
*       -1.869492082E-01               0
GRID*               2539               0-6.457968778E-01-6.236717446E-01+
*       -1.871287500E-01               0
GRID*               2540               01.7718441675E+00-2.508736876E-01+
*       -1.787536606E-01               0
GRID*               2541               01.7121763244E+00-2.278306263E-01+
*       -1.787536606E-01               0
GRID*               2542               01.7275685996E+00-2.890198406E-01+
*       -1.787536606E-01               0
GRID*               2543               0-6.105619621E-01-5.660796509E-01+
*       -6.194920816E-02               0
GRID*               2544               0-5.706840837E-01-5.663710899E-01+
*       -1.245018150E-01               0
GRID*               2545               0-5.725764013E-01-6.254955144E-01+
*       -6.255260683E-02               0
GRID*               2546               0-6.490693393E-01-6.242969932E-01+
*       -6.212874998E-02               0
GRID*               2547               01.2613283007E+003.1500759718E-01+
*       -1.960971547E-01               0
GRID*               2548               01.2131610198E+003.0330330248E-01+
*       -1.312370013E-01               0
GRID*               2549               01.1369541082E+003.3476182526E-01+
*       -1.851398466E-01               0
GRID*               2550               01.1952458065E+002.6465901244E-01+
*       -2.072729661E-01               0
GRID*               2551               01.2714527181E+002.3320048966E-01+
*       -1.533701209E-01               0
GRID*               2552               01.1470785256E+002.5295471774E-01+
*       -1.424128127E-01               0
GRID*               2553               01.6545587455E+00-2.937173209E-01+
*       -1.900881460E-01               0
GRID*               2554               01.6391664703E+00-2.325281065E-01+
*       -1.900881460E-01               0
GRID*               2555               0-1.342720493E+001.8175294375E-01+
*       9.5979860805E-02               0
GRID*               2556               0-1.342720493E+002.2943055929E-01+
*       1.6792690442E-01               0
GRID*               2557               0-1.342720493E+001.5026249531E-01+
*       1.6671347888E-01               0
GRID*               2558               0-1.342720493E+001.8640158124E-01+
*       2.2036434331E-01               0
GRID*               2559               0-1.207267910E+002.2478256479E-01+
*       3.0594810936E-01               0
GRID*               2560               0-1.207267916E+003.0496971396E-01+
*       3.1516813200E-01               0
GRID*               2561               0-1.333566674E+003.6662954861E-01+
*       3.4425285647E-02               0
GRID*               2562               0-1.333566674E+004.0500888652E-01+
*       8.4443837924E-02               0
GRID*               2563               0-1.340673757E+003.0688769319E-01+
*       4.3597502398E-02               0
GRID*               2564               0-1.275490483E+003.7351724180E-01+
*       7.8022788045E-02               0
GRID*               2565               0-1.340673757E+003.4526703110E-01+
*       9.3616054676E-02               0
GRID*               2566               0-1.217720535E+002.2282266665E-01+
*       1.5773198660E-01               0
GRID*               2567               0-1.217720512E+001.8650491234E-01+
*       2.2176941686E-01               0
GRID*               2568               0-1.217720518E+002.6669206151E-01+
*       2.3098943951E-01               0
GRID*               2569               0-1.340673757E+002.7956530872E-01+
*       1.1554454601E-01               0
GRID*               2570               0-1.284644302E+002.6364063694E-01+
*       1.3957736320E-01               0
GRID*               2571               0-1.344431236E+002.3521030379E-01+
*       6.1044789436E-02               0
GRID*               2572               0-1.286355045E+002.6942038144E-01+
*       3.2695248218E-02               0
GRID*               2573               0-1.288401782E+002.1928563200E-01+
*       8.5077606626E-02               0
GRID*               2574               01.0467108036E+002.7427499588E-01+
*       -6.013984656E-02               0
GRID*               2575               09.4944483538E-012.7354185996E-01+
*       -5.124193269E-02               0
GRID*               2576               09.6935156159E-013.4326842364E-01+
*       -5.124193269E-02               0
GRID*               2577               09.9152085914E-013.2232439463E-01+
*       -1.113817792E-01               0
GRID*               2578               09.3488180034E-014.0593746914E-01+
*       -1.762419327E-01               0
GRID*               2579               09.5257286514E-013.7407744270E-01+
*       -1.132158236E-01               0
GRID*               2580               01.0268451841E+002.8029857480E-01+
*       -1.851398466E-01               0
GRID*               2581               01.0654539955E+003.4078305121E-01+
*       -1.851398466E-01               0
GRID*               2582               09.2957921594E-012.7956543888E-01+
*       -1.762419327E-01               0
GRID*               2583               09.6818802730E-013.4004991529E-01+
*       -1.762419327E-01               0
GRID*               2584               0-7.074930595E-01-4.387833896E-01+
*       -6.220501240E-02               0
GRID*               2585               0-6.677133515E-01-4.427364837E-01+
*       -1.241542206E-01               0
GRID*               2586               0-7.527175408E-01-4.282982685E-01+
*       -1.262566760E-01               0
GRID*               2587               0-9.057811227E-01-6.139404952E-01+
*       -7.477558168E-02               0
GRID*               2588               0-8.770751182E-01-4.842126960E-01+
*       -1.890516636E-01               0
GRID*               2589               0-9.284539700E-01-5.510152350E-01+
*       -1.997755817E-01               0
GRID*               2590               0-9.414007356E-01-4.901195377E-01+
*       -1.879474530E-01               0
GRID*               2591               0-8.943824924E-01-5.507881765E-01+
*       -1.377230347E-01               0
GRID*               2592               0-8.430036406E-01-4.839856376E-01+
*       -1.269991166E-01               0
GRID*               2593               0-1.344432389E+00-3.081846612E-01+
*       8.8235119803E-01               0
GRID*               2594               0-1.344432389E+00-2.928607938E-01+
*       9.2483711375E-01               0
GRID*               2595               0-1.344432389E+00-3.434466659E-01+
*       9.1310698614E-01               0
GRID*               2596               0-7.441421091E-01-3.742766965E-01+
*       -6.220501240E-02               0
GRID*               2597               0-7.701025915E-01-4.240572239E-01+
*       -6.405166359E-02               0
GRID*               2598               0-1.096616784E+00-2.637269468E-01+
*       -1.860995443E-01               0
GRID*               2599               0-1.091237779E+00-1.785072505E-01+
*       -1.138453174E-01               0
GRID*               2600               0-1.098699350E+00-1.441801403E-01+
*       -1.777457731E-01               0
GRID*               2601               0-1.149758648E+00-2.076636459E-01+
*       -1.880429825E-01               0
GRID*               2602               0-1.142297077E+00-2.419907561E-01+
*       -1.241425268E-01               0
GRID*               2603               0-1.144379643E+00-1.224439496E-01+
*       -1.157887556E-01               0
GRID*               2604               0-1.302767019E+00-2.690884518E-01+
*       8.9507888716E-01               0
GRID*               2605               0-1.302766132E+00-2.480983990E-01+
*       9.2586897155E-01               0
GRID*               2606               0-1.336022171E+00-2.163991334E-01+
*       9.0416413821E-01               0
GRID*               2607               0-1.336023058E+00-2.373891863E-01+
*       8.7337405381E-01               0
GRID*               2608               0-1.323370870E+00-2.812330820E-01+
*       9.0999309848E-01               0
GRID*               2609               0-1.335455934E+00-2.456054421E-01+
*       8.5252471416E-01               0
GRID*               2610               0-1.322803746E+00-2.894493378E-01+
*       8.8914375883E-01               0
GRID*               2611               0-1.356059785E+00-2.577500723E-01+
*       8.6743892549E-01               0
GRID*               2612               0-1.341070359E+00-2.373323396E-01+
*       1.0219479955E+00               0
GRID*               2613               0-1.341070359E+00-2.994714384E-01+
*       1.0139705665E+00               0
GRID*               2614               0-1.341070359E+00-2.672852184E-01+
*       9.7544801729E-01               0
GRID*               2615               0-1.339500903E+00-2.370861783E-01+
*       2.9960770680E-01               0
GRID*               2616               0-1.277740436E+00-2.708887490E-01+
*       2.9925779736E-01               0
GRID*               2617               0-1.336989480E+00-3.153712029E-01+
*       2.3883509910E-01               0
GRID*               2618               0-1.326522718E+00-2.413634002E-01+
*       2.2614970350E-01               0
GRID*               2619               0-1.267273674E+00-1.968809463E-01+
*       2.8657240176E-01               0
GRID*               2620               0-1.264762251E+00-2.751659710E-01+
*       2.2579979407E-01               0
GRID*               2621               0-1.336989480E+00-3.546367982E-01+
*       1.8066527990E-01               0
GRID*               2622               0-1.336989480E+00-3.793121319E-01+
*       2.4010752135E-01               0
GRID*               2623               0-1.118952640E+00-2.240270285E-01+
*       -6.109954427E-02               0
GRID*               2624               0-1.121035206E+00-1.044802220E-01+
*       -5.274577312E-02               0
GRID*               2625               0-1.049000786E+00-1.421851318E-01+
*       -5.274577312E-02               0
GRID*               2626               0-1.211989520E+00-2.806229114E-01+
*       1.8577140184E-01               0
GRID*               2627               0-1.201522758E+00-2.066151087E-01+
*       1.7308600624E-01               0
GRID*               2628               0-1.215316070E+00-2.493381761E-01+
*       1.0674475661E-01               0
GRID*               2629               0-1.278555563E+00-3.178890384E-01+
*       1.5945854444E-01               0
GRID*               2630               0-1.268088801E+00-2.438812357E-01+
*       1.4677314883E-01               0
GRID*               2631               0-9.930769937E-01-4.574743734E-01+
*       -1.876165976E-01               0
GRID*               2632               0-1.049918494E+00-3.613281038E-01+
*       -1.237161418E-01               0
GRID*               2633               0-1.041890922E+00-4.745456014E-01+
*       -1.094017075E-01               0
GRID*               2634               0-1.276695453E+006.7034647186E-01+
*       1.2702629759E-01               0
GRID*               2635               0-1.276616261E+006.7034647186E-01+
*       1.9887352048E-01               0
GRID*               2636               0-1.305005806E+007.2426434235E-01+
*       1.2323129666E-01               0
GRID*               2637               0-1.307706560E+006.4461081421E-01+
*       1.6800159270E-01               0
GRID*               2638               0-1.304926613E+007.2426434235E-01+
*       1.9507851956E-01               0
GRID*               2639               0-1.333566674E+004.4162954861E-01+
*       3.4425285647E-02               0
GRID*               2640               0-1.291185669E+004.2591751500E-01+
*       -2.558537969E-02               0
GRID*               2641               0-1.356368942E+004.3428796639E-01+
*       -6.001066533E-02               0
GRID*               2642               0-1.334674303E+004.9530699551E-01+
*       1.5022957419E-02               0
GRID*               2643               0-1.269491030E+004.8693654412E-01+
*       4.9448243066E-02               0
GRID*               2644               0-1.292293298E+004.7959496190E-01+
*       -4.498770792E-02               0
GRID*               2645               0-1.128842300E+00-8.273513203E-02+
*       -1.777457731E-01               0
GRID*               2646               0-1.179901598E+00-1.462186377E-01+
*       -1.880429825E-01               0
GRID*               2647               0-1.209674363E+005.7030699551E-01+
*       1.5022957419E-02               0
GRID*               2648               0-1.209674356E+005.8172227987E-01+
*       7.4596346282E-02               0
GRID*               2649               0-1.179919040E+006.3723292580E-01+
*       2.0129151229E-02               0
GRID*               2650               0-1.240843336E+006.0753992131E-01+
*       3.5152108649E-02               0
GRID*               2651               0-1.179919033E+006.4864821016E-01+
*       7.9702540092E-02               0
GRID*               2652               01.0474111260E+005.1672238008E-01+
*       -6.385716253E-02               0
GRID*               2653               01.0103295596E+005.8480687789E-01+
*       -6.385716253E-02               0
GRID*               2654               09.7434280735E-015.8637732776E-01+
*       -1.244975253E-01               0
GRID*               2655               09.2845536444E-016.4933536991E-01+
*       -3.209109346E-02               0
GRID*               2656               01.0086819094E+006.1792370560E-01+
*       -9.594825600E-02               0
GRID*               2657               08.9246861220E-016.5090581979E-01+
*       -9.273145626E-02               0
GRID*               2658               01.7123155153E+007.2965132015E-01+
*       -2.191882388E-01               0
GRID*               2659               01.6912476388E+006.9038034968E-01+
*       -2.191882388E-01               0
GRID*               2660               01.7492814056E+007.3029517743E-01+
*       -2.196997430E-01               0
GRID*               2661               01.7147469692E+007.0994649757E-01+
*       -1.888879818E-01               0
GRID*               2662               01.7282135292E+006.9102420695E-01+
*       -2.196997430E-01               0
GRID*               2663               01.7519897508E+00-5.965755012E-02+
*       -6.064777857E-02               0
GRID*               2664               01.8126870615E+00-2.253034862E-02+
*       -6.064777857E-02               0
GRID*               2665               01.8680210526E+00-3.846360187E-02+
*       -2.975132470E-02               0
GRID*               2666               01.8073237420E+00-7.559080336E-02+
*       -2.975132470E-02               0
GRID*               2667               01.7819581666E+00-6.099395049E-02+
*       -9.039910326E-02               0
GRID*               2668               01.3709193193E+006.3684284713E-01+
*       -1.449789179E-01               0
GRID*               2669               01.4209195433E+006.2276978911E-01+
*       -7.655659949E-02               0
GRID*               2670               01.4133360075E+005.6804314713E-01+
*       -1.382511498E-01               0
GRID*               2671               01.0972555667E+002.1171896445E-01+
*       -1.266634465E-01               0
GRID*               2672               01.0551795430E+001.6293642977E-01+
*       -6.652359993E-02               0
GRID*               2673               09.8831378867E-011.6530547386E-01+
*       -7.732402246E-02               0
GRID*               2674               01.0303898124E+002.1408800854E-01+
*       -1.374638690E-01               0
GRID*               2675               01.0388585518E+001.0274944243E-01+
*       -1.438476224E-01               0
GRID*               2676               01.2943790325E+005.4928439263E-01+
*       -1.934223184E-01               0
GRID*               2677               01.2545095795E+006.2187749413E-01+
*       -1.934223184E-01               0
GRID*               2678               01.2623448831E+004.5230999794E-01+
*       -1.919076231E-01               0
GRID*               2679               01.2667153502E+005.3117172135E-01+
*       -1.353299415E-01               0
GRID*               2680               0-1.880722413E+00-4.330156075E-01+
*       -3.080418884E-02               0
GRID*               2681               0-1.827894131E+00-3.895163758E-01+
*       -3.080418884E-02               0
GRID*               2682               0-1.847939115E+00-4.358471093E-01+
*       -3.080418884E-02               0
GRID*               2683               01.2099012950E+003.9033172331E-01+
*       -1.919076231E-01               0
GRID*               2684               0-6.798994169E-014.2529578778E-01+
*       -6.120514455E-02               0
GRID*               2685               0-7.147583720E-013.5773721437E-01+
*       -6.120514455E-02               0
GRID*               2686               0-7.529366955E-014.2936982343E-01+
*       -5.475799644E-02               0
GRID*               2687               0-7.180777404E-014.9692839684E-01+
*       -5.475799644E-02               0
GRID*               2688               0-7.177819628E-014.3768549532E-01+
*       -1.159631410E-01               0
GRID*               2689               0-7.871547294E-013.5806873191E-01+
*       -4.866319627E-02               0
GRID*               2690               0-7.901783202E-014.3801701286E-01+
*       -1.034211927E-01               0
GRID*               2691               0-7.519999967E-013.6638440380E-01+
*       -1.098683408E-01               0
GRID*               2692               01.8819196046E+004.3377256928E-01+
*       -3.210426843E-02               0
GRID*               2693               01.8491394892E+004.3661428127E-01+
*       -3.210426843E-02               0
GRID*               2694               01.8824879931E+004.6891198350E-01+
*       -3.008100443E-02               0
GRID*               2695               01.8656576502E+004.5268455278E-01+
*       -6.218527287E-02               0
GRID*               2696               01.8497078777E+004.7175369550E-01+
*       -3.008100443E-02               0
GRID*               2697               01.7740126510E+004.3689837570E-01+
*       -2.037945304E-02               0
GRID*               2698               01.7740115696E+004.3689578375E-01+
*       -6.204647975E-02               0
GRID*               2699               01.7850012313E+004.6072014092E-01+
*       -2.193853299E-02               0
GRID*               2700               01.7913844314E+004.3625165137E-01+
*       -4.231798603E-02               0
GRID*               2701               01.7850001499E+004.6071754897E-01+
*       -6.360555971E-02               0
GRID*               2702               0-7.188583345E-013.7067069818E-01+
*       -1.862051445E-01               0
GRID*               2703               0-7.570366580E-014.4230330723E-01+
*       -1.797579964E-01               0
GRID*               2704               0-7.912546920E-013.7100221572E-01+
*       -1.736631963E-01               0
GRID*               2705               0-7.956018704E-015.0474284180E-01+
*       -1.797579964E-01               0
GRID*               2706               0-8.298199044E-014.3344175028E-01+
*       -1.736631963E-01               0
GRID*               2707               01.7413111696E+002.6347733767E-01+
*       -5.640736651E-02               0
GRID*               2708               01.7546548723E+003.2786034569E-01+
*       -5.640736651E-02               0
GRID*               2709               01.8181656148E+003.2831757744E-01+
*       -3.047004828E-02               0
GRID*               2710               01.8048219121E+002.6393456942E-01+
*       -3.047004828E-02               0
GRID*               2711               01.7797200590E+002.9316763650E-01+
*       -8.687741478E-02               0
GRID*               2712               01.7513030765E+004.0564673567E-01+
*       -2.037945304E-02               0
GRID*               2713               01.7513028888E+004.0564661164E-01+
*       -6.204613353E-02               0
GRID*               2714               01.8121481980E+003.9042438509E-01+
*       -5.173433620E-02               0
GRID*               2715               01.8057639164E+004.1489028269E-01+
*       -7.302190988E-02               0
GRID*               2716               01.8231367783E+004.1424615031E-01+
*       -5.329341616E-02               0
GRID*               2717               0-7.576825476E-015.6714393446E-01+
*       -1.797579964E-01               0
GRID*               2718               0-7.973943216E-016.1547675430E-01+
*       -1.937907228E-01               0
GRID*               2719               0-8.353136445E-015.5307566164E-01+
*       -1.937907228E-01               0
GRID*               2720               0-7.956720604E-015.5765092422E-01+
*       -1.235487193E-01               0
GRID*               2721               0-1.198122212E+003.4114677272E-01+
*       6.4199304994E-01               0
GRID*               2722               0-1.198122223E+003.9523858781E-01+
*       6.7221055539E-01               0
GRID*               2723               0-1.212541453E+003.8598181852E-01+
*       6.1046229062E-01               0
GRID*               2724               0-1.212541442E+003.3189000343E-01+
*       5.8024478516E-01               0
GRID*               2725               0-1.261913700E+003.6631245637E-01+
*       6.3731514083E-01               0
GRID*               2726               0-1.281454609E+003.0722933862E-01+
*       6.8768377194E-01               0
GRID*               2727               0-1.295873840E+002.9797256932E-01+
*       6.2593550717E-01               0
GRID*               2728               0-1.335213537E+002.5834684649E-01+
*       6.5868428717E-01               0
GRID*               2729               0-1.301253397E+003.2668673353E-01+
*       6.7006392083E-01               0
GRID*               2730               0-1.315672627E+003.1742996424E-01+
*       6.0831565605E-01               0
GRID*               2731               01.7850090233E+004.9932929367E-01+
*       -2.193853299E-02               0
GRID*               2732               01.7850084212E+004.9933072725E-01+
*       -6.360499816E-02               0
GRID*               2733               09.3999267951E-014.0363647248E-01+
*       -1.126198590E-01               0
GRID*               2734               03.8027482761E-01-4.340778847E-01+
*       -6.246342337E-02               0
GRID*               2735               04.1768538715E-01-4.371636902E-01+
*       -1.219610030E-01               0
GRID*               2736               04.1840488513E-01-4.996918197E-01+
*       -5.949757965E-02               0
GRID*               2737               03.4271206034E-01-4.979440233E-01+
*       -6.257240637E-02               0
GRID*               2738               03.4199256236E-01-4.354158938E-01+
*       -1.250358297E-01               0
GRID*               2739               03.8012261988E-01-5.010298288E-01+
*       -1.220699860E-01               0
GRID*               2740               02.6710604275E-01-6.249718523E-01+
*       -6.250238670E-02               0
GRID*               2741               02.6637969884E-01-5.625148784E-01+
*       -1.250747931E-01               0
GRID*               2742               03.0515613899E-01-5.617390063E-01+
*       -6.257240637E-02               0
GRID*               2743               03.4335231353E-01-6.248845039E-01+
*       -6.248488691E-02               0
GRID*               2744               03.0457587338E-01-6.256603760E-01+
*       -1.249872736E-01               0
GRID*               2745               03.4262596962E-01-5.624275300E-01+
*       -1.250572933E-01               0
GRID*               2746               01.3356957196E+005.0255584152E-01+
*       1.0555266589E+00               0
GRID*               2747               01.3356957196E+004.9801684323E-01+
*       1.1184916287E+00               0
GRID*               2748               0-1.179543654E+00-7.176568450E-01+
*       3.3847007529E-01               0
GRID*               2749               0-1.179543654E+00-7.176568450E-01+
*       4.1347007529E-01               0
GRID*               2750               03.0406227238E-01-5.620569220E-01+
*       -1.875724064E-01               0
GRID*               2751               02.6601217614E-01-6.252897679E-01+
*       -1.875023867E-01               0
GRID*               2752               03.4225844692E-01-6.252024195E-01+
*       -1.874848869E-01               0
GRID*               2753               01.2117698515E+002.9378872809E-01+
*       1.2748117014E+00               0
GRID*               2754               01.2117698515E+002.2484358561E-01+
*       1.2593711257E+00               0
GRID*               2755               01.2029823701E+003.0171596752E-01+
*       1.1930526671E+00               0
GRID*               2756               01.2029823701E+003.7066111000E-01+
*       1.2084932427E+00               0
GRID*               2757               01.2660022741E+002.9813076357E-01+
*       1.2399377270E+00               0
GRID*               2758               02.2866326265E-01-4.365659818E-01+
*       -6.253834670E-02               0
GRID*               2759               02.6645386718E-01-3.731799158E-01+
*       -6.253834670E-02               0
GRID*               2760               02.6679643247E-01-4.990884899E-01+
*       -6.257240637E-02               0
GRID*               2761               02.6629662526E-01-4.367595244E-01+
*       -1.251107531E-01               0
GRID*               2762               03.0458703701E-01-4.357024239E-01+
*       -6.257240637E-02               0
GRID*               2763               03.8090823487E-01-5.610895208E-01+
*       -6.248488691E-02               0
GRID*               2764               04.1831879442E-01-5.641753264E-01+
*       -1.219824666E-01               0
GRID*               2765               01.3677503235E+003.6825507928E-01+
*       1.3626265283E+00               0
GRID*               2766               01.3670404288E+003.9654229563E-01+
*       1.3450033345E+00               0
GRID*               2767               01.3360408048E+003.4812021343E-01+
*       1.3340284067E+00               0
GRID*               2768               01.3045393501E+003.6497436897E-01+
*       1.3639243391E+00               0
GRID*               2769               0-3.788405279E-015.3406206526E-02+
*       -6.295261822E-02               0
GRID*               2770               0-3.413720294E-011.1604542633E-01+
*       -6.295261822E-02               0
GRID*               2771               0-3.035806112E-016.0038929650E-02+
*       -6.244205394E-02               0
GRID*               2772               0-3.410491098E-01-2.600290153E-03+
*       -6.244205394E-02               0
GRID*               2773               0-3.411848956E-015.4229455284E-02+
*       -1.253946722E-01               0
GRID*               2774               01.3368104361E+00-2.712276232E-01+
*       7.7574801850E-01               0
GRID*               2775               01.3784753890E+00-2.712286251E-01+
*       7.7574060672E-01               0
GRID*               2776               01.3777149492E+00-2.645939732E-01+
*       8.0326374214E-01               0
GRID*               2777               01.3360499962E+00-2.645929713E-01+
*       8.0327115392E-01               0
GRID*               2778               01.3574403906E+00-2.886178011E-01+
*       7.9174416974E-01               0
GRID*               2779               0-3.033811725E-01-6.326043371E-02+
*       -1.874420539E-01               0
GRID*               2780               0-3.414441640E-01-6.742473061E-02+
*       -1.276982933E-01               0
GRID*               2781               0-3.414318591E-01-1.289081229E-01+
*       -1.902562394E-01               0
GRID*               2782               0-2.657461352E-01-1.248835910E-01+
*       -1.875520085E-01               0
GRID*               2783               0-2.657584401E-01-6.340019870E-02+
*       -1.249940624E-01               0
GRID*               2784               0-3.038091267E-01-1.290478879E-01+
*       -1.278082479E-01               0
GRID*               2785               01.2159487752E+00-3.281018694E-01+
*       7.7850007761E-01               0
GRID*               2786               01.2159487724E+00-3.221719996E-01+
*       8.2159767226E-01               0
GRID*               2787               01.2159487724E+00-3.684326545E-01+
*       8.0248555891E-01               0
GRID*               2788               0-3.791175872E-015.5185546758E-02+
*       -1.879526182E-01               0
GRID*               2789               0-4.166828634E-015.1902003383E-02+
*       -1.314566577E-01               0
GRID*               2790               0-4.168241369E-01-3.148401821E-03+
*       -1.935040395E-01               0
GRID*               2791               0-3.413261690E-01-8.209499205E-04+
*       -1.874420539E-01               0
GRID*               2792               0-3.788914452E-01-4.104493296E-03+
*       -1.309460935E-01               0
GRID*               2793               0-3.041088336E-01-6.405286941E-02+
*       -6.244205394E-02               0
GRID*               2794               0-2.658687818E-01-1.693722241E-03+
*       -6.244205394E-02               0
GRID*               2795               0-2.664737963E-01-1.256760267E-01+
*       -6.255200848E-02               0
GRID*               2796               0-2.282337445E-01-6.331687955E-02+
*       -6.255200848E-02               0
GRID*               2797               0-4.165470776E-01-4.927742053E-03+
*       -6.850403953E-02               0
GRID*               2798               0-3.421595202E-01-1.297005586E-01+
*       -6.525623941E-02               0
GRID*               2799               0-1.334346194E+001.6810140117E-02+
*       9.6703635392E-02               0
GRID*               2800               0-1.264248870E+00-1.404898829E-02+
*       1.1494151104E-01               0
GRID*               2801               0-1.328652623E+00-3.085912841E-02+
*       1.8237875646E-02               0
GRID*               2802               0-1.335946405E+002.1049443229E-02+
*       3.0699507812E-02               0
GRID*               2803               0-1.271542652E+003.7859583347E-02+
*       1.2740314320E-01               0
GRID*               2804               0-1.265849081E+00-9.809685181E-03+
*       4.8937383458E-02               0
GRID*               2805               01.3368107656E+00-2.712297557E-01+
*       7.3848921286E-01               0
GRID*               2806               0-1.209346234E+00-1.620629842E-02+
*       1.6133852100E-01               0
GRID*               2807               0-1.209346235E+005.7663955678E-02+
*       1.6017351887E-01               0
GRID*               2808               0-1.203652664E+009.9946871496E-03+
*       8.1707759126E-02               0
GRID*               2809               0-1.203652663E+00-6.387556695E-02+
*       8.2872761252E-02               0
GRID*               2810               01.3773140342E+00-1.577422141E-01+
*       9.6075087324E-01               0
GRID*               2811               01.3356473675E+00-1.577422141E-01+
*       9.6075087324E-01               0
GRID*               2812               0-1.334346194E+00-1.932517465E-02+
*       1.7685186287E-01               0
GRID*               2813               0-1.328652623E+00-6.699444317E-02+
*       9.8386103128E-02               0
GRID*               2814               01.3773075436E+00-9.397649466E-02+
*       1.0052612121E+00               0
GRID*               2815               01.2950342763E+00-1.628376875E-01+
*       9.8850406440E-01               0
GRID*               2816               0-1.326522718E+00-1.367143989E-01+
*       1.8670542671E-01               0
GRID*               2817               0-1.326522718E+00-1.755790841E-01+
*       1.0655719923E-01               0
GRID*               2818               0-1.328652623E+00-1.058591284E-01+
*       1.8237875646E-02               0
GRID*               2819               0-1.256425394E+00-1.314382126E-01+
*       1.2479507488E-01               0
GRID*               2820               0-1.204836054E+00-1.162227514E-01+
*       -1.442779540E-01               0
GRID*               2821               0-1.236394233E+00-5.411815225E-02+
*       -6.299709580E-02               0
GRID*               2822               0-1.319162183E+00-8.014897979E-02+
*       -5.576623931E-02               0
GRID*               2823               07.5935666431E-024.3720764470E-01+
*       -1.875523629E-01               0
GRID*               2824               01.1385778900E-013.7467871471E-01+
*       -1.875523629E-01               0
GRID*               2825               01.5195276396E-014.3718453063E-01+
*       -1.874675639E-01               0
GRID*               2826               01.1403064139E-014.9971346062E-01+
*       -1.874675639E-01               0
GRID*               2827               01.1413390651E-014.3715303497E-01+
*       -1.250199268E-01               0
GRID*               2828               0-1.360331745E+002.9045895773E-02+
*       -6.921311252E-02               0
GRID*               2829               0-1.290234421E+00-1.813232638E-03+
*       -5.097523688E-02               0
GRID*               2830               0-1.389259507E+00-4.928985138E-02+
*       -7.400411496E-02               0
GRID*               2831               0-1.350841305E+00-2.024395561E-02+
*       -1.432172275E-01               0
GRID*               2832               0-1.235331805E+002.9045895773E-02+
*       -6.921311252E-02               0
GRID*               2833               0-1.268073355E+005.7868719346E-03+
*       -1.504480840E-01               0
GRID*               2834               0-1.181491617E+00-2.325902384E-02+
*       -8.123497144E-02               0
GRID*               2835               0-1.203652683E+00-3.085912841E-02+
*       1.8237875646E-02               0
GRID*               2836               0-5.311467390E-01-5.622569839E-01+
*       -1.875526068E-01               0
GRID*               2837               0-4.944111986E-01-5.627430131E-01+
*       -1.251292237E-01               0
GRID*               2838               0-5.691322998E-01-5.028411204E-01+
*       -1.869492082E-01               0
GRID*               2839               0-5.323967594E-01-5.033271496E-01+
*       -1.245258250E-01               0
GRID*               2840               0-5.693039398E-01-6.248702658E-01+
*       -1.875526068E-01               0
GRID*               2841               0-6.679708488E-01-3.770250801E-01+
*       -6.220501240E-02               0
GRID*               2842               0-6.089271418E-01-4.412438227E-01+
*       -6.194920816E-02               0
GRID*               2843               0-5.339741162E-01-5.632043381E-01+
*       -6.255260683E-02               0
GRID*               2844               0-5.719596770E-01-5.037884745E-01+
*       -6.194920816E-02               0
GRID*               2845               01.9043296493E-01-6.878738622E-01+
*       -1.250070631E-01               0
GRID*               2846               01.5212029308E-01-6.257631784E-01+
*       -1.250016913E-01               0
GRID*               2847               01.5262800672E-01-7.186500502E-01+
*       -9.375224627E-02               0
GRID*               2848               01.9052464439E-01-6.565239124E-01+
*       -9.374995654E-02               0
GRID*               2849               01.1431533488E-01-6.565393664E-01+
*       -9.374687441E-02               0
GRID*               2850               05.6909161835E-016.2513805560E-01+
*       -1.872428191E-01               0
GRID*               2851               05.7100307776E-015.6308727870E-01+
*       -1.186530096E-01               0
GRID*               2852               06.0778583483E-015.6189880210E-01+
*       -1.814101905E-01               0
GRID*               2853               06.4606997402E-016.2454852295E-01+
*       -1.833803622E-01               0
GRID*               2854               06.0928721694E-016.2573699955E-01+
*       -1.206231814E-01               0
GRID*               2855               05.3374770471E-014.3737965689E-01+
*       -5.587712099E-02               0
GRID*               2856               04.9417029175E-014.3679274995E-01+
*       -1.182990123E-01               0
GRID*               2857               04.9555047688E-015.0012305641E-01+
*       -6.242189128E-02               0
GRID*               2858               05.7241259204E-015.0027899428E-01+
*       -5.641019050E-02               0
GRID*               2859               05.7103240691E-014.3694868781E-01+
*       -1.122873115E-01               0
GRID*               2860               05.3283517908E-014.9969208734E-01+
*       -1.188320818E-01               0
GRID*               2861               05.3094418114E-014.3638640038E-01+
*       -1.808771210E-01               0
GRID*               2862               05.6784217518E-013.7331102795E-01+
*       -1.808771210E-01               0
GRID*               2863               05.6960906847E-014.9928573778E-01+
*       -1.814101905E-01               0
GRID*               2864               06.0650706251E-014.3621036534E-01+
*       -1.814101905E-01               0
GRID*               2865               05.3091485198E-015.6252499127E-01+
*       -1.872428191E-01               0
GRID*               2866               0-1.053487055E+005.2359905652E-01+
*       -6.484310436E-02               0
GRID*               2867               0-1.110990488E+005.3926390959E-01+
*       -6.484310436E-02               0
GRID*               2868               0-1.055106766E+006.0972094572E-01+
*       -5.207790163E-02               0
GRID*               2869               04.9414096259E-015.6293134084E-01+
*       -1.246647104E-01               0
GRID*               2870               05.3371837555E-015.6351824778E-01+
*       -6.224281912E-02               0
GRID*               2871               0-9.940865725E-016.3805518790E-01+
*       -1.770779016E-01               0
GRID*               2872               0-9.809935256E-01-4.867679164E-01+
*       -1.860666328E-01               0
GRID*               2873               0-9.401151662E-01-3.972033786E-01+
*       -1.261758462E-01               0
GRID*               2874               0-9.985983062E-01-4.538956936E-01+
*       -1.236832304E-01               0
GRID*               2875               0-9.521986343E-01-3.679098356E-01+
*       -1.277258110E-01               0
GRID*               2876               0-8.194479390E-01-1.814621100E-01+
*       -1.875558066E-01               0
GRID*               2877               0-8.548113749E-01-1.189785697E-01+
*       -1.875558066E-01               0
GRID*               2878               0-8.578446568E-01-2.770523857E-01+
*       -1.901092134E-01               0
GRID*               2879               0-8.553187765E-01-2.156272450E-01+
*       -1.276650200E-01               0
GRID*               2880               0-8.932080927E-01-2.145688454E-01+
*       -1.901092134E-01               0
GRID*               2881               0-7.566853404E-01-3.191499087E-01+
*       -2.042073558E-01               0
GRID*               2882               0-8.297171986E-01-3.170827423E-01+
*       -2.042073558E-01               0
GRID*               2883               0-8.118490428E-01-3.720783854E-01+
*       -1.872050124E-01               0
GRID*               2884               0-7.388171845E-01-3.741455519E-01+
*       -1.872050124E-01               0
GRID*               2885               0-7.446252143E-01-3.235220980E-01+
*       -1.414123682E-01               0
GRID*               2886               0-8.276213270E-01-3.406265863E-01+
*       -6.510921339E-02               0
GRID*               2887               0-8.689971468E-01-4.018359598E-01+
*       -6.510921339E-02               0
GRID*               2888               0-9.043000623E-01-3.367845565E-01+
*       -6.510921339E-02               0
GRID*               2889               0-9.490066462E-01-3.956150752E-01+
*       -6.510921339E-02               0
GRID*               2890               01.8546101844E+00-6.001772330E-01+
*       -4.193415349E-02               0
GRID*               2891               01.8217270452E+00-5.844236865E-01+
*       -8.524529473E-02               0
GRID*               2892               01.8223500031E+00-5.992026950E-01+
*       -1.153132064E-01               0
GRID*               2893               01.5025957551E+00-5.370707291E-01+
*       -1.883492799E-01               0
GRID*               2894               01.4536139581E+00-5.480005395E-01+
*       -1.772467459E-01               0
GRID*               2895               01.4808856299E+00-5.495552582E-01+
*       -1.555641663E-01               0
GRID*               2896               01.5160744805E+00-5.205775237E-01+
*       -1.871171919E-01               0
GRID*               2897               01.4888028087E+00-5.190228050E-01+
*       -2.087997715E-01               0
GRID*               2898               01.4670926835E+00-5.315073341E-01+
*       -1.760146579E-01               0
GRID*               2899               0-8.247290338E-01-1.773190042E-01+
*       -6.255580656E-02               0
GRID*               2900               0-7.897077144E-01-1.942817121E-01+
*       -1.417631624E-01               0
GRID*               2901               0-7.975146894E-01-2.515637470E-01+
*       -7.920735581E-02               0
GRID*               2902               0-8.631257515E-01-2.729092799E-01+
*       -6.510921339E-02               0
GRID*               2903               0-8.281044322E-01-2.898719878E-01+
*       -1.443165692E-01               0
GRID*               2904               01.5160823595E+00-4.819278465E-01+
*       -2.287838418E-01               0
GRID*               2905               01.5160745735E+00-5.205778202E-01+
*       -2.287838418E-01               0
GRID*               2906               01.5147999173E+00-4.615775086E-01+
*       -1.865989291E-01               0
GRID*               2907               01.4771005492E+00-4.208201413E-01+
*       -1.640286640E-01               0
GRID*               2908               01.4921840094E+00-4.205681132E-01+
*       -1.440964359E-01               0
GRID*               2909               01.5233101758E+00-4.421984344E-01+
*       -1.868590506E-01               0
GRID*               2910               01.5082267157E+00-4.424504625E-01+
*       -2.067912787E-01               0
GRID*               2911               01.4856108078E+00-4.014410671E-01+
*       -1.642887856E-01               0
GRID*               2912               0-7.620102650E-01-3.192810534E-01+
*       -7.920735581E-02               0
GRID*               2913               0-7.922335947E-01-2.557068528E-01+
*       -2.042073558E-01               0
GRID*               2914               0-1.221645313E+00-4.341006744E-01+
*       3.0920795545E-01               0
GRID*               2915               0-1.221645328E+00-4.900543068E-01+
*       2.7899643599E-01               0
GRID*               2916               0-1.201359755E+00-4.088593729E-01+
*       3.9595746249E-01               0
GRID*               2917               0-1.274255084E+00-4.492169387E-01+
*       3.3794333351E-01               0
GRID*               2918               0-1.201359769E+00-4.648130053E-01+
*       3.6574594303E-01               0
GRID*               2919               0-1.346645295E+00-4.641936555E-01+
*       3.0770310490E-01               0
GRID*               2920               0-1.285434308E+00-5.361329929E-01+
*       2.7848296385E-01               0
GRID*               2921               0-2.662331040E-017.1846800754E-01+
*       -2.168859642E-01               0
GRID*               2922               0-3.421831019E-017.1846800754E-01+
*       -2.168859642E-01               0
GRID*               2923               0-3.041899429E-016.5590800500E-01+
*       -2.168859642E-01               0
GRID*               2924               0-3.800823666E-016.8791553383E-01+
*       -1.873071285E-01               0
GRID*               2925               0-3.427408679E-016.8791553383E-01+
*       -1.248118897E-01               0
GRID*               2926               0-4.190088321E-016.8791553383E-01+
*       -1.248119440E-01               0
GRID*               2927               0-1.221645343E+00-5.481303978E-01+
*       2.4256718726E-01               0
GRID*               2928               0-1.294805583E+00-5.227699134E-01+
*       2.0608419876E-01               0
GRID*               2929               0-1.221910283E+00-5.964420710E-01+
*       1.9745755955E-01               0
GRID*               2930               0-1.285699249E+00-5.844446661E-01+
*       2.3337333614E-01               0
GRID*               2931               0-1.346645295E+00-4.865763107E-01+
*       1.8711836531E-01               0
GRID*               2932               0-1.346910236E+00-5.348879839E-01+
*       1.4200873760E-01               0
GRID*               2933               0-1.339565522E+00-4.646638296E-01+
*       1.1265697828E-01               0
GRID*               2934               0-1.287460870E+00-4.525457591E-01+
*       1.7673243944E-01               0
GRID*               2935               0-1.287725811E+00-5.008574323E-01+
*       1.3162281173E-01               0
GRID*               2936               0-3.806933127E-015.6117309203E-01+
*       -6.230712850E-02               0
GRID*               2937               0-3.423904305E-015.6559223907E-01+
*       -1.217014422E-01               0
GRID*               2938               0-4.179213711E-015.6164333415E-01+
*       -1.252713279E-01               0
GRID*               2939               0-1.147923929E+003.5581414632E-02+
*       -1.483641747E-01               0
GRID*               2940               0-1.206689611E+003.4478810315E-02+
*       -1.598718633E-01               0
GRID*               2941               0-1.121035206E+00-2.948022198E-02+
*       -5.274577312E-02               0
GRID*               2942               0-1.153776756E+00-5.273924582E-02+
*       -1.339807446E-01               0
GRID*               2943               0-1.087467518E+002.9360216491E-02+
*       -1.198749764E-01               0
GRID*               2944               0-1.336989480E+00-4.015514223E-01+
*       3.0134878649E-01               0
GRID*               2945               0-1.346645295E+00-4.419543652E-01+
*       2.4646183975E-01               0
GRID*               2946               0-1.284884828E+00-4.118160070E-01+
*       2.4483950807E-01               0
GRID*               2947               0-1.335642683E+004.3405099006E-02+
*       -1.942131125E-01               0
GRID*               2948               0-1.271463246E+003.4170022267E-02+
*       -1.942131125E-01               0
GRID*               2949               0-1.281802495E+00-8.899820605E-03+
*       -2.062349714E-01               0
GRID*               2950               0-1.217623058E+00-1.813489734E-02+
*       -2.062349714E-01               0
GRID*               2951               0-1.556224050E+00-3.899947591E-01+
*       -6.331923053E-02               0
GRID*               2952               0-1.516014716E+00-3.280579937E-01+
*       -8.591028275E-02               0
GRID*               2953               0-1.576808716E+00-3.813224927E-01+
*       -6.444661077E-02               0
GRID*               2954               0-1.557783713E+00-3.724241400E-01+
*       -4.443252017E-02               0
GRID*               2955               0-1.536599382E+00-3.193857273E-01+
*       -8.703766298E-02               0
GRID*               2956               0-1.306104841E+00-7.215006594E-01+
*       1.9906494460E-01               0
GRID*               2957               0-1.368548489E+00-7.215006594E-01+
*       1.6109823074E-01               0
GRID*               2958               0-1.367757776E+00-7.253797276E-01+
*       1.9082961932E-01               0
GRID*               2959               0-1.305314127E+00-7.253797276E-01+
*       2.2879633318E-01               0
GRID*               2960               0-1.337556317E+00-6.968803870E-01+
*       2.0192785006E-01               0
GRID*               2961               0-1.337538961E+00-6.739038728E-01+
*       3.0288605062E-01               0
GRID*               2962               0-1.337538961E+00-6.271542053E-01+
*       2.7139482690E-01               0
GRID*               2963               0-1.337538961E+00-6.029574376E-01+
*       3.4048601281E-01               0
GRID*               2964               0-1.179543643E+00-6.546818637E-01+
*       4.4605278828E-01               0
GRID*               2965               0-1.275095312E+00-6.739038728E-01+
*       2.6585276448E-01               0
GRID*               2966               0-1.284466587E+00-6.605407933E-01+
*       1.9345399939E-01               0
GRID*               2967               0-1.306546789E+00-6.492836004E-01+
*       2.6871566994E-01               0
GRID*               2968               0-1.315918064E+00-6.359205209E-01+
*       1.9631690484E-01               0
GRID*               2969               0-1.508690235E+00-3.970218898E-01+
*       -1.514749845E-01               0
GRID*               2970               0-1.559490399E+00-3.805814818E-01+
*       -1.868456312E-01               0
GRID*               2971               0-1.519280963E+00-3.186447834E-01+
*       -1.677700241E-01               0
GRID*               2972               0-1.492931377E+00-3.787103939E-01+
*       -1.716539759E-01               0
GRID*               2973               0-1.669102794E+00-2.832484896E-01+
*       -1.976858391E-01               0
GRID*               2974               0-1.630439349E+00-2.298595837E-01+
*       -1.976858391E-01               0
GRID*               2975               0-1.686976634E+00-2.259524288E-01+
*       -1.772876819E-01               0
GRID*               2976               0-1.725640079E+00-2.793413346E-01+
*       -1.772876819E-01               0
GRID*               2977               0-1.682664938E+00-2.775344336E-01+
*       -1.249735210E-01               0
GRID*               2978               0-1.576723925E+00-2.580047567E-01+
*       -7.268583906E-02               0
GRID*               2979               0-1.636589770E+00-2.794346031E-01+
*       -7.268583906E-02               0
GRID*               2980               0-1.547828336E+00-1.986729343E-01+
*       -6.744632710E-02               0
GRID*               2981               0-1.607694180E+00-2.201027806E-01+
*       -6.744632710E-02               0
GRID*               2982               0-1.601543759E+00-1.705277613E-01+
*       -1.924463271E-01               0
GRID*               2983               0-1.653769348E+00-2.182026112E-01+
*       -1.197340090E-01               0
GRID*               2984               0-1.367036252E+00-6.875269346E-03+
*       1.4687969092E+00               0
GRID*               2985               0-1.304535599E+002.9883145515E-02+
*       1.4669912308E+00               0
GRID*               2986               0-1.304536906E+00-4.363368421E-02+
*       1.4669912308E+00               0
GRID*               2987               0-1.366590648E+001.2432655750E-01+
*       1.4438317500E+00               0
GRID*               2988               0-1.304089997E+001.6002626859E-01+
*       1.4348890036E+00               0
GRID*               2989               0-1.304089995E+008.7926131212E-02+
*       1.4492312954E+00               0
GRID*               2990               0-1.693976085E+00-3.243136393E-01+
*       -1.356210152E-01               0
GRID*               2991               0-1.637438800E+00-3.282207943E-01+
*       -1.560191724E-01               0
GRID*               2992               0-1.664046894E+00-3.521308657E-01+
*       -1.865588068E-01               0
GRID*               2993               0-1.709273032E+00-3.014445050E-01+
*       -1.555131554E-01               0
GRID*               2994               0-1.652735747E+00-3.053516600E-01+
*       -1.759113125E-01               0
GRID*               2995               0-1.607398795E+00-1.556910431E-01+
*       -6.744632710E-02               0
GRID*               2996               0-1.692831669E+00-2.111157105E-01+
*       -5.228768191E-02               0
GRID*               2997               0-1.693127055E+00-2.755274481E-01+
*       -5.228768191E-02               0
GRID*               2998               0-1.637438800E+00-3.282207943E-01+
*       -1.143525057E-01               0
GRID*               2999               0-1.693976085E+00-3.243136393E-01+
*       -9.395434858E-02               0
GRID*               3000               0-1.649035265E+00-3.500341181E-01+
*       -6.285145408E-02               0
GRID*               3001               0-1.637724118E+00-3.032549124E-01+
*       -9.387062648E-02               0
GRID*               3002               0-1.694261403E+00-2.993477574E-01+
*       -7.347246933E-02               0
GRID*               3003               0-1.665963398E+00-3.640192585E-01+
*       -6.267285429E-02               0
GRID*               3004               0-1.666248716E+00-3.390533766E-01+
*       -4.219097504E-02               0
GRID*               3005               0-1.711189536E+00-3.133328978E-01+
*       -7.329386954E-02               0
GRID*               3006               01.3244249425E+00-1.376783793E-01+
*       1.4093184908E+00               0
GRID*               3007               01.2619242893E+00-1.012779530E-01+
*       1.4147180362E+00               0
GRID*               3008               01.3669062305E+00-1.031480610E-01+
*       1.4532228597E+00               0
GRID*               3009               01.2925812255E+00-9.450875802E-02+
*       1.3769527541E+00               0
GRID*               3010               01.3044055773E+00-6.674763474E-02+
*       1.4586224051E+00               0
GRID*               3011               01.1994249425E+00-1.376783793E-01+
*       1.4093184908E+00               0
GRID*               3012               01.1794682489E+00-1.084136969E-01+
*       1.4569335880E+00               0
GRID*               3013               01.2301432439E+00-9.977439391E-02+
*       1.3806634824E+00               0
GRID*               3014               01.1794682489E+00-7.081742701E-02+
*       1.3972557808E+00               0
GRID*               3015               01.2034270660E+005.5142292563E-02+
*       1.1269239841E+00               0
GRID*               3016               01.1959248969E+00-2.250816584E-02+
*       1.2305992286E+00               0
GRID*               3017               01.1959248969E+00-1.469397529E-02+
*       1.1748576162E+00               0
GRID*               3018               01.1994249425E+00-1.274675047E-01+
*       1.2868181281E+00               0
GRID*               3019               01.1959248969E+00-8.910975266E-02+
*       1.2257638186E+00               0
GRID*               3020               01.1994249425E+00-1.665424907E-01+
*       1.3376460612E+00               0
GRID*               3021               01.1797407510E+00-1.785329292E-01+
*       1.4449822761E+00               0
GRID*               3022               01.1797407510E+00-2.073970407E-01+
*       1.3733098464E+00               0
GRID*               3023               01.2304157459E+00-1.698936262E-01+
*       1.3687121705E+00               0
GRID*               3024               01.3244249425E+00-1.583286630E-01+
*       1.3266354962E+00               0
GRID*               3025               0-1.267123711E+005.0030753707E-02+
*       1.0517630815E+00               0
GRID*               3026               0-1.308790690E+005.0029404666E-02+
*       1.0517632589E+00               0
GRID*               3027               0-1.295870841E+00-5.153875203E-02+
*       1.0488991916E+00               0
GRID*               3028               0-1.254203861E+00-5.153740299E-02+
*       1.0488990141E+00               0
GRID*               3029               01.0716831756E+00-3.960017860E-01+
*       -7.101200175E-02               0
GRID*               3030               09.8438155618E-01-3.992686520E-01+
*       -7.101200175E-02               0
GRID*               3031               01.0178896954E+00-3.283270179E-01+
*       -7.101200175E-02               0
GRID*               3032               01.1967521804E+00-1.968055202E-01+
*       1.2699352692E+00               0
GRID*               3033               01.1967521804E+00-1.577305342E-01+
*       1.2191073362E+00               0
GRID*               3034               01.2474271754E+00-1.593021058E-01+
*       1.2653375933E+00               0
GRID*               3035               01.3217521804E+00-1.439731407E-01+
*       1.1988792369E+00               0
GRID*               3036               01.3217521804E+00-1.885916924E-01+
*       1.2589247043E+00               0
GRID*               3037               0-1.336426529E+005.7548076767E-01+
*       1.1194976672E+00               0
GRID*               3038               0-1.336426529E+004.9109309777E-01+
*       1.1057834437E+00               0
GRID*               3039               0-1.336426529E+005.2765003842E-01+
*       1.0486840325E+00               0
GRID*               3040               0-1.333877938E+004.2569915289E-01+
*       9.8145931766E-01               0
GRID*               3041               0-1.333877938E+005.0093816371E-01+
*       9.8850324888E-01               0
GRID*               3042               0-1.336426529E+004.5241102760E-01+
*       1.0416401013E+00               0
GRID*               3043               0-1.271554519E+005.0064751280E-01+
*       1.0121369050E+00               0
GRID*               3044               0-1.161950507E+008.2251600702E-02+
*       9.9894762916E-01               0
GRID*               3045               0-1.161950507E+004.5925664670E-02+
*       1.0072392235E+00               0
GRID*               3046               0-1.161950507E+007.2338548783E-02+
*       1.0454694248E+00               0
GRID*               3047               0-1.211426529E+005.7548076767E-01+
*       1.1194976672E+00               0
GRID*               3048               0-1.211426529E+005.0919062051E-01+
*       1.0512904316E+00               0
GRID*               3049               0-1.211426529E+005.0465162221E-01+
*       1.1142554014E+00               0
GRID*               3050               0-1.177548831E+003.9496068111E-02+
*       1.0103704796E+00               0
GRID*               3051               0-1.219214202E+003.9501585692E-02+
*       1.0103697323E+00               0
GRID*               3052               0-1.164583734E+002.7543399968E-02+
*       1.0136088662E+00               0
GRID*               3053               0-1.193382618E+004.8357195183E-02+
*       1.0246804144E+00               0
GRID*               3054               0-1.206249104E+002.7548917549E-02+
*       1.0136081188E+00               0
GRID*               3055               0-1.169575442E+001.6108491105E-02+
*       1.0285619402E+00               0
GRID*               3056               0-1.169575442E+00-6.684487807E-03+
*       1.0729045977E+00               0
GRID*               3057               0-1.169575442E+004.2521375217E-02+
*       1.0667921416E+00               0
GRID*               3058               0-1.308793387E+008.6344252226E-02+
*       1.0434750730E+00               0
GRID*               3059               04.5548571911E-015.6203351873E-01+
*       -1.874218913E-01               0
GRID*               3060               04.9274695330E-014.9912979991E-01+
*       -1.874218913E-01               0
GRID*               3061               04.9365361779E-016.2542871010E-01+
*       -1.872428191E-01               0
GRID*               3062               0-1.202748466E+00-1.203917396E-01+
*       3.5289046954E-01               0
GRID*               3063               0-1.202748475E+00-9.798801081E-02+
*       2.9174747892E-01               0
GRID*               3064               0-1.214500921E+00-1.610630943E-01+
*       3.0756451608E-01               0
GRID*               3065               0-1.214500911E+00-1.834668232E-01+
*       3.6870750670E-01               0
GRID*               3066               0-1.268499413E+00-1.295286408E-01+
*       3.4421336790E-01               0
GRID*               3067               05.3419611288E-016.8816326610E-01+
*       -6.224281912E-02               0
GRID*               3068               05.7235911149E-016.2578288257E-01+
*       -6.224281912E-02               0
GRID*               3069               04.9573684917E-016.2576188830E-01+
*       -6.224281912E-02               0
GRID*               3070               06.0691594375E-016.5546816920E-01+
*       -2.186780817E-01               0
GRID*               3071               05.7013318667E-016.5665664580E-01+
*       -1.559209009E-01               0
GRID*               3072               06.4711154234E-016.5606711315E-01+
*       -1.520584440E-01               0
GRID*               3073               04.5756895049E-015.6236669693E-01+
*       -6.242189128E-02               0
GRID*               3074               0-1.376983450E+002.1454980177E-01+
*       5.8768421609E-01               0
GRID*               3075               0-1.335315799E+002.1454722401E-01+
*       5.8768089174E-01               0
GRID*               3076               0-1.335318497E+001.8921201672E-01+
*       5.6037540597E-01               0
GRID*               3077               0-1.201522736E+00-1.653403163E-01+
*       2.3410651278E-01               0
GRID*               3078               0-1.201522758E+00-1.335955227E-01+
*       1.7119208484E-01               0
GRID*               3079               01.3329851843E+00-3.122121886E-01+
*       2.6945403527E-01               0
GRID*               3080               01.3329851843E+00-3.699076002E-01+
*       3.1323402129E-01               0
GRID*               3081               01.3332314033E+00-3.469535710E-01+
*       3.6647554344E-01               0
GRID*               3082               01.3332314033E+00-2.892581595E-01+
*       3.2269555742E-01               0
GRID*               3083               01.2674666400E+00-3.231180626E-01+
*       3.1248748030E-01               0
GRID*               3084               01.2082314131E+00-3.298664494E-01+
*       4.2010236314E-01               0
GRID*               3085               01.2764606035E+00-3.069984988E-01+
*       4.4092903692E-01               0
GRID*               3086               01.2693557838E+00-3.643532577E-01+
*       4.0057432171E-01               0
GRID*               3087               01.2015658683E+00-1.921890611E-01+
*       3.3514592382E-01               0
GRID*               3088               01.2015658598E+00-2.048717156E-01+
*       3.9895972352E-01               0
GRID*               3089               01.2082314150E+00-2.507226881E-01+
*       3.5443809085E-01               0
GRID*               3090               01.2610473124E+00-2.416304065E-01+
*       3.4643683542E-01               0
GRID*               3091               01.2082314064E+00-2.634053426E-01+
*       4.1825189055E-01               0
GRID*               3092               01.2691095648E+00-3.873072868E-01+
*       3.4733279956E-01               0
GRID*               3093               01.2015658813E+00-2.323327059E-01+
*       2.8316483847E-01               0
GRID*               3094               01.2082314280E+00-2.908663328E-01+
*       3.0245700550E-01               0
GRID*               3095               0-1.702685243E+00-3.759458527E-01+
*       -2.100618763E-02               0
GRID*               3096               0-1.665963398E+00-3.640192585E-01+
*       -2.100618763E-02               0
GRID*               3097               0-1.702688577E+00-3.759484247E-01+
*       -6.267231922E-02               0
GRID*               3098               01.5548329574E+005.5817711296E-02+
*       -6.020436546E-02               0
GRID*               3099               01.4924822938E+001.7976599135E-02+
*       -6.020436546E-02               0
GRID*               3100               01.3777623705E+007.8812604134E-02+
*       -6.717271400E-02               0
GRID*               3101               01.4401130341E+001.1665371630E-01+
*       -6.717271400E-02               0
GRID*               3102               01.4714947168E+009.6789203268E-02+
*       -1.273770795E-01               0
GRID*               3103               01.5112861744E+002.4547940799E-01+
*       -1.924752170E-01               0
GRID*               3104               01.4431482719E+002.4353601201E-01+
*       -1.924752170E-01               0
GRID*               3105               01.4304110346E+001.8490391152E-01+
*       -1.921727140E-01               0
GRID*               3106               01.4376499334E+002.1820070474E-01+
*       -1.346479310E-01               0
GRID*               3107               01.2079852090E+00-3.138203620E-01+
*       2.4921548334E-01               0
GRID*               3108               01.2608010934E+00-2.645844357E-01+
*       2.9319531327E-01               0
GRID*               3109               03.7899232842E-011.8738772691E-01+
*       -1.874391397E-01               0
GRID*               3110               04.1668133909E-011.2482347267E-01+
*       -1.874391397E-01               0
GRID*               3111               04.1684474989E-012.4646690339E-01+
*       -1.842468357E-01               0
GRID*               3112               04.1718950432E-011.8443749040E-01+
*       -1.216859755E-01               0
GRID*               3113               04.5453376056E-011.8390264915E-01+
*       -1.842468357E-01               0
GRID*               3114               0-1.331929021E+004.0831352042E-01+
*       1.1518826027E+00               0
GRID*               3115               0-1.331929021E+003.6963145024E-01+
*       1.0877392602E+00               0
GRID*               3116               0-1.269605602E+004.4457981016E-01+
*       1.1184168475E+00               0
GRID*               3117               01.6813352634E+002.2065693635E-01+
*       -5.640736651E-02               0
GRID*               3118               01.7663592386E+001.9309732989E-01+
*       -6.023548225E-02               0
GRID*               3119               01.7063833324E+001.5027692857E-01+
*       -6.023548225E-02               0
GRID*               3120               01.7412573855E+002.2233039697E-01+
*       -1.166428488E-01               0
GRID*               3121               01.6182405232E+001.8434280467E-02+
*       -6.020436546E-02               0
GRID*               3122               01.6793089313E+005.5888857280E-02+
*       -6.020436546E-02               0
GRID*               3123               01.7495136990E+001.5381909522E-02+
*       -6.064777857E-02               0
GRID*               3124               01.6884452909E+00-2.207266729E-02+
*       -6.064777857E-02               0
GRID*               3125               01.6564194077E+00-4.553749489E-03+
*       -1.208521440E-01               0
GRID*               3126               01.7693543386E+001.1388745274E-01+
*       -6.023548225E-02               0
GRID*               3127               05.2855956444E-011.9393093311E-01+
*       -1.806375349E-01               0
GRID*               3128               05.6676038209E-011.9335087398E-01+
*       -1.102947798E-01               0
GRID*               3129               05.6684996792E-012.4788586345E-01+
*       -1.796572449E-01               0
GRID*               3130               04.9184553803E-012.4599129473E-01+
*       -1.842468357E-01               0
GRID*               3131               04.9175595220E-011.9145630526E-01+
*       -1.148843707E-01               0
GRID*               3132               05.3004635568E-012.4541123560E-01+
*       -1.139040807E-01               0
GRID*               3133               05.3050833492E-013.1125763650E-01+
*       -1.808771210E-01               0
GRID*               3134               01.2573866926E+00-2.529636213E-01+
*       9.0011401686E-01               0
GRID*               3135               01.1695648266E+00-2.156114133E-01+
*       9.0456321998E-01               0
GRID*               3136               01.2112301967E+00-2.366024978E-01+
*       8.7377176980E-01               0
GRID*               3137               01.2112310834E+00-2.156124449E-01+
*       9.0456185419E-01               0
GRID*               3138               0-7.901333133E-011.3349272679E-01+
*       -6.218653339E-02               0
GRID*               3139               0-8.739725324E-011.3152416344E-01+
*       -5.443349743E-02               0
GRID*               3140               0-8.468496297E-011.9960022458E-01+
*       -5.443349743E-02               0
GRID*               3141               0-8.235415266E-011.2003077525E-01+
*       -1.166200308E-01               0
GRID*               3142               01.2333054869E+00-1.845277444E-01+
*       9.9916770797E-01               0
GRID*               3143               01.1919093443E+00-1.429147642E-01+
*       9.9861727603E-01               0
GRID*               3144               0-7.601318200E-019.0299457187E-02+
*       -1.871865334E-01               0
GRID*               3145               0-7.530565502E-011.4686337492E-01+
*       -1.270505345E-01               0
GRID*               3146               0-7.463631599E-011.8323955464E-01+
*       -1.898640011E-01               0
GRID*               3147               0-8.168481364E-011.5640695498E-01+
*       -1.794334974E-01               0
GRID*               3148               0-8.097728666E-012.1297087271E-01+
*       -1.192974985E-01               0
GRID*               3149               0-6.086317603E-011.8000143991E-01+
*       -1.752700633E-01               0
GRID*               3150               0-6.466448448E-012.4242445555E-01+
*       -1.752700633E-01               0
GRID*               3151               0-6.723251629E-011.8275963571E-01+
*       -1.898640011E-01               0
GRID*               3152               0-6.755944876E-012.3704527658E-01+
*       -1.151340644E-01               0
GRID*               3153               0-7.103382474E-012.4518265135E-01+
*       -1.898640011E-01               0
GRID*               3154               01.3379559549E+00-1.607689089E-01+
*       1.1414236421E+00               0
GRID*               3155               01.3217521804E+00-2.070432620E-01+
*       1.1866735476E+00               0
GRID*               3156               01.2609581878E+00-1.432907822E-01+
*       1.1523768959E+00               0
GRID*               3157               0-7.851602348E-012.4501142383E-01+
*       -1.898640011E-01               0
GRID*               3158               0-8.556452112E-012.1817882416E-01+
*       -1.794334974E-01               0
GRID*               3159               08.6923514815E-014.0705390807E-01+
*       -5.124193269E-02               0
GRID*               3160               08.2782311789E-013.4587799424E-01+
*       -5.124193269E-02               0
GRID*               3161               08.1924157974E-014.8782809407E-01+
*       -6.753289972E-02               0
GRID*               3162               08.4426132254E-014.0236544470E-01+
*       -1.187748324E-01               0
GRID*               3163               06.4482277587E-011.0496574610E-01+
*       -6.658703120E-02               0
GRID*               3164               06.0886091389E-011.1101556007E-01+
*       -1.222245661E-01               0
GRID*               3165               05.6443184059E-011.3334612967E-01+
*       -5.563753493E-02               0
GRID*               3166               06.0272224407E-011.8730106001E-01+
*       -5.465724492E-02               0
GRID*               3167               06.4715131738E-011.6497049042E-01+
*       -1.212442761E-01               0
GRID*               3168               03.4214803713E-011.2586822717E-01+
*       -6.243913974E-02               0
GRID*               3169               03.8026673088E-011.8818264742E-01+
*       -6.243913974E-02               0
GRID*               3170               04.1708919884E-011.2654951982E-01+
*       -6.243913974E-02               0
GRID*               3171               0-1.199827257E+00-3.983375772E-01+
*       1.0169468646E+00               0
GRID*               3172               0-1.199827257E+00-4.036609237E-01+
*       9.7015773677E-01               0
GRID*               3173               0-1.199827257E+00-4.505661025E-01+
*       9.9461363390E-01               0
GRID*               3174               05.6870915258E-013.1067757738E-01+
*       -1.105343659E-01               0
GRID*               3175               06.0418380818E-013.0993925490E-01+
*       -1.796572449E-01               0
GRID*               3176               06.6781494172E-013.7356634812E-01+
*       -1.913264624E-01               0
GRID*               3177               06.3234028612E-013.7430467060E-01+
*       -1.222035834E-01               0
GRID*               3178               06.6868191912E-013.1093289755E-01+
*       -1.209837073E-01               0
GRID*               3179               06.4075872104E-012.4682925030E-01+
*       -1.796572449E-01               0
GRID*               3180               07.0438985459E-013.1045634353E-01+
*       -1.913264624E-01               0
GRID*               3181               07.6619616787E-013.2342168628E-01+
*       -7.346633876E-02               0
GRID*               3182               07.2525596873E-012.6221767979E-01+
*       -7.346633876E-02               0
GRID*               3183               07.0591199962E-013.1115835379E-01+
*       -6.632646242E-02               0
GRID*               3184               07.5165702178E-013.2561931678E-01+
*       -1.397928012E-01               0
GRID*               3185               08.1462915909E-013.7007198176E-01+
*       -1.913264624E-01               0
GRID*               3186               08.3397312820E-013.2113130776E-01+
*       -1.984663388E-01               0
GRID*               3187               08.9560007823E-013.4358761572E-01+
*       -1.762419327E-01               0
GRID*               3188               08.1328397181E-013.4807562474E-01+
*       -1.175683951E-01               0
GRID*               3189               08.3262794092E-012.9913495074E-01+
*       -1.247082714E-01               0
GRID*               3190               08.4560650982E-014.2436180172E-01+
*       -1.925328997E-01               0
GRID*               3191               06.8802588824E-012.6199222355E-01+
*       -1.281235837E-01               0
GRID*               3192               07.2373382370E-012.6151566953E-01+
*       -1.984663388E-01               0
GRID*               3193               03.4269704316E-012.4724846771E-01+
*       -5.934265999E-02               0
GRID*               3194               03.0500255514E-013.0930770348E-01+
*       -5.934265999E-02               0
GRID*               3195               03.8074356650E-013.1611402814E-01+
*       -5.939865494E-02               0
GRID*               3196               03.4224423075E-013.1235551493E-01+
*       -1.187413149E-01               0
GRID*               3197               03.4304907848E-013.7817326390E-01+
*       -5.939865494E-02               0
GRID*               3198               06.4228086607E-012.4753126057E-01+
*       -5.465724492E-02               0
GRID*               3199               01.2051220911E+004.0198288079E-01+
*       1.4534413263E-01               0
GRID*               3200               01.2051221062E+004.6948697023E-01+
*       1.0166530575E-01               0
GRID*               3201               01.2163256111E+003.9724382517E-01+
*       2.5498644305E-01               0
GRID*               3202               01.2726976912E+004.2224096088E-01+
*       1.7743230445E-01               0
GRID*               3203               01.2163256262E+004.6474791461E-01+
*       2.1130761617E-01               0
GRID*               3204               01.3413255794E+004.0130308976E-01+
*       2.0108816436E-01               0
GRID*               3205               01.3301220594E+004.0604214538E-01+
*       9.1445853934E-02               0
GRID*               3206               01.3293752007E+003.4488273355E-01+
*       1.2882989231E-01               0
GRID*               3207               01.2719508325E+003.6108154905E-01+
*       2.1481634282E-01               0
GRID*               3208               01.2607473125E+003.6582060467E-01+
*       1.0517403240E-01               0
GRID*               3209               01.2168913592E+005.4593481842E-01+
*       1.3546714245E-01               0
GRID*               3210               01.2150505750E+005.2134815930E-01+
*       6.7731600037E-02               0
GRID*               3211               01.2051221069E+004.0186934616E-01+
*       8.3913549290E-02               0
GRID*               3212               01.2051221190E+003.6349000825E-01+
*       3.3894997013E-02               0
GRID*               3213               01.2043752603E+003.0233059642E-01+
*       7.1279035386E-02               0
GRID*               3214               01.2043752483E+003.4070993433E-01+
*       1.2129758766E-01               0
GRID*               3215               01.3301220594E+004.6123639983E-01+
*       1.4470413339E-01               0
GRID*               3216               01.3413255794E+004.5649734421E-01+
*       2.5434644381E-01               0
GRID*               3217               01.3418913124E+005.3768424802E-01+
*       1.7850597009E-01               0
GRID*               3218               01.2844669442E+004.9868880906E-01+
*       2.1123414115E-01               0
GRID*               3219               01.3418913124E+005.8993785644E-01+
*       6.7696833714E-02               0
GRID*               3220               0-1.211798497E+004.1849540624E-01+
*       4.0652657736E-01               0
GRID*               3221               0-1.270281895E+004.5158859231E-01+
*       4.1578011743E-01               0
GRID*               3222               0-1.207233390E+004.7350411101E-01+
*       3.8084927661E-01               0
GRID*               3223               0-1.208192026E+004.2798881400E-01+
*       3.2969513699E-01               0
GRID*               3224               0-1.271240531E+004.0607329531E-01+
*       3.6462597780E-01               0
GRID*               3225               0-1.266675424E+004.6108200008E-01+
*       3.3894867706E-01               0
GRID*               3226               06.0840489125E-01-5.621187088E-01+
*       -5.374934315E-02               0
GRID*               3227               06.8381643515E-01-5.607448689E-01+
*       -5.664903062E-02               0
GRID*               3228               06.4769167210E-01-6.273206461E-01+
*       -5.664903062E-02               0
GRID*               3229               06.4650161692E-01-5.701230136E-01+
*       -1.103983738E-01               0
GRID*               3230               04.1921288481E-01-6.877865138E-01+
*       -1.249901672E-01               0
GRID*               3231               03.8186941654E-01-6.877865138E-01+
*       -6.248488691E-02               0
GRID*               3232               04.2041886114E-01-7.181958435E-01+
*       -3.124472063E-02               0
GRID*               3233               04.5776232940E-01-7.181958435E-01+
*       -9.375000092E-02               0
GRID*               3234               04.1937158876E-01-6.559823573E-01+
*       -9.372960753E-02               0
GRID*               3235               0-1.342085742E+006.3470141504E-01+
*       4.1201068760E-01               0
GRID*               3236               0-1.275569162E+005.7624284495E-01+
*       4.1970850490E-01               0
GRID*               3237               0-1.332233367E+005.6505586717E-01+
*       3.8240499938E-01               0
GRID*               3238               0-1.329369575E+006.2333197865E-01+
*       3.3709862787E-01               0
GRID*               3239               0-1.272705369E+006.3451895643E-01+
*       3.7440213338E-01               0
GRID*               3240               0-1.262852995E+005.6487340856E-01+
*       3.4479644517E-01               0
GRID*               3241               0-1.336798475E+004.3972751256E-01+
*       4.4943171588E-01               0
GRID*               3242               0-1.332233367E+004.9473621732E-01+
*       4.2375441514E-01               0
GRID*               3243               0-1.328905024E+004.8655399917E-01+
*       4.9479455566E-01               0
GRID*               3244               0-1.266953551E+004.4340637416E-01+
*       4.8682025794E-01               0
GRID*               3245               0-1.262388444E+004.9841507893E-01+
*       4.6114295720E-01               0
GRID*               3246               0-1.207233417E+005.7483991945E-01+
*       3.8669029173E-01               0
GRID*               3247               0-1.207233399E+005.2123801019E-01+
*       4.1977607512E-01               0
GRID*               3248               0-1.217085774E+005.9088355806E-01+
*       4.4938176333E-01               0
GRID*               3249               0-1.217085792E+006.4448546732E-01+
*       4.1629597994E-01               0
GRID*               3250               0-1.204369625E+006.3311603092E-01+
*       3.4138392021E-01               0
GRID*               3251               05.3454317645E-01-6.874990724E-01+
*       -6.251994687E-02               0
GRID*               3252               05.7156660512E-01-6.874990724E-01+
*       -1.250296580E-01               0
GRID*               3253               04.9530330693E-01-6.874990724E-01+
*       -1.250252272E-01               0
GRID*               3254               0-1.878641799E+00-3.029087910E-01+
*       -2.193827270E-01               0
GRID*               3255               0-1.830083950E+00-3.308990822E-01+
*       -2.193827270E-01               0
GRID*               3256               0-1.836874418E+00-2.760896676E-01+
*       -2.193827270E-01               0
GRID*               3257               0-1.752759431E+00-2.039319133E-01+
*       -1.772876819E-01               0
GRID*               3258               0-1.777208704E+00-2.599945159E-01+
*       -1.772876819E-01               0
GRID*               3259               05.6582563709E-011.3120542133E-01+
*       -1.806375349E-01               0
GRID*               3260               06.4621657237E-011.0282503776E-01+
*       -1.915870312E-01               0
GRID*               3261               06.0411604057E-011.8516035167E-01+
*       -1.796572449E-01               0
GRID*               3262               0-1.878641799E+00-2.279087910E-01+
*       -2.193827270E-01               0
GRID*               3263               0-1.883125894E+00-1.794346871E-01+
*       -2.279122885E-01               0
GRID*               3264               0-1.863017745E+00-2.573434782E-01+
*       -1.972950156E-01               0
GRID*               3265               0-1.841358512E+00-2.276155637E-01+
*       -2.279122885E-01               0
GRID*               3266               05.7389318830E-01-5.098726061E-03+
*       -1.775189858E-01               0
GRID*               3267               06.1068555480E-015.6762287076E-02+
*       -1.775189858E-01               0
GRID*               3268               05.2903327060E-016.9344408190E-02+
*       -1.806375349E-01               0
GRID*               3269               05.7332989632E-016.4952809382E-02+
*       -1.081565207E-01               0
GRID*               3270               01.5601717637E+003.8031771044E-01+
*       -1.873408134E-01               0
GRID*               3271               01.4998149612E+003.6820142395E-01+
*       -1.690477185E-01               0
GRID*               3272               01.5149135128E+003.8676291690E-01+
*       -1.483743374E-01               0
GRID*               3273               01.5515156122E+003.9930885507E-01+
*       -1.870627932E-01               0
GRID*               3274               01.5364170606E+003.8074736213E-01+
*       -2.077361744E-01               0
GRID*               3275               01.4911588097E+003.8719256859E-01+
*       -1.687696984E-01               0
GRID*               3276               01.4316715470E+004.5248398794E-01+
*       -2.211899289E-02               0
GRID*               3277               01.4240880113E+004.7275734596E-01+
*       -8.381354317E-02               0
GRID*               3278               01.4308548024E+004.7324570456E-01+
*       -2.103888567E-02               0
GRID*               3279               01.4637764019E+004.7572969249E-01+
*       -4.315787856E-02               0
GRID*               3280               01.4232712667E+004.9351906258E-01+
*       -8.273343594E-02               0
GRID*               3281               05.7218568926E-01-1.682838618E-03+
*       -5.251898578E-02               0
GRID*               3282               05.3596070382E-012.2900971989E-03+
*       -1.205518131E-01               0
GRID*               3283               05.2732577156E-017.2760295633E-02+
*       -5.563753493E-02               0
GRID*               3284               04.9110078611E-017.6733231450E-02+
*       -1.236703623E-01               0
GRID*               3285               04.5387859447E-016.9179575344E-02+
*       -1.930328273E-01               0
GRID*               3286               04.9124778697E-011.3184228753E-01+
*       -1.806375349E-01               0
GRID*               3287               04.1653433823E-016.9714416595E-02+
*       -1.304719671E-01               0
GRID*               3288               04.5390353073E-011.3237712878E-01+
*       -1.180766747E-01               0
GRID*               3289               04.9166407809E-016.6816960075E-03+
*       -1.930328273E-01               0
GRID*               3290               01.5171460610E+004.4576460207E-01+
*       -1.878856329E-01               0
GRID*               3291               01.4794906970E+004.0240064398E-01+
*       -1.695929040E-01               0
GRID*               3292               01.4922120744E+004.1801058850E-01+
*       -1.483739713E-01               0
GRID*               3293               01.5070982914E+004.7124160978E-01+
*       -1.862192117E-01               0
GRID*               3294               01.4943769140E+004.5563166526E-01+
*       -2.074381444E-01               0
GRID*               3295               01.4694429274E+004.2787765170E-01+
*       -1.679264828E-01               0
GRID*               3296               0-1.210671627E+00-4.007555620E-01+
*       8.3018250590E-01               0
GRID*               3297               0-1.210671633E+00-3.463000766E-01+
*       7.7594684625E-01               0
GRID*               3298               0-1.214131170E+00-4.464123132E-01+
*       8.0484609708E-01               0
GRID*               3299               0-1.276052850E+00-3.922592773E-01+
*       7.8648196448E-01               0
GRID*               3300               0-1.214131176E+00-3.919568278E-01+
*       7.5061043743E-01               0
GRID*               3301               01.4266533290E+003.3732331521E-01+
*       -6.504062124E-02               0
GRID*               3302               01.4785524091E+003.6909515951E-01+
*       -6.504062124E-02               0
GRID*               3303               01.4586375104E+002.8938810061E-01+
*       -6.747521703E-02               0
GRID*               3304               01.4865408918E+003.2671141582E-01+
*       -1.325158383E-01               0
GRID*               3305               01.5105365905E+003.2115994491E-01+
*       -6.747521703E-02               0
GRID*               3306               01.4586375104E+002.1438810061E-01+
*       -6.747521703E-02               0
GRID*               3307               01.3681425799E+002.9177453720E-01+
*       -7.109715474E-02               0
GRID*               3308               01.4280301427E+002.8116263781E-01+
*       -1.385723718E-01               0
GRID*               3309               01.3681425799E+002.1677453720E-01+
*       -7.109715474E-02               0
GRID*               3310               0-1.336045243E+00-2.061686487E-01+
*       9.2083161157E-01               0
GRID*               3311               0-1.320031912E+00-2.454270219E-01+
*       9.7727147539E-01               0
GRID*               3312               0-1.299404102E+00-2.225228235E-01+
*       9.7647987510E-01               0
GRID*               3313               0-1.335536156E+00-1.908552649E-01+
*       9.4266899979E-01               0
GRID*               3314               0-1.356163965E+00-2.137594633E-01+
*       9.4346060008E-01               0
GRID*               3315               0-1.319522824E+00-2.301136381E-01+
*       9.9910886361E-01               0
GRID*               3316               0-1.281284103E+00-4.587273798E-01+
*       1.2332897441E+00               0
GRID*               3317               0-1.284766721E+00-3.775283631E-01+
*       1.1522854198E+00               0
GRID*               3318               0-1.277233108E+00-3.945971196E-01+
*       1.2487523311E+00               0
GRID*               3319               0-1.242428482E+00-4.673838698E-01+
*       1.3012792834E+00               0
GRID*               3320               0-1.249962096E+00-4.503151133E-01+
*       1.2048123721E+00               0
GRID*               3321               0-1.245911101E+00-3.861848531E-01+
*       1.2202749591E+00               0
GRID*               3322               0-1.223818711E+00-3.317443577E-01+
*       7.0144785538E-01               0
GRID*               3323               0-1.223818714E+00-3.494137724E-01+
*       6.4179935177E-01               0
GRID*               3324               0-1.214131179E+00-4.096262425E-01+
*       6.9096193383E-01               0
GRID*               3325               0-1.289199927E+00-3.777035584E-01+
*       7.1198297361E-01               0
GRID*               3326               0-1.339131170E+00-4.695255613E-01+
*       6.9196825066E-01               0
GRID*               3327               0-1.339131170E+00-4.700289015E-01+
*       7.5200571128E-01               0
GRID*               3328               0-1.337188537E+00-5.296204101E-01+
*       6.4650036769E-01               0
GRID*               3329               0-1.277569760E+00-4.980108774E-01+
*       7.1567767269E-01               0
GRID*               3330               0-1.337188537E+00-5.301237503E-01+
*       7.0653782831E-01               0
GRID*               3331               0-1.211707872E+00-2.379855684E-01+
*       8.8028604178E-01               0
GRID*               3332               0-1.240722663E+00-2.818299849E-01+
*       9.1690382941E-01               0
GRID*               3333               0-1.261100039E+00-2.690879311E-01+
*       8.9508014420E-01               0
GRID*               3334               0-1.212456227E+00-2.487897628E-01+
*       8.5651714935E-01               0
GRID*               3335               0-1.192078851E+00-2.615318165E-01+
*       8.7834083455E-01               0
GRID*               3336               0-1.241471018E+00-2.926341792E-01+
*       8.9313493698E-01               0
GRID*               3337               0-1.219432389E+00-3.386362603E-01+
*       9.7830974182E-01               0
GRID*               3338               0-1.219432389E+00-3.439596068E-01+
*       9.3152061398E-01               0
GRID*               3339               0-1.270509699E+00-3.726336644E-01+
*       9.7033505462E-01               0
GRID*               3340               0-1.337724818E+00-4.719552035E-01+
*       5.9783151983E-01               0
GRID*               3341               0-1.278106041E+00-4.403456707E-01+
*       6.6700882483E-01               0
GRID*               3342               0-1.276163408E+00-5.004405195E-01+
*       6.2154094186E-01               0
GRID*               3343               0-1.344432389E+00-3.250470139E-01+
*       9.6335966294E-01               0
GRID*               3344               0-1.344432389E+00-3.845085683E-01+
*       9.5087644167E-01               0
GRID*               3345               0-1.336474115E+008.7961675092E-02+
*       1.0039373086E+00               0
GRID*               3346               0-1.336471418E+005.1646827531E-02+
*       1.0122254945E+00               0
GRID*               3347               0-1.329847461E+008.2985622220E-02+
*       1.0646909618E+00               0
GRID*               3348               0-1.223075126E+00-1.459371884E-01+
*       1.1945775707E+00               0
GRID*               3349               0-1.295699233E+00-1.580490600E-01+
*       1.2597248616E+00               0
GRID*               3350               0-1.221374055E+00-1.104930177E-01+
*       1.2652789634E+00               0
GRID*               3351               0-1.208524402E+00-7.046017245E-02+
*       1.1980394027E+00               0
GRID*               3352               01.2120991262E+001.0643937957E-01+
*       9.9234870954E-01               0
GRID*               3353               01.1704341733E+001.0644629950E-01+
*       9.9234587097E-01               0
GRID*               3354               01.1703550257E+008.8164043909E-02+
*       1.0041191613E+00               0
GRID*               3355               01.2120199787E+008.8157123979E-02+
*       1.0041219998E+00               0
GRID*               3356               01.1920392515E+001.0327619845E-01+
*       1.0137492896E+00               0
GRID*               3357               0-1.212538491E+00-1.731447514E-01+
*       1.1371104427E+00               0
GRID*               3358               0-1.212538491E+00-1.896783330E-01+
*       1.0774489983E+00               0
GRID*               3359               0-1.223075126E+00-2.255408913E-01+
*       1.1227104370E+00               0
GRID*               3360               0-1.223075126E+00-2.090073097E-01+
*       1.1823718814E+00               0
GRID*               3361               0-1.286863669E+00-1.576306723E-01+
*       1.1437620303E+00               0
GRID*               3362               0-1.335671627E+00-3.309496202E-01+
*       7.7931382412E-01               0
GRID*               3363               0-1.335671627E+00-3.712804053E-01+
*       8.0329930542E-01               0
GRID*               3364               0-1.339131170E+00-3.766063714E-01+
*       7.5397741530E-01               0
GRID*               3365               0-1.339131170E+00-4.169371566E-01+
*       7.7796289660E-01               0
GRID*               3366               0-1.348818705E+00-3.163939013E-01+
*       7.0481483324E-01               0
GRID*               3367               0-1.285740385E+00-3.320468072E-01+
*       7.3731938243E-01               0
GRID*               3368               0-1.350458340E+001.3406127561E-01+
*       1.1008399630E+00               0
GRID*               3369               0-1.283579946E+001.5103031630E-01+
*       1.0679231534E+00               0
GRID*               3370               0-1.331871554E+002.0372339255E-01+
*       1.0645343902E+00               0
GRID*               3371               0-1.329705978E+001.8501187085E-01+
*       1.1373318725E+00               0
GRID*               3372               0-1.281414370E+001.3231879460E-01+
*       1.1407206357E+00               0
GRID*               3373               0-1.262827584E+002.0198091154E-01+
*       1.1044150629E+00               0
GRID*               3374               0-1.267122964E+008.6359343576E-02+
*       1.0434688215E+00               0
GRID*               3375               0-1.219213455E+007.5830175562E-02+
*       1.0020754724E+00               0
GRID*               3376               0-1.254257224E+007.0839031340E-02+
*       1.0628353771E+00               0
GRID*               3377               06.8490777686E-016.8757373345E-01+
*       -1.833803622E-01               0
GRID*               3378               06.4575374660E-017.1849337970E-01+
*       -2.186780817E-01               0
GRID*               3379               07.2445192949E-016.8757373345E-01+
*       -1.209148808E-01               0
GRID*               3380               06.4819996035E-016.8757373345E-01+
*       -1.208896015E-01               0
GRID*               3381               08.1281234984E-016.2105823621E-01+
*       -6.064036279E-02               0
GRID*               3382               07.7219754136E-016.2225345443E-01+
*       -1.190207250E-01               0
GRID*               3383               07.2688038109E-016.2395224869E-01+
*       -5.838036225E-02               0
GRID*               3384               07.6642135794E-016.5459547763E-01+
*       -3.115424200E-02               0
GRID*               3385               08.1173851821E-016.5289668337E-01+
*       -9.179460479E-02               0
GRID*               3386               07.2580654946E-016.5579069585E-01+
*       -8.953460425E-02               0
GRID*               3387               0-1.331871554E+002.9907755046E-01+
*       1.0212900472E+00               0
GRID*               3388               0-1.331871554E+002.3077940995E-01+
*       1.0139812702E+00               0
GRID*               3389               0-1.334589258E+002.8091765440E-01+
*       9.5281971042E-01               0
GRID*               3390               0-1.334589258E+003.4921579492E-01+
*       9.6012848750E-01               0
GRID*               3391               0-1.267710864E+002.7083067770E-01+
*       9.7045602079E-01               0
GRID*               3392               07.2729878318E-017.1821696239E-01+
*       -3.115424200E-02               0
GRID*               3393               0-1.376754017E+008.8883246598E-03+
*       1.0166499925E+00               0
GRID*               3394               0-1.376754017E+00-2.826788015E-02+
*       1.0138661633E+00               0
GRID*               3395               0-1.335086366E+008.8924932002E-03+
*       1.0166494226E+00               0
GRID*               3396               0-1.326522718E+00-2.120270835E-01+
*       1.7069526866E-01               0
GRID*               3397               0-1.346645295E+00-5.083917962E-01+
*       2.4760503680E-01               0
GRID*               3398               0-1.346910236E+00-5.567034693E-01+
*       2.0249540909E-01               0
GRID*               3399               04.5569452083E-01-5.638060710E-01+
*       -1.844975797E-01               0
GRID*               3400               04.1767580382E-01-5.012488810E-01+
*       -1.844975797E-01               0
GRID*               3401               03.8017915356E-01-5.626465822E-01+
*       -1.874848869E-01               0
GRID*               3402               04.1819787057E-01-6.252037722E-01+
*       -1.874848869E-01               0
GRID*               3403               01.2124145007E+002.0568734452E-01+
*       1.0652268448E+00               0
GRID*               3404               01.2124145007E+001.8726086886E-01+
*       1.0249666840E+00               0
GRID*               3405               03.8028606684E-01-6.877865138E-01+
*       -1.874848869E-01               0
GRID*               3406               04.1815167622E-01-7.187072081E-01+
*       -2.187531567E-01               0
GRID*               3407               04.1868775355E-01-6.564937219E-01+
*       -1.562380436E-01               0
GRID*               3408               04.5707849419E-01-7.187072081E-01+
*       -1.562584370E-01               0
GRID*               3409               0-1.211989501E+00-3.137630296E-01+
*       2.5907365103E-01               0
GRID*               3410               0-1.211989521E+00-3.523806823E-01+
*       1.8918559510E-01               0
GRID*               3411               0-1.211989510E+00-3.777435125E-01+
*       2.4625522253E-01               0
GRID*               3412               0-1.255521228E+00-1.338058628E-01+
*       2.7075536460E-01               0
GRID*               3413               0-1.209346212E+00-4.795109204E-02+
*       2.2425294894E-01               0
GRID*               3414               0-1.262118965E+00-8.376894403E-02+
*       2.0326083462E-01               0
GRID*               3415               0-1.263344704E+00-1.641663853E-02+
*       2.6090180076E-01               0
GRID*               3416               0-1.737688716E+00-7.335416963E-01+
*       -3.102456007E-02               0
GRID*               3417               0-1.700267453E+00-7.335416963E-01+
*       -9.359352424E-02               0
GRID*               3418               0-1.772576205E+00-7.335416963E-01+
*       -9.360804399E-02               0
GRID*               3419               0-1.264914188E+00-3.361885132E-01+
*       -2.801935689E-02               0
GRID*               3420               0-1.340316030E+00-2.933021515E-01+
*       4.0215949603E-02               0
GRID*               3421               0-1.339565522E+00-3.653166390E-01+
*       5.1135526206E-02               0
GRID*               3422               0-1.264163680E+00-4.082030007E-01+
*       -1.709978029E-02               0
GRID*               3423               0-1.281131605E+00-3.586187905E-01+
*       9.1351475809E-02               0
GRID*               3424               0-1.214565563E+00-3.931104344E-01+
*       1.2107852647E-01               0
GRID*               3425               0-1.214565552E+00-4.184732647E-01+
*       1.7814815390E-01               0
GRID*               3426               0-1.277805055E+00-3.899035259E-01+
*       1.7037812104E-01               0
GRID*               3427               03.4294421009E-01-6.877865138E-01+
*       -1.249964552E-01               0
GRID*               3428               02.6669793931E-01-6.878738622E-01+
*       -1.250139550E-01               0
GRID*               3429               03.0526865867E-01-7.185691417E-01+
*       -9.376137992E-02               0
GRID*               3430               03.4314659274E-01-6.563556555E-01+
*       -9.373469849E-02               0
GRID*               3431               02.6690032196E-01-6.564430039E-01+
*       -9.375219828E-02               0
GRID*               3432               0-1.335373357E+002.6978295506E-01+
*       7.4045579883E-01               0
GRID*               3433               0-1.335372405E+002.6422768085E-01+
*       7.0360786797E-01               0
GRID*               3434               0-1.377040004E+002.6422921575E-01+
*       7.0361153945E-01               0
GRID*               3435               0-8.389002750E-016.7799187203E-01+
*       -6.879072282E-02               0
GRID*               3436               0-8.750849859E-016.7799187203E-01+
*       -1.313929315E-01               0
GRID*               3437               0-7.989921940E-016.7799187203E-01+
*       -1.313175213E-01               0
GRID*               3438               0-7.219421537E-016.2421153732E-01+
*       -5.671404164E-02               0
GRID*               3439               0-6.825807975E-015.6010831728E-01+
*       -5.671404164E-02               0
GRID*               3440               0-7.574390966E-015.6103161688E-01+
*       -5.475799644E-02               0
GRID*               3441               0-7.204633434E-015.7249802482E-01+
*       -1.114720381E-01               0
GRID*               3442               0-1.377231696E+002.3275053053E-01+
*       6.0706827467E-01               0
GRID*               3443               0-1.355465198E+002.4074226808E-01+
*       5.8558127812E-01               0
GRID*               3444               0-8.354169057E-016.7799187203E-01+
*       -1.937907228E-01               0
GRID*               3445               0-8.735433242E-016.1566126114E-01+
*       -1.937907228E-01               0
GRID*               3446               0-6.840678211E-015.6779894922E-01+
*       -1.817140416E-01               0
GRID*               3447               0-7.221856047E-016.3032385490E-01+
*       -1.817140416E-01               0
GRID*               3448               0-7.195647640E-015.0461902878E-01+
*       -1.797579964E-01               0
GRID*               3449               0-7.601751174E-016.2083084466E-01+
*       -1.255047645E-01               0
GRID*               3450               0-7.601057731E-016.5615945385E-01+
*       -2.187947011E-01               0
GRID*               3451               0-7.980952858E-016.4666644362E-01+
*       -1.625854239E-01               0
GRID*               3452               0-7.228865689E-016.6151354422E-01+
*       -1.505087427E-01               0
GRID*               3453               0-7.971508706E-016.0936443672E-01+
*       -6.879072282E-02               0
GRID*               3454               0-8.014663412E-017.1581175119E-01+
*       -3.124871088E-02               0
GRID*               3455               0-7.597169369E-016.4718431587E-01+
*       -3.124871088E-02               0
GRID*               3456               0-7.979499006E-016.4380362322E-01+
*       -1.000394337E-01               0
GRID*               3457               0-8.680776673E-014.6173549877E-01+
*       -6.030245989E-02               0
GRID*               3458               0-9.068138109E-015.2583477874E-01+
*       -6.030245989E-02               0
GRID*               3459               0-1.409751373E+005.4773736426E-01+
*       -6.452586354E-02               0
GRID*               3460               0-1.457834845E+004.9843623112E-01+
*       -8.534503488E-02               0
GRID*               3461               0-1.446833419E+005.5069886686E-01+
*       -2.081917134E-02               0
GRID*               3462               0-1.431152980E+005.8519689347E-01+
*       -2.231917429E-02               0
GRID*               3463               0-1.442154406E+005.3293425772E-01+
*       -8.684503783E-02               0
GRID*               3464               0-1.479236451E+005.3589576033E-01+
*       -4.313834563E-02               0
GRID*               3465               03.0523594776E-015.6235205958E-01+
*       -6.249489008E-02               0
GRID*               3466               02.6637512627E-015.6275860200E-01+
*       -1.250907158E-01               0
GRID*               3467               02.6733308159E-016.2539669075E-01+
*       -6.259582575E-02               0
GRID*               3468               03.4325374682E-016.2571803966E-01+
*       -6.244868776E-02               0
GRID*               3469               03.4229579150E-015.6307995091E-01+
*       -1.249435778E-01               0
GRID*               3470               03.0439292533E-016.2612458207E-01+
*       -1.250445135E-01               0
GRID*               3471               0-1.475312780E+004.7841817073E-01+
*       -1.061928903E-01               0
GRID*               3472               0-1.475304473E+005.1703132236E-01+
*       -1.061923287E-01               0
GRID*               3473               0-1.512394825E+004.8137967333E-01+
*       -6.248619806E-02               0
GRID*               3474               0-1.512386519E+005.1999282496E-01+
*       -6.248563652E-02               0
GRID*               3475               0-1.492853841E+003.9590823252E-01+
*       -8.212561451E-02               0
GRID*               3476               0-1.499451218E+004.2032415932E-01+
*       -1.026092033E-01               0
GRID*               3477               0-1.513415253E+004.5990995212E-01+
*       -6.318355311E-02               0
GRID*               3478               0-1.506817876E+004.3549402532E-01+
*       -4.269996430E-02               0
GRID*               3479               0-1.482993711E+004.1887249849E-01+
*       -8.245870298E-02               0
GRID*               3480               02.6714132302E-013.7826398683E-01+
*       -5.940812986E-02               0
GRID*               3481               02.2906223391E-014.4060202844E-01+
*       -5.940812986E-02               0
GRID*               3482               03.0504269766E-014.3741971165E-01+
*       -6.249489008E-02               0
GRID*               3483               02.6696360854E-014.9975775326E-01+
*       -6.249489008E-02               0
GRID*               3484               03.8134537980E-015.6333649486E-01+
*       -6.244868776E-02               0
GRID*               3485               04.1814332724E-015.6299104022E-01+
*       -1.248705790E-01               0
GRID*               3486               01.6656834260E+00-1.612280841E-01+
*       -1.257359246E-01               0
GRID*               3487               01.6328425967E+00-1.039168109E-01+
*       -1.856477786E-01               0
GRID*               3488               01.5373671398E+00-1.404426534E-01+
*       -1.881637200E-01               0
GRID*               3489               01.5702079692E+00-1.977539266E-01+
*       -1.282518660E-01               0
GRID*               3490               01.6311487186E+00-8.158653980E-02+
*       -1.238114985E-01               0
GRID*               3491               01.6163379251E+009.2278333107E-02+
*       -6.020436546E-02               0
GRID*               3492               01.6816253515E+002.8506880551E-01+
*       -5.640736651E-02               0
GRID*               3493               01.6814392484E+005.4221687507E-02+
*       -1.852043655E-01               0
GRID*               3494               01.6103155102E+007.1561536552E-03+
*       -1.852043655E-01               0
GRID*               3495               01.7516440161E+001.3714739749E-02+
*       -1.856477786E-01               0
GRID*               3496               01.6805202779E+00-3.335079410E-02+
*       -1.856477786E-01               0
GRID*               3497               01.8325277010E+001.5097519460E-01+
*       -6.023548225E-02               0
GRID*               3498               01.8652870922E+001.8945267056E-01+
*       -3.071739139E-02               0
GRID*               3499               01.7990648457E+001.9042786516E-01+
*       -9.095287364E-02               0
GRID*               3500               01.7991186298E+002.3157480585E-01+
*       -3.071739139E-02               0
GRID*               3501               01.8510950990E+005.5090848737E-01+
*       -2.066688696E-02               0
GRID*               3502               01.7959281275E+005.4673713088E-01+
*       -4.157434665E-02               0
GRID*               3503               01.8435829761E+005.9582864351E-01+
*       -2.090745969E-02               0
GRID*               3504               01.8673347698E+005.8466782877E-01+
*       -2.236382043E-02               0
GRID*               3505               01.8196799212E+005.3557631614E-01+
*       -4.303070739E-02               0
GRID*               3506               01.8121677983E+005.8049647228E-01+
*       -4.327128012E-02               0
GRID*               3507               0-3.435465881E-01-4.998998130E-01+
*       -6.256261384E-02               0
GRID*               3508               0-3.425377033E-01-5.629990646E-01+
*       -1.248761006E-01               0
GRID*               3509               0-3.815438918E-01-5.632218464E-01+
*       -6.231348674E-02               0
GRID*               3510               0-4.193383254E-01-4.999108338E-01+
*       -6.257661683E-02               0
GRID*               3511               0-3.803321370E-01-4.996880520E-01+
*       -1.251392307E-01               0
GRID*               3512               0-4.183294406E-01-5.630100854E-01+
*       -1.248901036E-01               0
GRID*               3513               0-3.797906361E-01-5.628854591E-01+
*       -1.873134867E-01               0
GRID*               3514               0-3.417933324E-01-4.995634257E-01+
*       -1.875626138E-01               0
GRID*               3515               0-4.175850697E-01-4.995744465E-01+
*       -1.875766168E-01               0
GRID*               3516               0-3.801424982E-01-6.881605490E-01+
*       -1.873134867E-01               0
GRID*               3517               0-3.420746674E-01-6.255470581E-01+
*       -1.873134867E-01               0
GRID*               3518               0-4.177892353E-01-6.254279260E-01+
*       -1.873134867E-01               0
GRID*               3519               0-2.665964945E-01-6.882088362E-01+
*       -1.250344911E-01               0
GRID*               3520               0-2.663504179E-01-6.566574402E-01+
*       -1.543835102E-01               0
GRID*               3521               0-3.048288604E-01-7.184486040E-01+
*       -1.543654318E-01               0
GRID*               3522               0-2.936270163E-01-7.254418266E-01+
*       -8.756380898E-02               0
GRID*               3523               0-2.551485739E-01-6.636506627E-01+
*       -8.758188734E-02               0
GRID*               3524               0-2.933809398E-01-6.938904306E-01+
*       -1.169128280E-01               0
GRID*               3525               0-2.658661900E-01-6.255953452E-01+
*       -1.875262847E-01               0
GRID*               3526               0-2.663292259E-01-5.630473518E-01+
*       -1.250888986E-01               0
GRID*               3527               0-3.040773638E-01-5.622250247E-01+
*       -1.875626138E-01               0
GRID*               3528               0-3.043265295E-01-6.263693852E-01+
*       -1.248397715E-01               0
GRID*               3529               0-1.300158944E+00-1.149938031E-02+
*       4.5436359168E-01               0
GRID*               3530               0-1.258492799E+00-1.149713191E-02+
*       4.5436329598E-01               0
GRID*               3531               0-1.284323654E+00-8.386660268E-02+
*       4.7438317758E-01               0
GRID*               3532               0-1.269065165E+00-3.973924038E-02+
*       4.2247846551E-01               0
GRID*               3533               0-1.242657509E+00-8.386435428E-02+
*       4.7438288188E-01               0
GRID*               3534               01.5508147755E+00-6.052934875E-01+
*       -2.289138047E-01               0
GRID*               3535               01.5436458262E+00-6.226843696E-01+
*       -2.067114057E-01               0
GRID*               3536               01.5508114305E+00-6.052909068E-01+
*       -1.872476749E-01               0
GRID*               3537               01.3417410579E+00-5.455607251E-01+
*       9.9200222598E-01               0
GRID*               3538               01.3673580206E+00-6.544383129E-01+
*       1.0546666313E+00               0
GRID*               3539               01.3048580422E+00-6.659339918E-01+
*       1.0229492645E+00               0
GRID*               3540               01.3066179665E+00-3.789044732E-01+
*       9.9253717496E-01               0
GRID*               3541               01.3483582649E+00-3.921826060E-01+
*       9.8765613440E-01               0
GRID*               3542               01.3417410579E+00-4.342461415E-01+
*       1.0374936931E+00               0
GRID*               3543               01.3000007594E+00-4.209680086E-01+
*       1.0423747337E+00               0
GRID*               3544               01.2913493753E+00-4.620885744E-01+
*       1.0002282757E+00               0
GRID*               3545               0-1.335542243E+00-4.725385447E-02+
*       4.8356689680E-01               0
GRID*               3546               0-1.320283754E+00-3.126492170E-03+
*       4.3166218473E-01               0
GRID*               3547               0-1.304448464E+00-7.549371454E-02+
*       4.5168177063E-01               0
GRID*               3548               0-1.327994998E+001.5993352949E-01+
*       3.9992725910E-01               0
GRID*               3549               0-1.271070252E+009.6476720781E-02+
*       4.2166515642E-01               0
GRID*               3550               0-1.341825201E+009.6084790704E-02+
*       3.8072098228E-01               0
GRID*               3551               0-1.335766383E+001.4162219643E-01+
*       3.2887737923E-01               0
GRID*               3552               0-1.265011434E+001.4201412651E-01+
*       3.6982155337E-01               0
GRID*               3553               0-1.278841637E+007.8165387718E-02+
*       3.5061527655E-01               0
GRID*               3554               0-1.286330375E+001.2583797128E-01+
*       4.7908125848E-01               0
GRID*               3555               0-1.300160578E+006.1989232494E-02+
*       4.5987498166E-01               0
GRID*               3556               0-1.335225808E+008.7713110417E-02+
*       4.9458131623E-01               0
GRID*               3557               0-1.306135482E+001.2220059870E-01+
*       4.5637149099E-01               0
GRID*               3558               0-1.319965685E+005.8351859914E-02+
*       4.3716521417E-01               0
GRID*               3559               0-1.258490154E+006.1974141592E-02+
*       4.5986872911E-01               0
GRID*               3560               0-1.244659951E+001.2582288038E-01+
*       4.7907500593E-01               0
GRID*               3561               01.2654826409E+004.2539964089E-01+
*       1.2516879619E+00               0
GRID*               3562               01.2969410606E+004.2603939910E-01+
*       1.2076469830E+00               0
GRID*               3563               01.2972752671E+004.0443896387E-01+
*       1.2253076446E+00               0
GRID*               3564               01.2346373303E+004.4566313840E-01+
*       1.1789886035E+00               0
GRID*               3565               01.1804049077E+004.8557496968E-01+
*       1.1618035688E+00               0
GRID*               3566               01.1791995683E+004.5931353590E-01+
*       1.1866717938E+00               0
GRID*               3567               01.2334319909E+004.1940170463E-01+
*       1.2038568286E+00               0
GRID*               3568               01.2108545284E+004.9006169755E-01+
*       1.2092261638E+00               0
GRID*               3569               0-1.212327860E+008.3505612687E-02+
*       4.9752183340E-01               0
GRID*               3570               0-1.238738160E+005.4159453087E-02+
*       4.4011198389E-01               0
GRID*               3571               0-1.224907957E+001.1800819188E-01+
*       4.5931826071E-01               0
GRID*               3572               0-3.040648944E-015.6511670270E-01+
*       -1.843943137E-01               0
GRID*               3573               0-3.800308025E-015.6279720530E-01+
*       -1.873071285E-01               0
GRID*               3574               0-3.420892076E-016.2535553129E-01+
*       -1.873071285E-01               0
GRID*               3575               01.1791995683E+004.1505966915E-01+
*       1.2387308030E+00               0
GRID*               3576               01.1798015069E+003.9414700320E-01+
*       1.2658529797E+00               0
GRID*               3577               01.1798015069E+004.1932604668E-01+
*       1.3309700991E+00               0
GRID*               3578               01.1795341408E+003.8698357199E-01+
*       1.3495174127E+00               0
GRID*               3579               01.1795341408E+003.6180452851E-01+
*       1.2844002933E+00               0
GRID*               3580               01.2105857002E+003.8963245719E-01+
*       1.3068860558E+00               0
GRID*               3581               01.2814202496E+005.9616031437E-01+
*       9.6333997513E-01               0
GRID*               3582               01.3113853390E+005.6705478227E-01+
*       9.6216930826E-01               0
GRID*               3583               01.3037150029E+006.8679466707E-01+
*       9.7240685608E-01               0
GRID*               3584               01.2364766555E+006.7747133475E-01+
*       9.9321147276E-01               0
GRID*               3585               01.2441469915E+005.5773144994E-01+
*       9.8297392494E-01               0
GRID*               3586               01.2664417449E+006.4836580265E-01+
*       9.9204080589E-01               0
GRID*               3587               0-2.660789961E-015.6613036352E-01+
*       -1.216506346E-01               0
GRID*               3588               0-2.657777732E-016.2589365573E-01+
*       -1.872563209E-01               0
GRID*               3589               0-3.041033092E-016.2636919210E-01+
*       -1.245634494E-01               0
GRID*               3590               0-4.180209188E-016.2534284777E-01+
*       -1.873071285E-01               0
GRID*               3591               0-4.181177885E-017.1872877115E-01+
*       -2.186556278E-01               0
GRID*               3592               0-4.560563407E-016.5615608509E-01+
*       -2.186556278E-01               0
GRID*               3593               0-4.184501656E-016.5664430498E-01+
*       -1.559627563E-01               0
GRID*               3594               0-3.816657163E-016.8791553383E-01+
*       -6.230712850E-02               0
GRID*               3595               0-3.425154789E-016.5638354137E-01+
*       -1.541930927E-01               0
GRID*               3596               0-2.662040445E-016.5692166582E-01+
*       -1.541422851E-01               0
GRID*               3597               01.2820399421E+00-4.506074370E-01+
*       1.2385429007E+00               0
GRID*               3598               01.1809864646E+00-6.184484425E-01+
*       9.4764673004E-01               0
GRID*               3599               01.2489775749E+00-5.774126061E-01+
*       1.0035990700E+00               0
GRID*               3600               01.2167410579E+00-5.451879464E-01+
*       9.9411349441E-01               0
GRID*               3601               01.1794667631E+00-6.039711494E-01+
*       9.8041538764E-01               0
GRID*               3602               01.2117032802E+00-6.361958090E-01+
*       9.8990096326E-01               0
GRID*               3603               01.2474578734E+00-5.629353129E-01+
*       1.0363677276E+00               0
GRID*               3604               01.2233582649E+00-4.532530752E-01+
*       9.0439654279E-01               0
GRID*               3605               01.2233582649E+00-4.380549140E-01+
*       9.6022283426E-01               0
GRID*               3606               01.2042492904E+00-4.982581854E-01+
*       9.2891371249E-01               0
GRID*               3607               01.2042492904E+00-5.134563466E-01+
*       8.7308742102E-01               0
GRID*               3608               01.2788576078E+00-4.802283104E-01+
*       9.1908159524E-01               0
GRID*               3609               04.1973921382E-016.2582158769E-01+
*       -6.244868776E-02               0
GRID*               3610               03.0590427441E-016.5624604139E-01+
*       -3.125207473E-02               0
GRID*               3611               03.4296411815E-016.5697393272E-01+
*       -9.370076249E-02               0
GRID*               3612               02.6704345292E-016.5665258381E-01+
*       -9.384790048E-02               0
GRID*               3613               03.8003179004E-016.8822296549E-01+
*       -1.874486878E-01               0
GRID*               3614               03.4193710933E-016.2560674505E-01+
*       -1.874486878E-01               0
GRID*               3615               04.1765598244E-016.2548840949E-01+
*       -1.874486878E-01               0
GRID*               3616               01.2046706183E+00-3.071583821E-01+
*       1.1456048922E+00               0
GRID*               3617               01.2046706183E+00-2.470619338E-01+
*       1.1581126433E+00               0
GRID*               3618               01.2046706183E+00-2.860143059E-01+
*       1.2030948425E+00               0
GRID*               3619               03.7963434403E-015.6294593327E-01+
*       -1.874486878E-01               0
GRID*               3620               01.2195402116E+00-4.632054061E-01+
*       1.1498230271E+00               0
GRID*               3621               01.1808286927E+00-5.359913974E-01+
*       1.2332598309E+00               0
GRID*               3622               01.2516189568E+00-4.835470253E-01+
*       1.1667504332E+00               0
GRID*               3623               01.2792396543E+00-5.419022633E-01+
*       1.1379937911E+00               0
GRID*               3624               01.2546235530E+00-7.631933624E-02+
*       1.0504296377E+00               0
GRID*               3625               0-1.210992197E+00-6.764039813E-02+
*       1.3688530595E-01               0
GRID*               3626               0-1.263764928E+00-1.352030437E-01+
*       1.7880761957E-01               0
GRID*               3627               0-1.271588403E+00-1.781381948E-02+
*       1.6895405574E-01               0
GRID*               3628               03.7946916404E-013.1531910763E-01+
*       -1.843986549E-01               0
GRID*               3629               02.6551867904E-011.2491309928E-01+
*       -1.874578079E-01               0
GRID*               3630               03.0358978533E-011.2520630211E-01+
*       -1.248969476E-01               0
GRID*               3631               03.4126597657E-011.2506511109E-01+
*       -1.874391397E-01               0
GRID*               3632               03.0369628884E-011.8413093138E-01+
*       -1.843426600E-01               0
GRID*               3633               02.6602009760E-011.8427212240E-01+
*       -1.218004679E-01               0
GRID*               3634               03.4176739513E-011.8442413421E-01+
*       -1.217817997E-01               0
GRID*               3635               01.1706246269E+002.1576203987E-01+
*       9.1703385564E-01               0
GRID*               3636               01.2122892503E+001.9041129664E-01+
*       9.4435261243E-01               0
GRID*               3637               01.2122899970E+002.1575863385E-01+
*       9.1703825949E-01               0
GRID*               3638               02.6640073961E-011.2571621536E-01+
*       -6.245780787E-02               0
GRID*               3639               03.0457834941E-011.8493404746E-01+
*       -5.934265999E-02               0
GRID*               3640               01.2117009430E+00-2.067794270E-01+
*       1.0107390061E+00               0
GRID*               3641               01.3173067147E+00-9.666503578E-02+
*       1.0697964037E+00               0
GRID*               3642               01.3364344505E+00-7.597019136E-02+
*       1.0130987552E+00               0
GRID*               3643               01.3364242690E+00-4.920334775E-02+
*       1.0171665115E+00               0
GRID*               3644               01.3172965332E+00-6.989819217E-02+
*       1.0738641600E+00               0
GRID*               3645               01.3574412856E+00-6.954679889E-02+
*       1.0365335732E+00               0
GRID*               3646               01.2526728512E+00-2.532174613E-01+
*       1.1930980874E+00               0
GRID*               3647               01.1967521804E+00-2.223619799E-01+
*       1.2076235565E+00               0
GRID*               3648               01.2070929017E+00-2.610880308E-01+
*       1.2655269531E+00               0
GRID*               3649               01.2630135725E+00-2.919435122E-01+
*       1.2510014839E+00               0
GRID*               3650               01.2550951346E+00-2.282911862E-01+
*       1.2555301979E+00               0
GRID*               3651               02.6676894216E-012.4686103117E-01+
*       -5.934265999E-02               0
GRID*               3652               02.2811368344E-012.4662529331E-01+
*       -1.217949107E-01               0
GRID*               3653               01.9068491820E-012.4999636998E-01+
*       -6.245225075E-02               0
GRID*               3654               02.2890771004E-013.1581731452E-01+
*       -5.940812986E-02               0
GRID*               3655               02.6633647529E-013.1244623785E-01+
*       -1.187507899E-01               0
GRID*               3656               01.9025245132E-013.1558157666E-01+
*       -1.218603806E-01               0
GRID*               3657               01.2990536723E+00-2.529631006E-01+
*       9.0011527390E-01               0
GRID*               3658               01.3193048241E+00-2.766871487E-01+
*       8.9963325596E-01               0
GRID*               3659               01.3356657990E+00-2.489675628E-01+
*       8.5798033864E-01               0
GRID*               3660               01.3359627808E+00-2.368486893E-01+
*       8.8065364198E-01               0
GRID*               3661               01.3196018059E+00-2.645682752E-01+
*       9.2230655931E-01               0
GRID*               3662               01.3562139326E+00-2.605727374E-01+
*       8.8017162404E-01               0
GRID*               3663               0-1.327748457E+00-1.200527291E-01+
*       2.8456103496E-01               0
GRID*               3664               0-1.339500903E+00-1.831278126E-01+
*       3.0037807211E-01               0
GRID*               3665               0-1.326522718E+00-1.874050346E-01+
*       2.2692006882E-01               0
GRID*               3666               03.7925252421E-01-1.863212224E-01+
*       -1.868840120E-01               0
GRID*               3667               03.4127915300E-01-1.238744576E-01+
*       -1.868840120E-01               0
GRID*               3668               03.0342822084E-01-1.860316613E-01+
*       -1.874528990E-01               0
GRID*               3669               03.4140159204E-01-2.484784261E-01+
*       -1.874528990E-01               0
GRID*               3670               03.4123702327E-01-1.850608598E-01+
*       -1.243369109E-01               0
GRID*               3671               01.3776304310E+00-2.158581255E-01+
*       9.1144383512E-01               0
GRID*               3672               01.3359628329E+00-2.158605376E-01+
*       9.1144067013E-01               0
GRID*               3673               0-1.337724818E+00-4.649675415E-01+
*       5.3361268568E-01               0
GRID*               3674               0-1.337724818E+00-4.158392274E-01+
*       5.7969412818E-01               0
GRID*               3675               01.3773075436E+00-1.286614280E-01+
*       9.9164875994E-01               0
GRID*               3676               01.3774333559E+00-1.424308968E-01+
*       9.7267723211E-01               0
GRID*               3677               01.3559909520E+00-1.460923214E-01+
*       9.9781962350E-01               0
GRID*               3678               01.3357666892E+00-1.424308968E-01+
*       9.7267723211E-01               0
GRID*               3679               01.2576133958E+00-2.940570412E-01+
*       7.9871674633E-01               0
GRID*               3680               01.2370248290E+00-3.082028580E-01+
*       8.1013303775E-01               0
GRID*               3681               01.2114906276E+00-2.613528747E-01+
*       7.9865890379E-01               0
GRID*               3682               01.2121894314E+00-2.639115274E-01+
*       7.7762190299E-01               0
GRID*               3683               01.2377236328E+00-3.107615106E-01+
*       7.8909603694E-01               0
GRID*               3684               01.1916008646E+00-2.780573442E-01+
*       7.8903819440E-01               0
GRID*               3685               04.1698714553E-01-2.442027219E-01+
*       -1.862060653E-01               0
GRID*               3686               03.7897164460E-01-2.429423593E-01+
*       -1.236589643E-01               0
GRID*               3687               03.7948621130E-01-3.106442720E-01+
*       -1.874634234E-01               0
GRID*               3688               04.1705626386E-01-3.051082051E-01+
*       -1.236694887E-01               0
GRID*               3689               03.4147071037E-01-3.093839094E-01+
*       -1.249163223E-01               0
GRID*               3690               03.0406518502E-01-3.096704394E-01+
*       -6.245289897E-02               0
GRID*               3691               03.4131073540E-01-2.458887964E-01+
*       -6.245289897E-02               0
GRID*               3692               03.4214980428E-01-3.718362853E-01+
*       -6.246342337E-02               0
GRID*               3693               03.7939535465E-01-3.080546422E-01+
*       -6.246342337E-02               0
GRID*               3694               03.0365959899E-01-1.844520951E-01+
*       -6.245289897E-02               0
GRID*               3695               02.6599096967E-01-2.475500384E-01+
*       -6.245289897E-02               0
GRID*               3696               02.2824054779E-01-1.860143686E-01+
*       -6.248944325E-02               0
GRID*               3697               02.6590917711E-01-1.229164253E-01+
*       -6.248944325E-02               0
GRID*               3698               02.6563566923E-01-1.856823937E-01+
*       -1.249423422E-01               0
GRID*               3699               03.7916166756E-01-1.837315926E-01+
*       -6.188401198E-02               0
GRID*               3700               04.1689628888E-01-2.416130921E-01+
*       -6.120606529E-02               0
GRID*               3701               03.4151053115E-01-1.222948914E-01+
*       -6.188401198E-02               0
GRID*               3702               03.0348660140E-01-1.235251900E-01+
*       -1.243734552E-01               0
GRID*               3703               0-1.199827257E+00-4.493308610E-01+
*       1.0518133984E+00               0
GRID*               3704               0-1.218783832E+00-4.029993982E-01+
*       1.0808721923E+00               0
GRID*               3705               0-1.269861142E+00-4.369968023E-01+
*       1.0728975051E+00               0
GRID*               3706               0-1.218783832E+00-4.539926820E-01+
*       1.1157387260E+00               0
GRID*               3707               01.3320076642E+00-1.325295234E-01+
*       2.3622866842E-01               0
GRID*               3708               01.3331510580E+00-5.125447502E-02+
*       2.2697748495E-01               0
GRID*               3709               01.3331510580E+00-1.950968140E-02+
*       1.6406305701E-01               0
GRID*               3710               01.2664087747E+00-5.426153411E-02+
*       2.0810752627E-01               0
GRID*               3711               01.2081510914E+00-2.262855762E-02+
*       1.7957639888E-01               0
GRID*               3712               01.2070076976E+00-1.039036060E-01+
*       1.8882758235E-01               0
GRID*               3713               01.2170315377E+00-9.232341856E-02+
*       1.1450051894E-01               0
GRID*               3714               01.2764326148E+00-4.268134666E-02+
*       1.3378046286E-01               0
GRID*               3715               0-1.324827257E+00-4.887696659E-01+
*       1.0328853670E+00               0
GRID*               3716               0-1.324827257E+00-4.264645756E-01+
*       1.0432900787E+00               0
GRID*               3717               0-1.343783832E+00-4.934314869E-01+
*       1.0968106947E+00               0
GRID*               3718               0-1.343783832E+00-4.311263966E-01+
*       1.1072154064E+00               0
GRID*               3719               0-1.343783832E+00-4.713142339E-01+
*       1.1445789927E+00               0
GRID*               3720               0-1.325953971E+00-5.101676461E-01+
*       9.8705885291E-01               0
GRID*               3721               0-1.252031281E+00-4.537329615E-01+
*       9.6314566331E-01               0
GRID*               3722               0-1.330086949E+00-5.604262424E-01+
*       1.0146569519E+00               0
GRID*               3723               0-1.257290972E+00-5.253895379E-01+
*       9.4491724822E-01               0
GRID*               3724               0-1.256164259E+00-5.039915577E-01+
*       9.9074376233E-01               0
GRID*               3725               0-1.286752801E+00-2.873567721E-01+
*       9.8230883538E-01               0
GRID*               3726               0-1.324827257E+00-3.847483307E-01+
*       1.0019967857E+00               0
GRID*               3727               0-1.267147669E+00-3.470580890E-01+
*       1.0209459582E+00               0
GRID*               3728               0-1.341070359E+00-3.411876833E-01+
*       1.0552638595E+00               0
GRID*               3729               0-4.940677864E-017.1872877115E-01+
*       -2.186556278E-01               0
GRID*               3730               0-1.337538491E+00-9.347214369E-02+
*       1.1210211348E+00               0
GRID*               3731               0-2.278209343E-016.8845365827E-01+
*       -1.872563209E-01               0
GRID*               3732               0-1.898427082E-016.2588736323E-01+
*       -1.872563209E-01               0
GRID*               3733               0-1.901212564E-017.1851504982E-01+
*       -2.168743178E-01               0
GRID*               3734               0-1.900921969E-016.5696870810E-01+
*       -1.541306388E-01               0
GRID*               3735               0-1.521430303E-016.5594875478E-01+
*       -2.168743178E-01               0
GRID*               3736               0-1.214732837E+00-2.854933274E-01+
*       1.1120727059E+00               0
GRID*               3737               0-1.214732837E+00-2.689597458E-01+
*       1.1717341503E+00               0
GRID*               3738               0-1.289058015E+00-2.534456667E-01+
*       1.1783857379E+00               0
GRID*               3739               01.2129559549E+00-8.109630121E-02+
*       1.1253343342E+00               0
GRID*               3740               0-1.339202864E+00-2.355008633E-01+
*       1.3298264886E+00               0
GRID*               3741               0-1.288528042E+00-2.302245260E-01+
*       1.2532163545E+00               0
GRID*               3742               0-1.348075126E+00-1.987695679E-01+
*       1.2656336030E+00               0
GRID*               3743               0-1.346374055E+00-1.633253973E-01+
*       1.3363349957E+00               0
GRID*               3744               0-1.286826972E+00-1.947803553E-01+
*       1.3239177472E+00               0
GRID*               3745               0-1.223075126E+00-1.905557401E-01+
*       1.2546230381E+00               0
GRID*               3746               0-1.214202864E+00-2.272870355E-01+
*       1.3188159237E+00               0
GRID*               3747               0-1.221374055E+00-1.551115695E-01+
*       1.3253244307E+00               0
GRID*               3748               0-7.583461367E-025.6309744982E-01+
*       -1.875295456E-01               0
GRID*               3749               0-1.137951691E-016.2565069637E-01+
*       -1.875295456E-01               0
GRID*               3750               0-1.140359876E-014.9966529854E-01+
*       -1.874768551E-01               0
GRID*               3751               0-1.138981704E-015.6300183155E-01+
*       -1.250064008E-01               0
GRID*               3752               0-1.519965430E-015.6221854509E-01+
*       -1.874768551E-01               0
GRID*               3753               0-1.200953971E+00-5.310501409E-01+
*       9.2562888338E-01               0
GRID*               3754               0-1.200953988E+00-5.399169780E-01+
*       8.5793955572E-01               0
GRID*               3755               0-1.205086967E+00-5.901755742E-01+
*       8.8553765474E-01               0
GRID*               3756               0-1.205086949E+00-5.813087372E-01+
*       9.5322698240E-01               0
GRID*               3757               0-1.212538491E+00-1.100746301E-01+
*       1.1493161320E+00               0
GRID*               3758               0-1.901645182E-016.8845365827E-01+
*       -1.247604737E-01               0
GRID*               3759               0-2.664294335E-016.8845365827E-01+
*       -1.247610821E-01               0
GRID*               3760               0-2.279840229E-01-6.882088362E-01+
*       -1.875262847E-01               0
GRID*               3761               0-2.662163888E-01-7.184486040E-01+
*       -2.168572254E-01               0
GRID*               3762               0-1.036384602E-017.2705788490E-01+
*       -2.326679027E-02               0
GRID*               3763               0-1.802217980E-017.2705788490E-01+
*       -2.326679027E-02               0
GRID*               3764               0-1.416153721E-017.2705788490E-01+
*       -8.577094307E-02               0
GRID*               3765               0-2.795125873E-017.2838407523E-01+
*       -2.261813649E-02               0
GRID*               3766               0-3.174031175E-016.6516006539E-01+
*       -2.261813649E-02               0
GRID*               3767               0-3.560959251E-017.2838407523E-01+
*       -2.261813649E-02               0
GRID*               3768               0-2.289340327E-01-6.882088362E-01+
*       -6.252628474E-02               0
GRID*               3769               0-1.913090670E-01-7.187072536E-01+
*       -3.124758139E-02               0
GRID*               3770               0-1.526989155E-01-7.187072536E-01+
*       -9.375191026E-02               0
GRID*               3771               0-1.904930863E-01-6.569160898E-01+
*       -9.377386613E-02               0
GRID*               3772               01.3866439759E+006.3794552869E-01+
*       -3.375839558E-02               0
GRID*               3773               01.4088135716E+006.6071531780E-01+
*       -1.103149951E-01               0
GRID*               3774               01.3366437519E+006.5201858671E-01+
*       -1.021807140E-01               0
GRID*               3775               0-2.279021527E-01-5.630584536E-01+
*       -1.875262847E-01               0
GRID*               3776               0-1.901747770E-01-5.630762916E-01+
*       -1.250748647E-01               0
GRID*               3777               0-1.899588776E-01-4.997170729E-01+
*       -1.875485800E-01               0
GRID*               3778               0-2.661133265E-01-4.996881331E-01+
*       -1.875626138E-01               0
GRID*               3779               0-2.283859508E-01-4.997059710E-01+
*       -1.251111938E-01               0
GRID*               3780               0-1.910197898E-01-4.996964735E-01+
*       -6.254857997E-02               0
GRID*               3781               0-2.289630649E-01-5.630378542E-01+
*       -6.252628474E-02               0
GRID*               3782               0-2.671742387E-01-4.996675336E-01+
*       -6.256261384E-02               0
GRID*               3783               0-1.900050515E-01-6.256298444E-01+
*       -1.875262847E-01               0
GRID*               3784               01.4313793681E+007.2804397007E-01+
*       -2.183204490E-02               0
GRID*               3785               01.4832903350E+007.2804397007E-01+
*       -8.522210712E-02               0
GRID*               3786               01.5147127014E+007.2804397007E-01+
*       -2.183204490E-02               0
GRID*               3787               0-7.606182947E-024.3692551437E-01+
*       -1.875042406E-01               0
GRID*               3788               0-1.140204260E-013.7442081174E-01+
*       -1.875042406E-01               0
GRID*               3789               0-3.811986976E-023.7442418521E-01+
*       -1.875042406E-01               0
GRID*               3790               0-1.520617764E-01-5.622884636E-01+
*       -1.875485800E-01               0
GRID*               3791               0-3.799684361E-024.9965041695E-01+
*       -1.875418712E-01               0
GRID*               3792               0-2.473597473E-055.6219504396E-01+
*       -1.875418712E-01               0
GRID*               3793               0-3.786250603E-026.2564207683E-01+
*       -1.875295456E-01               0
GRID*               3794               0-3.785902647E-025.6298694995E-01+
*       -1.250714168E-01               0
GRID*               3795               0-1.524902110E-015.6200879613E-01+
*       -6.247685513E-02               0
GRID*               3796               0-1.141433721E-014.9939279837E-01+
*       -6.247685513E-02               0
GRID*               3797               0-1.904155472E-014.9887914184E-01+
*       -6.247685513E-02               0
GRID*               3798               03.8353118561E-024.9955227258E-01+
*       -6.254187118E-02               0
GRID*               3799               01.3520964419E-044.3693950414E-01+
*       -6.254187118E-02               0
GRID*               3800               0-3.810422816E-024.9937791677E-01+
*       -6.254187118E-02               0
GRID*               3801               0-7.614006716E-026.8821699141E-01+
*       -6.252954564E-02               0
GRID*               3802               0-1.142888371E-016.2544094741E-01+
*       -6.252954564E-02               0
GRID*               3803               0-1.031951896E-016.6527487631E-01+
*       -8.579633591E-02               0
GRID*               3804               0-1.417872301E-016.6428184090E-01+
*       -2.326679027E-02               0
GRID*               3805               03.0385939253E-01-3.728933857E-01+
*       -1.250017701E-01               0
GRID*               3806               02.2903980797E-01-6.878738622E-01+
*       -6.250238670E-02               0
GRID*               3807               01.9123484977E-01-7.186500502E-01+
*       -3.124756984E-02               0
GRID*               3808               07.6383212543E-024.3710592356E-01+
*       -6.255236295E-02               0
GRID*               3809               03.8165303626E-023.7449315513E-01+
*       -6.255236295E-02               0
GRID*               3810               03.8008837574E-024.3709356807E-01+
*       -1.250942341E-01               0
GRID*               3811               02.2808979815E-01-6.878738622E-01+
*       -1.875023867E-01               0
GRID*               3812               0-3.792977621E-023.7421460157E-01+
*       -6.250424061E-02               0
GRID*               3813               0-7.616921402E-024.3665301420E-01+
*       -6.250424061E-02               0
GRID*               3814               0-3.808624227E-024.3681501451E-01+
*       -1.250461118E-01               0
GRID*               3815               01.5249812963E-01-5.620666917E-01+
*       -6.248858164E-02               0
GRID*               3816               01.9061914913E-01-4.992468395E-01+
*       -6.248858164E-02               0
GRID*               3817               02.2874633623E-01-5.623213359E-01+
*       -6.250238670E-02               0
GRID*               3818               01.9062531673E-01-6.251411881E-01+
*       -6.250238670E-02               0
GRID*               3819               01.9020241550E-01-5.626732280E-01+
*       -1.249909683E-01               0
GRID*               3820               07.6290025732E-026.8797048638E-01+
*       -6.256835574E-02               0
GRID*               3821               03.8058230293E-026.2532620202E-01+
*       -6.256835574E-02               0
GRID*               3822               03.8319932479E-027.1869746355E-01+
*       -3.124986297E-02               0
GRID*               3823               03.8026620428E-026.5666794993E-01+
*       -9.381821871E-02               0
GRID*               3824               08.8137040471E-056.5605317920E-01+
*       -3.124986297E-02               0
GRID*               3825               01.8990458298E-014.9967547615E-01+
*       -1.874675639E-01               0
GRID*               3826               0-5.614828422E-053.7436866549E-01+
*       -1.250566036E-01               0
GRID*               3827               03.7975210077E-023.7470273877E-01+
*       -1.875523629E-01               0
GRID*               3828               01.1461139695E-013.7465856227E-01+
*       -6.255236295E-02               0
GRID*               3829               01.5270637191E-014.3716437819E-01+
*       -6.246756387E-02               0
GRID*               3830               01.1447818750E-014.9961173948E-01+
*       -6.246756387E-02               0
GRID*               3831               01.9000652516E-01-7.187165250E-01+
*       -2.187543493E-01               0
GRID*               3832               01.5234969194E-01-7.187165250E-01+
*       -1.562590257E-01               0
GRID*               3833               01.9024632961E-01-6.565903872E-01+
*       -1.562567360E-01               0
GRID*               3834               01.8987907443E-01-4.996575206E-01+
*       -1.874885816E-01               0
GRID*               3835               01.5194968269E-01-5.622116940E-01+
*       -1.874885816E-01               0
GRID*               3836               01.9007686979E-01-6.252861904E-01+
*       -1.875023867E-01               0
GRID*               3837               02.2800626153E-01-5.627320170E-01+
*       -1.875023867E-01               0
GRID*               3838               01.3265658566E+00-2.307245325E-01+
*       3.0340339039E-01               0
GRID*               3839               01.3320076642E+00-2.069444340E-01+
*       2.4851041106E-01               0
GRID*               3840               01.2662429009E+00-2.408043372E-01+
*       2.3830233394E-01               0
GRID*               3841               01.2070076889E+00-2.085526073E-01+
*       2.2827185914E-01               0
GRID*               3842               01.2079852252E+00-2.844840453E-01+
*       1.9376104850E-01               0
GRID*               3843               0-5.728477589E-017.1734877949E-01+
*       -3.101127695E-02               0
GRID*               3844               0-6.091855959E-016.5151885705E-01+
*       -3.101127695E-02               0
GRID*               3845               0-6.494310967E-017.1734877949E-01+
*       -3.101127695E-02               0
GRID*               3846               01.3329851843E+00-2.790720704E-01+
*       1.9615178608E-01               0
GRID*               3847               0-1.367446222E+00-7.142199300E-01+
*       3.3804242426E-01               0
GRID*               3848               0-1.367446222E+00-7.142199300E-01+
*       4.1304242426E-01               0
GRID*               3849               0-1.304843702E+00-7.142199300E-01+
*       3.7515008959E-01               0
GRID*               3850               01.3329851843E+00-3.508298413E-01+
*       1.9956597934E-01               0
GRID*               3851               01.3306975332E+00-3.186528432E-01+
*       1.1043336279E-01               0
GRID*               3852               01.2649327700E+00-3.138950936E-01+
*       1.7011334159E-01               0
GRID*               3853               01.2136548416E+00-4.591006588E-01+
*       8.0408081629E-01               0
GRID*               3854               01.2159487724E+00-4.136940679E-01+
*       8.3429662443E-01               0
GRID*               3855               01.2691541845E+00-4.860758940E-01+
*       8.1876586874E-01               0
GRID*               3856               01.2714481153E+00-4.406693031E-01+
*       8.4898167688E-01               0
GRID*               3857               01.2136548416E+00-4.138392454E-01+
*       7.7226975077E-01               0
GRID*               3858               0-6.048299952E-01-3.185485678E-01+
*       -1.727410022E-01               0
GRID*               3859               0-5.677338641E-01-3.802118169E-01+
*       -1.855915156E-01               0
GRID*               3860               0-4.186149515E-01-2.506492383E-01+
*       -6.092690948E-02               0
GRID*               3861               01.3386548416E+00-4.065283313E-01+
*       6.8526878800E-01               0
GRID*               3862               01.3396009986E+00-3.583298102E-01+
*       6.3804769037E-01               0
GRID*               3863               01.3374542127E+00-4.112053644E-01+
*       5.9576759082E-01               0
GRID*               3864               0-6.774248025E-01-1.671359259E-01+
*       -1.947287951E-01               0
GRID*               3865               0-7.139226176E-01-1.042528647E-01+
*       -1.947287951E-01               0
GRID*               3866               0-7.195245380E-01-2.574385108E-01+
*       -2.042073558E-01               0
GRID*               3867               0-7.203936346E-01-1.782238699E-01+
*       -1.489361509E-01               0
GRID*               3868               0-7.560223531E-01-1.945554496E-01+
*       -2.042073558E-01               0
GRID*               3869               01.2136548444E+00-3.735084603E-01+
*       7.4828426947E-01               0
GRID*               3870               01.2583902398E+00-3.503974252E-02+
*       -1.907017397E-01               0
GRID*               3871               01.0317177202E+00-1.519007934E-01+
*       -6.984236644E-02               0
GRID*               3872               01.0717396065E+00-2.149999269E-01+
*       -6.984236644E-02               0
GRID*               3873               01.0484661956E+00-2.286764809E-01+
*       -1.408543682E-01               0
GRID*               3874               01.3881558986E+00-4.647220240E-02+
*       -1.907017397E-01               0
GRID*               3875               01.3588918045E+001.4151517782E-02+
*       -1.907017397E-01               0
GRID*               3876               0-1.327748457E+00-6.936209341E-02+
*       2.4434639285E-01               0
GRID*               3877               01.2540794536E+001.5797032114E-01+
*       1.0078619548E+00               0
GRID*               3878               01.2540791241E+001.9023845747E-01+
*       9.8923439541E-01               0
GRID*               3879               01.2340987265E+001.7308939561E-01+
*       1.0174892446E+00               0
GRID*               3880               01.2120987967E+001.3870751591E-01+
*       9.7372115011E-01               0
GRID*               3881               0-1.218199057E+004.3904032369E-01+
*       8.4250565983E-01               0
GRID*               3882               0-1.218199057E+003.8330588865E-01+
*       8.3314794970E-01               0
GRID*               3883               0-1.208877938E+004.7944401862E-01+
*       9.1137529420E-01               0
GRID*               3884               0-1.278327047E+004.3353194316E-01+
*       8.8308648699E-01               0
GRID*               3885               0-1.208877938E+004.2370958359E-01+
*       9.0201758407E-01               0
GRID*               3886               01.4182284102E+00-4.493932936E-02+
*       -6.104588073E-02               0
GRID*               3887               01.4826044144E+00-8.228068761E-02+
*       -6.104588073E-02               0
GRID*               3888               01.4182284102E+00-1.199393294E-01+
*       -6.104588073E-02               0
GRID*               3889               01.4808936052E+00-5.109052745E-01+
*       -1.555641667E-01               0
GRID*               3890               0-1.181699509E+006.3620158194E-01+
*       -9.869836807E-03               0
GRID*               3891               0-1.181699509E+007.1120158194E-01+
*       -9.869836807E-03               0
GRID*               3892               0-1.198113743E+006.7422938931E-01+
*       -4.362919453E-02               0
GRID*               3893               01.2136548702E+00-4.664276501E-01+
*       6.8627510483E-01               0
GRID*               3894               01.2136548719E+00-4.669309903E-01+
*       7.4631256545E-01               0
GRID*               3895               01.2778365293E+00-5.033930954E-01+
*       7.3728773457E-01               0
GRID*               3896               01.2129316656E+00-5.386038795E-01+
*       7.3384103602E-01               0
GRID*               3897               01.5176790934E+00-5.572450190E-01+
*       -1.872138690E-01               0
GRID*               3898               01.4686972964E+00-5.681748294E-01+
*       -1.761113351E-01               0
GRID*               3899               01.4904074216E+00-5.556903004E-01+
*       -2.088964487E-01               0
GRID*               3900               01.4563524180E+00-5.887328353E-01+
*       -1.972308162E-01               0
GRID*               3901               01.2124542412E+00-4.711046833E-01+
*       5.9677390766E-01               0
GRID*               3902               01.2766359004E+00-5.080701286E-01+
*       6.4778653740E-01               0
GRID*               3903               01.4076978018E+00-4.813506296E-01+
*       -1.972308162E-01               0
GRID*               3904               01.4531070104E+00-5.123609296E-01+
*       -1.972308162E-01               0
GRID*               3905               01.4189882060E+00-3.910134682E-01+
*       -1.857630854E-01               0
GRID*               3906               01.4431942371E+00-4.701479072E-01+
*       -1.329939016E-01               0
GRID*               3907               01.4643974145E+00-4.220237682E-01+
*       -1.857630854E-01               0
GRID*               3908               01.2146010014E+00-3.253099391E-01+
*       7.0106317184E-01               0
GRID*               3909               01.2817998235E+00-3.381150942E-01+
*       7.3275397452E-01               0
GRID*               3910               05.2755351260E-053.1189171661E-01+
*       -6.248076842E-02               0
GRID*               3911               0-3.816869656E-023.1176722697E-01+
*       -1.249850090E-01               0
GRID*               3912               03.7926383281E-023.1204578053E-01+
*       -1.250331314E-01               0
GRID*               3913               0-1.683219963E+00-3.583755994E-01+
*       -2.293968015E-01               0
GRID*               3914               0-1.719941808E+00-3.703021936E-01+
*       -2.293968015E-01               0
GRID*               3915               0-1.719939423E+00-3.703003805E-01+
*       -1.877305116E-01               0
GRID*               3916               07.6103812530E-024.9959938399E-01+
*       -1.250094350E-01               0
GRID*               3917               03.7905572449E-024.9965399372E-01+
*       -1.875418712E-01               0
GRID*               3918               0-5.488390451E-054.3714908778E-01+
*       -1.875418712E-01               0
GRID*               3919               0-3.414806147E-01-2.491410237E-01+
*       -1.870749413E-01               0
GRID*               3920               0-3.797787865E-01-2.496712680E-01+
*       -1.230018508E-01               0
GRID*               3921               0-4.170899553E-01-2.499331618E-01+
*       -1.859269095E-01               0
GRID*               3922               0-3.421747078E-01-3.117353871E-01+
*       -1.245702504E-01               0
GRID*               3923               01.1009001853E+007.1710549073E-01+
*       -2.198821779E-01               0
GRID*               3924               01.0249501874E+007.1710549073E-01+
*       -2.198821779E-01               0
GRID*               3925               01.0597729320E+006.5134747254E-01+
*       -2.198821779E-01               0
GRID*               3926               0-8.981494868E-01-6.808419369E-01+
*       -1.373766049E-01               0
GRID*               3927               0-8.742836877E-01-7.177892010E-01+
*       -2.207037974E-01               0
GRID*               3928               0-9.139903227E-01-7.177892010E-01+
*       -1.583048206E-01               0
GRID*               3929               0-8.972765626E-01-6.486311379E-01+
*       -1.704793791E-01               0
GRID*               3930               0-7.641832558E-01-7.180338891E-01+
*       -9.404451640E-02               0
GRID*               3931               0-7.257194040E-01-6.547288446E-01+
*       -9.364676152E-02               0
GRID*               3932               0-8.235950680E-01-6.488758260E-01+
*       -1.062935932E-01               0
GRID*               3933               0-5.343909437E-01-6.878934767E-01+
*       -6.255260683E-02               0
GRID*               3934               0-4.959683520E-01-6.254679205E-01+
*       -6.255260683E-02               0
GRID*               3935               0-3.796131174E-01-4.370207322E-01+
*       -1.874953091E-01               0
GRID*               3936               0-3.039285851E-01-4.371165550E-01+
*       -1.875626138E-01               0
GRID*               3937               0-3.423601846E-01-4.371343377E-01+
*       -1.250579229E-01               0
GRID*               3938               0-3.431673344E-01-3.747797384E-01+
*       -6.249530908E-02               0
GRID*               3939               0-3.042879588E-01-3.746503861E-01+
*       -1.249897826E-01               0
GRID*               3940               0-2.672753236E-01-3.748384803E-01+
*       -6.249447347E-02               0
GRID*               3941               0-3.053475494E-01-4.373224319E-01+
*       -6.256261384E-02               0
GRID*               3942               0-2.664681738E-01-4.371930796E-01+
*       -1.250570873E-01               0
GRID*               3943               0-2.658563592E-01-3.746326034E-01+
*       -1.874944735E-01               0
GRID*               3944               0-2.662826970E-01-3.117941290E-01+
*       -1.245694148E-01               0
GRID*               3945               0-3.037431082E-01-3.117176044E-01+
*       -1.870749413E-01               0
GRID*               3946               0-1.207979302E+005.6328560047E-01+
*       6.5440180024E-01               0
GRID*               3947               0-1.269179104E+005.0397598707E-01+
*       7.1033715551E-01               0
GRID*               3948               0-1.209949850E+005.7253652316E-01+
*       7.2044808900E-01               0
GRID*               3949               0-1.209402792E+006.2645127565E-01+
*       6.3751019653E-01               0
GRID*               3950               0-1.268632045E+005.5789073956E-01+
*       6.2739926305E-01               0
GRID*               3951               0-1.270602594E+005.6714166224E-01+
*       6.9344555181E-01               0
GRID*               3952               0-1.250419338E+00-6.794433317E-01+
*       -1.370567091E-01               0
GRID*               3953               0-1.321317887E+00-6.794433317E-01+
*       -1.372315411E-01               0
GRID*               3954               0-1.283481773E+00-6.794433317E-01+
*       -8.939645895E-02               0
GRID*               3955               0-1.367758105E+00-7.132004781E-01+
*       -9.148347949E-03               0
GRID*               3956               0-1.367758105E+00-6.382004781E-01+
*       -9.148347949E-03               0
GRID*               3957               0-1.368343210E+00-7.108642341E-01+
*       2.1070495438E-02               0
GRID*               3958               0-1.337351368E+00-6.740647122E-01+
*       1.1922147489E-02               0
GRID*               3959               0-1.368343210E+00-6.358642341E-01+
*       2.1070495438E-02               0
GRID*               3960               0-1.198348165E+00-4.178863616E-01+
*       -6.823530649E-02               0
GRID*               3961               0-1.168550738E+00-3.419133902E-01+
*       -1.293348508E-01               0
GRID*               3962               0-1.160523166E+00-4.551308877E-01+
*       -1.150204164E-01               0
GRID*               3963               0-1.225458340E+001.2178223314E-01+
*       1.0746792231E+00               0
GRID*               3964               0-1.225458340E+007.6438120238E-02+
*       1.0899940301E+00               0
GRID*               3965               0-1.225458340E+001.1043143870E-01+
*       1.1242362557E+00               0
GRID*               3966               0-1.203905074E+005.6419426879E-01+
*       5.2674658203E-01               0
GRID*               3967               0-1.203905056E+005.0787110146E-01+
*       5.5834883068E-01               0
GRID*               3968               0-1.209402773E+005.7328287844E-01+
*       5.9751111149E-01               0
GRID*               3969               0-1.209402792E+006.2960604577E-01+
*       5.6590886284E-01               0
GRID*               3970               0-1.264557818E+005.5564463775E-01+
*       5.7134537853E-01               0
GRID*               3971               0-1.334402741E+006.8552820736E-01+
*       6.0525382967E-01               0
GRID*               3972               0-1.271881897E+006.8552820736E-01+
*       5.6657300319E-01               0
GRID*               3973               0-1.271898692E+006.8552820736E-01+
*       6.3455442800E-01               0
GRID*               3974               0-1.207979284E+005.1011720327E-01+
*       6.1440271520E-01               0
GRID*               3975               0-1.273925125E+005.5350590209E-01+
*       1.1491197182E+00               0
GRID*               3976               0-1.367627917E+005.6999004372E-01+
*       1.1738422735E+00               0
GRID*               3977               0-1.305304498E+005.2186866356E-01+
*       1.1266622949E+00               0
GRID*               3978               0-1.305126513E+005.4801517813E-01+
*       1.2034643245E+00               0
GRID*               3979               0-1.209402801E+006.8552820736E-01+
*       6.0525382967E-01               0
GRID*               3980               0-1.179657187E+007.2165765487E-01+
*       6.3100707342E-01               0
GRID*               3981               0-1.240309922E+006.5718586223E-01+
*       6.3626090309E-01               0
GRID*               3982               0-1.179657178E+006.6258072315E-01+
*       6.6326344028E-01               0
GRID*               3983               0-1.208877938E+004.8247874579E-01+
*       9.9110964802E-01               0
GRID*               3984               0-1.208877938E+005.4052374451E-01+
*       9.5777908642E-01               0
GRID*               3985               0-1.211426529E+005.6723561922E-01+
*       1.0179598700E+00               0
GRID*               3986               0-1.273928003E+005.9415107966E-01+
*       1.0883968102E+00               0
GRID*               3987               0-1.273926550E+006.2162979334E-01+
*       1.0229476058E+00               0
GRID*               3988               0-1.242972075E+006.8693592218E-01+
*       9.7184031113E-01               0
GRID*               3989               0-1.242973527E+006.5945720850E-01+
*       1.0372895155E+00               0
GRID*               3990               0-1.243148634E+005.9266551636E-01+
*       1.0212103939E+00               0
GRID*               3991               0-3.787791934E-011.7738001917E-01+
*       -6.295261822E-02               0
GRID*               3992               0-4.165690365E-011.8779270481E-01+
*       -1.233769002E-01               0
GRID*               3993               0-4.163719162E-012.5493677201E-01+
*       -6.042428194E-02               0
GRID*               3994               0-3.412740976E-012.4970055434E-01+
*       -5.932752346E-02               0
GRID*               3995               0-3.414712179E-011.8255648714E-01+
*       -1.222801417E-01               0
GRID*               3996               0-3.790639407E-012.6011323999E-01+
*       -1.197518054E-01               0
GRID*               3997               0-5.047821851E-011.2570877237E-01+
*       -1.964155081E-01               0
GRID*               3998               0-4.667048719E-011.1831407305E-01+
*       -1.343681263E-01               0
GRID*               3999               0-4.170536270E-011.1763065128E-01+
*       -1.879526182E-01               0
GRID*               4000               0-4.546463498E-011.9518740413E-01+
*       -1.854242819E-01               0
GRID*               4001               0-5.042975947E-011.9587082590E-01+
*       -1.318397900E-01               0
GRID*               4002               0-1.367230968E+006.5656476557E-01+
*       1.0195702629E+00               0
GRID*               4003               0-1.304730990E+006.6806044448E-01+
*       9.8785289607E-01               0
GRID*               4004               0-1.304732442E+006.4058173079E-01+
*       1.0533021005E+00               0
GRID*               4005               0-1.348511751E+004.1137796144E-01+
*       -1.850106653E-01               0
GRID*               4006               0-1.208566734E+004.4162954861E-01+
*       3.4425285647E-02               0
GRID*               4007               0-1.208566720E+004.0918168574E-01+
*       9.1976142568E-02               0
GRID*               4008               0-1.208566725E+004.7223183962E-01+
*       7.9384294224E-02               0
GRID*               4009               0-1.208566734E+003.6662954861E-01+
*       3.4425285647E-02               0
GRID*               4010               0-3.792776143E-011.8000269810E-01+
*       -1.879526182E-01               0
GRID*               4011               0-4.168703371E-012.5755945095E-01+
*       -1.854242819E-01               0
GRID*               4012               0-4.547601767E-015.9296702698E-02+
*       -1.935040395E-01               0
GRID*               4013               0-1.409751373E+004.7273736426E-01+
*       -6.452586354E-02               0
GRID*               4014               0-1.334674303E+005.7030699551E-01+
*       1.5022957419E-02               0
GRID*               4015               0-1.345675729E+005.1804435977E-01+
*       -4.950290612E-02               0
GRID*               4016               0-1.333566674E+004.7262651059E-01+
*       1.0219559438E-01               0
GRID*               4017               0-1.368144699E+006.4763317790E-01+
*       4.6207719929E-02               0
GRID*               4018               0-1.304069055E+006.1794017341E-01+
*       6.1230677348E-02               0
GRID*               4019               0-1.367070878E+006.3768707285E-01+
*       1.9468236630E-02               0
GRID*               4020               0-1.336465630E+006.8532025076E-01+
*       6.5675956559E-02               0
GRID*               4021               0-1.302995234E+006.0799406836E-01+
*       3.4491194049E-02               0
GRID*               4022               0-3.413172599E-011.1755803046E-01+
*       -1.879526182E-01               0
GRID*               4023               0-3.034476966E-011.1679914317E-01+
*       -1.253865514E-01               0
GRID*               4024               0-2.657886427E-011.2412122167E-01+
*       -1.874339332E-01               0
GRID*               4025               0-3.038121640E-011.8987856564E-01+
*       -1.843275235E-01               0
GRID*               4026               0-2.659426007E-011.8911967835E-01+
*       -1.217614566E-01               0
GRID*               4027               04.5691256628E-01-6.252855862E-01+
*       -1.250048338E-01               0
GRID*               4028               04.9546201088E-01-6.556949160E-01+
*       -9.376466750E-02               0
GRID*               4029               0-1.208566712E+004.6437594019E-01+
*       1.4523442202E-01               0
GRID*               4030               0-8.663048558E-014.0852106487E-01+
*       -1.089656562E-01               0
GRID*               4031               04.1747269992E-01-3.731210389E-01+
*       -1.874634234E-01               0
GRID*               4032               01.9082955275E-013.7803621335E-01+
*       -5.940812986E-02               0
GRID*               4033               01.9093905306E-014.9973019328E-01+
*       -6.246756387E-02               0
GRID*               4034               01.9035206232E-014.4053068605E-01+
*       -1.218756937E-01               0
GRID*               4035               01.5260676091E-013.1221526881E-01+
*       -6.245225075E-02               0
GRID*               4036               01.9007594481E-013.7805636579E-01+
*       -1.844081299E-01               0
GRID*               4037               02.2802776383E-014.4054731131E-01+
*       -1.844081299E-01               0
GRID*               4038               0-1.252133688E+006.4513016976E-01+
*       -1.727507166E-01               0
GRID*               4039               01.5225708736E-013.7802487013E-01+
*       -1.219604928E-01               0
GRID*               4040               0-1.513414172E+004.5991254363E-01+
*       -2.151652638E-02               0
GRID*               4041               01.5185315296E-013.1223542124E-01+
*       -1.874522508E-01               0
GRID*               4042               01.8973574071E-012.4974370927E-01+
*       -1.874522508E-01               0
GRID*               4043               02.2795853255E-013.1556465381E-01+
*       -1.844081299E-01               0
GRID*               4044               06.1105332798E-015.6254362907E-01+
*       -5.641019050E-02               0
GRID*               4045               06.8719902320E-015.6213724903E-01+
*       -5.838036225E-02               0
GRID*               4046               04.9527097054E-013.7489556805E-01+
*       -5.587712099E-02               0
GRID*               4047               0-1.866662323E+001.5830965006E-01+
*       -2.186755574E-01               0
GRID*               4048               0-1.803667033E+001.3783846868E-01+
*       -2.186755574E-01               0
GRID*               4049               0-1.812269421E+002.0336671872E-01+
*       -2.186755574E-01               0
GRID*               4050               06.0700986018E-013.1149294888E-01+
*       -5.465724492E-02               0
GRID*               4051               05.6820204845E-012.4947068698E-01+
*       -5.465724492E-02               0
GRID*               4052               05.3186041545E-013.1284246003E-01+
*       -5.587712099E-02               0
GRID*               4053               05.7066822718E-013.7486472193E-01+
*       -5.587712099E-02               0
GRID*               4054               04.1811915235E-012.4726182390E-01+
*       -5.924683574E-02               0
GRID*               4055               04.5660817365E-013.0962922628E-01+
*       -5.924683574E-02               0
GRID*               4056               04.9319761855E-012.4757611826E-01+
*       -5.924683574E-02               0
GRID*               4057               04.5497065450E-014.3676564216E-01+
*       -1.874218913E-01               0
GRID*               4058               0-2.666840221E-01-2.496178458E-01+
*       -6.207494128E-02               0
GRID*               4059               0-2.281226652E-01-2.493322702E-01+
*       -1.246127396E-01               0
GRID*               4060               0-1.906372413E-01-2.500709861E-01+
*       -6.253779836E-02               0
GRID*               4061               0-2.287972731E-01-3.125328449E-01+
*       -6.249447347E-02               0
GRID*               4062               0-1.902359162E-01-3.122472692E-01+
*       -1.250322718E-01               0
GRID*               4063               01.5626378290E+00-6.340986312E-02+
*       -1.852043655E-01               0
GRID*               4064               01.7520256565E+002.5974394011E-01+
*       -1.814073665E-01               0
GRID*               4065               01.7088686006E+002.9994948131E-01+
*       -1.814073665E-01               0
GRID*               4066               01.6830988433E+002.3114236112E-01+
*       -1.814073665E-01               0
GRID*               4067               01.5468976942E+003.3882770230E-01+
*       -1.508089332E-01               0
GRID*               4068               01.5317991426E+003.2026620936E-01+
*       -1.714823143E-01               0
GRID*               4069               01.5809362666E+003.7427658077E-01+
*       -1.869511702E-01               0
GRID*               4070               01.5525636456E+003.1422507968E-01+
*       -1.710926711E-01               0
GRID*               4071               01.5658377150E+003.5571508782E-01+
*       -2.076245514E-01               0
GRID*               4072               0-1.901100499E-01-3.747070473E-01+
*       -1.874944735E-01               0
GRID*               4073               0-2.280411007E-01-4.372041815E-01+
*       -1.874944735E-01               0
GRID*               4074               0-1.520278268E-01-4.372199387E-01+
*       -1.875485800E-01               0
GRID*               4075               0-1.903137249E-01-4.372220194E-01+
*       -1.250430534E-01               0
GRID*               4076               0-1.139467035E-01-3.746952680E-01+
*       -1.875655329E-01               0
GRID*               4077               0-1.522326017E-01-3.746973487E-01+
*       -1.250600064E-01               0
GRID*               4078               0-1.141503786E-01-4.372102402E-01+
*       -1.251141128E-01               0
GRID*               4079               0-1.519500181E-01-3.122451884E-01+
*       -1.875377984E-01               0
GRID*               4080               0-1.898405273E-01-2.497452134E-01+
*       -1.875377984E-01               0
GRID*               4081               0-2.280005591E-01-3.122070722E-01+
*       -1.874944735E-01               0
GRID*               4082               0-1.140725699E-01-3.122354899E-01+
*       -1.251033312E-01               0
GRID*               4083               0-1.339131170E+00-4.187826675E-01+
*       7.2691727755E-01               0
GRID*               4084               0-1.337724818E+00-4.212123096E-01+
*       6.3278054672E-01               0
GRID*               4085               01.3037135858E+006.5956251531E-01+
*       1.0373955824E+00               0
GRID*               4086               01.2547807241E+006.4609282091E-01+
*       1.0698594126E+00               0
GRID*               4087               01.2547821412E+006.7332497267E-01+
*       1.0048706863E+00               0
GRID*               4088               01.2847472306E+006.4421944057E-01+
*       1.0037000194E+00               0
GRID*               4089               0-1.212724845E+00-4.742637900E-01+
*       5.0573742987E-01               0
GRID*               4090               0-1.265334607E+00-4.333754750E-01+
*       4.9878246727E-01               0
GRID*               4091               0-1.201359763E+00-4.648639521E-01+
*       4.3164780315E-01               0
GRID*               4092               0-1.276028647E+00-5.162412115E-01+
*       5.3932129101E-01               0
GRID*               4093               0-1.274688567E+00-6.540528631E-01+
*       7.1010489486E-01               0
GRID*               4094               0-1.274684773E+00-6.540528631E-01+
*       6.6440559196E-01               0
GRID*               4095               0-1.305663549E+00-7.176306853E-01+
*       7.0850798088E-01               0
GRID*               4096               0-1.306602109E+00-6.216835484E-01+
*       6.6861287574E-01               0
GRID*               4097               0-1.305659755E+00-7.176306853E-01+
*       6.6280867797E-01               0
GRID*               4098               0-1.274550012E+00-6.698535550E-01+
*       5.8218594111E-01               0
GRID*               4099               0-1.274534390E+00-6.698535550E-01+
*       5.1420504341E-01               0
GRID*               4100               0-1.304167618E+00-7.165003437E-01+
*       5.5972582157E-01               0
GRID*               4101               0-1.304183240E+00-7.165003437E-01+
*       6.2770671926E-01               0
GRID*               4102               0-1.304990833E+00-6.363538987E-01+
*       5.5129126618E-01               0
GRID*               4103               01.3279823701E+003.7687406366E-01+
*       1.1282792941E+00               0
GRID*               4104               0-1.212724845E+00-4.710044218E-01+
*       5.7248195296E-01               0
GRID*               4105               0-1.212053803E+00-5.444703203E-01+
*       5.3893114998E-01               0
GRID*               4106               0-1.212188564E+00-5.286696284E-01+
*       6.2115080083E-01               0
GRID*               4107               0-1.275492366E+00-5.739064181E-01+
*       5.8799013888E-01               0
GRID*               4108               0-1.337053776E+00-5.454211020E-01+
*       5.6428071684E-01               0
GRID*               4109               0-1.337188537E+00-5.884662535E-01+
*       6.0398318912E-01               0
GRID*               4110               0-1.322354142E+006.7512996873E-01+
*       -1.431972852E-01               0
GRID*               4111               0-1.252297003E+006.7512996873E-01+
*       -1.435256213E-01               0
GRID*               4112               0-1.284882308E+006.7512996873E-01+
*       -9.558643529E-02               0
GRID*               4113               01.3279823701E+003.8370962194E-01+
*       1.1985346945E+00               0
GRID*               4114               01.3279823701E+004.2847350120E-01+
*       1.1649061913E+00               0
GRID*               4115               0-1.212724846E+00-4.632172258E-01+
*       6.3920790667E-01               0
GRID*               4116               0-1.212188565E+00-5.208824325E-01+
*       6.8787675454E-01               0
GRID*               4117               03.7987728636E-025.6274044492E-01+
*       -1.251102269E-01               0
GRID*               4118               07.6362103605E-025.6275280042E-01+
*       -6.256835574E-02               0
GRID*               4119               01.1411279757E-015.6279991182E-01+
*       -1.250359196E-01               0
GRID*               4120               07.5914557493E-025.6285452155E-01+
*       -1.875683557E-01               0
GRID*               4121               01.4995857610E-046.2618747779E-01+
*       -1.250979014E-01               0
GRID*               4122               0-3.778852481E-026.2557270706E-01+
*       -6.252954564E-02               0
GRID*               4123               0-3.782013468E-026.5691445496E-01+
*       -9.377940861E-02               0
GRID*               4124               07.5973355791E-026.8797048638E-01+
*       -1.875683557E-01               0
GRID*               4125               03.7984249069E-026.2539557180E-01+
*       -1.875683557E-01               0
GRID*               4126               01.1389199031E-016.2539254681E-01+
*       -1.875683557E-01               0
GRID*               4127               01.3039447705E+00-7.168777465E-01+
*       3.7467318902E-01               0
GRID*               4128               01.3665472910E+00-7.168777465E-01+
*       3.3756552369E-01               0
GRID*               4129               01.3661161201E+00-7.178823640E-01+
*       3.0114388895E-01               0
GRID*               4130               01.3035135995E+00-7.178823640E-01+
*       3.3825155428E-01               0
GRID*               4131               01.3339134635E+00-6.847601105E-01+
*       3.3870941265E-01               0
GRID*               4132               04.9165564672E-011.3356833467E-01+
*       -5.563753493E-02               0
GRID*               4133               04.5428645422E-017.0905622488E-02+
*       -6.803282735E-02               0
GRID*               4134               04.1641019260E-016.9836770035E-03+
*       -1.930328273E-01               0
GRID*               4135               03.7921293723E-016.2627574332E-02+
*       -1.874391397E-01               0
GRID*               4136               03.4147930130E-013.7132167169E-04+
*       -1.875187987E-01               0
GRID*               4137               03.7880070230E-017.4581639353E-03+
*       -1.305516261E-01               0
GRID*               4138               03.4160344692E-016.3102061263E-02+
*       -1.249579384E-01               0
GRID*               4139               04.1673490107E-018.7452418572E-03+
*       -6.803282735E-02               0
GRID*               4140               03.7941308198E-01-5.974184583E-02+
*       -6.188401198E-02               0
GRID*               4141               04.1640977452E-01-5.441656842E-02+
*       -1.299168393E-01               0
GRID*               4142               06.0798869267E-01-6.083631893E-02+
*       -5.251898578E-02               0
GRID*               4143               05.7525832120E-01-7.460859158E-02+
*       -1.246326327E-01               0
GRID*               4144               05.3096169547E-01-7.021699277E-02+
*       -1.971136469E-01               0
GRID*               4145               01.2992811222E+00-2.830752696E-01+
*       8.3432661843E-01               0
GRID*               4146               01.2992838195E+00-2.940549089E-01+
*       7.9873294148E-01               0
GRID*               4147               01.3360472990E+00-2.536133320E-01+
*       8.3886483087E-01               0
GRID*               4148               01.3199137740E+00-3.114450868E-01+
*       8.1472909272E-01               0
GRID*               4149               01.2576141425E+00-2.830757903E-01+
*       8.3432536139E-01               0
GRID*               4150               01.3152585391E+00-1.664991121E-01+
*       1.0136464558E+00               0
GRID*               4151               04.8068283614E-056.2553041592E-02+
*       -1.875105599E-01               0
GRID*               4152               03.7993966504E-021.1883757559E-04+
*       -1.875105599E-01               0
GRID*               4153               03.7894418275E-021.2480848989E-01+
*       -1.874959374E-01               0
GRID*               4154               03.8044310390E-026.2466277607E-02+
*       -1.250064973E-01               0
GRID*               4155               07.5840316495E-026.2374285869E-02+
*       -1.874959374E-01               0
GRID*               4156               0-1.209346209E+002.3670705875E-02+
*       2.2912649878E-01               0
GRID*               4157               01.2754608824E+00-3.711553775E-01+
*       1.1679401375E+00               0
GRID*               4158               01.2671703489E+00-3.963218468E-01+
*       1.2591721366E+00               0
GRID*               4159               01.3139601594E+00-4.412900467E-01+
*       1.2104199224E+00               0
GRID*               4160               01.2990905661E+00-3.870044565E-01+
*       1.2310491583E+00               0
GRID*               4161               01.1698260041E+00-2.503695131E-01+
*       8.3427267041E-01               0
GRID*               4162               01.2114913743E+00-2.503716239E-01+
*       8.3426751885E-01               0
GRID*               4163               01.1698260041E+00-2.613517444E-01+
*       7.9866768716E-01               0
GRID*               4164               01.4992300185E-046.2464884115E-02+
*       -6.251055986E-02               0
GRID*               4165               0-3.788690759E-026.2515524379E-02+
*       -1.249798753E-01               0
GRID*               4166               0-3.793494499E-021.2476957918E-01+
*       -6.246931545E-02               0
GRID*               4167               03.7996272993E-021.2472033241E-01+
*       -6.249593740E-02               0
GRID*               4168               0-4.055760303E-051.2477097267E-01+
*       -1.249652529E-01               0
GRID*               4169               0-7.617237611E-026.2234005461E-02+
*       -6.246931545E-02               0
GRID*               4170               0-1.291504097E+006.7512996873E-01+
*       -2.020613369E-01               0
GRID*               4171               04.9700219892E-01-7.181958435E-01+
*       -3.124472063E-02               0
GRID*               4172               02.6605635778E-01-4.994991710E-01+
*       -1.875724064E-01               0
GRID*               4173               04.9360939296E-01-5.012521501E-01+
*       -1.844975797E-01               0
GRID*               4174               05.3220316483E-01-5.623624099E-01+
*       -1.875199469E-01               0
GRID*               4175               01.3292492904E+00-5.725672981E-01+
*       8.4316621786E-01               0
GRID*               4176               01.2684309781E+00-5.577487832E-01+
*       8.0629433931E-01               0
GRID*               4177               03.8304032104E-022.5601841473E-04+
*       -6.251055986E-02               0
GRID*               4178               07.6150382096E-026.2511466708E-02+
*       -6.249593740E-02               0
GRID*               4179               01.1424737095E-011.9471095342E-04+
*       -6.253720970E-02               0
GRID*               4180               07.6141299246E-021.4952185261E-04+
*       -1.250477696E-01               0
GRID*               4181               01.1398764924E-016.2404970146E-02+
*       -1.250331471E-01               0
GRID*               4182               01.2828301988E+00-3.245780641E-01+
*       5.8572307007E-01               0
GRID*               4183               01.3419791477E+00-3.475847103E-01+
*       5.6845369169E-01               0
GRID*               4184               0-1.052668581E+00-8.719896547E-03+
*       -5.274577312E-02               0
GRID*               4185               0-1.068511363E+00-7.011806366E-02+
*       -5.274577312E-02               0
GRID*               4186               01.2586467979E+00-2.695382403E-01+
*       5.7883335913E-01               0
GRID*               4187               01.2562686488E+00-2.802833401E-01+
*       6.4842735781E-01               0
GRID*               4188               01.2124855246E+00-2.401557190E-01+
*       6.2390110669E-01               0
GRID*               4189               01.2390470746E+00-2.844504429E-01+
*       5.6119681895E-01               0
GRID*               4190               01.2366689255E+00-2.951955428E-01+
*       6.3079081762E-01               0
GRID*               4191               0-1.062405449E+00-8.621538154E-02+
*       -1.777457731E-01               0
GRID*               4192               0-1.094907376E+00-2.890644976E-02+
*       -1.777457731E-01               0
GRID*               4193               0-1.433889812E+003.3964335285E-01+
*       -6.094217660E-02               0
GRID*               4194               0-1.433889812E+004.1464335285E-01+
*       -6.094217660E-02               0
GRID*               4195               0-1.356368942E+003.5928796639E-01+
*       -6.001066533E-02               0
GRID*               4196               0-1.391508806E+003.9893131923E-01+
*       -1.209528419E-01               0
GRID*               4197               0-1.337312383E+007.2772505148E-01+
*       -2.285997648E-01               0
GRID*               4198               0-1.368162428E+007.2772505148E-01+
*       -1.697357131E-01               0
GRID*               4199               0-1.413262381E+007.2772505148E-01+
*       -2.285997648E-01               0
GRID*               4200               0-1.345304089E+006.0012996873E-01+
*       -7.706133686E-02               0
GRID*               4201               0-1.333515857E+006.3808934477E-01+
*       -1.122365485E-01               0
GRID*               4202               0-1.386961716E+006.3795937604E-01+
*       -3.517521164E-02               0
GRID*               4203               0-1.368136752E+006.3604308809E-01+
*       -1.001400392E-02               0
GRID*               4204               0-1.314690893E+006.3617305682E-01+
*       -8.707534079E-02               0
GRID*               4205               0-1.356348520E+006.7400246412E-01+
*       -4.518921556E-02               0
GRID*               4206               0-1.231369002E+004.3428796639E-01+
*       -6.001066533E-02               0
GRID*               4207               0-1.209674363E+004.9530699551E-01+
*       1.5022957419E-02               0
GRID*               4208               01.3419791477E+00-2.983370805E-01+
*       4.7179470687E-01               0
GRID*               4209               01.2800354383E+00-2.604249028E-01+
*       5.0078178438E-01               0
GRID*               4210               01.3368062382E+00-2.449290191E-01+
*       4.5644741986E-01               0
GRID*               4211               01.3332314033E+00-2.915026151E-01+
*       3.9659467240E-01               0
GRID*               4212               01.2712876939E+00-2.535904375E-01+
*       4.2558174991E-01               0
GRID*               4213               0-1.169922599E+00-9.239696446E-02+
*       1.0053711854E+00               0
GRID*               4214               0-1.169922599E+00-1.346758933E-01+
*       1.0419045412E+00               0
GRID*               4215               0-1.161327571E+00-6.836275679E-02+
*       1.0061369307E+00               0
GRID*               4216               0-1.182500222E+00-1.051295845E-01+
*       1.0177768431E+00               0
GRID*               4217               0-1.161327571E+00-1.106416856E-01+
*       1.0426702864E+00               0
GRID*               4218               0-1.604889226E+003.3132574114E-01+
*       -1.086337494E-01               0
GRID*               4219               0-1.551758998E+003.2153745573E-01+
*       -1.279092455E-01               0
GRID*               4220               0-1.522159904E+003.8907499111E-01+
*       -1.026088571E-01               0
GRID*               4221               0-1.565646746E+003.5842672094E-01+
*       -6.432333527E-02               0
GRID*               4222               0-1.595245839E+002.9088918556E-01+
*       -8.962372367E-02               0
GRID*               4223               0-1.512516517E+003.4863843552E-01+
*       -8.359883138E-02               0
GRID*               4224               01.2169791575E+00-3.513680530E-01+
*       5.5132261688E-01               0
GRID*               4225               01.2146010084E+00-3.621131529E-01+
*       6.2091661556E-01               0
GRID*               4226               01.2124542225E+00-4.149887071E-01+
*       5.7863651601E-01               0
GRID*               4227               0-1.336457682E+006.7373016094E-01+
*       9.4542327068E-03               0
GRID*               4228               0-1.304061108E+006.0635008360E-01+
*       5.0089534958E-03               0
GRID*               4229               0-1.522159801E+003.8907505935E-01+
*       -1.442755163E-01               0
GRID*               4230               0-1.556735511E+003.9585969723E-01+
*       -1.878444015E-01               0
GRID*               4231               0-1.503605386E+003.8607134357E-01+
*       -1.654532384E-01               0
GRID*               4232               0-1.577992820E+003.7543162123E-01+
*       -1.863026864E-01               0
GRID*               4233               0-1.559438405E+003.7242790546E-01+
*       -2.074804085E-01               0
GRID*               4234               0-1.524862695E+003.6564326757E-01+
*       -1.639115233E-01               0
GRID*               4235               01.2169791509E+00-2.702398079E-01+
*       4.9345192502E-01               0
GRID*               4236               01.2169791497E+00-2.975450182E-01+
*       5.4330709861E-01               0
GRID*               4237               01.2118062413E+00-2.168317466E-01+
*       4.7810463800E-01               0
GRID*               4238               01.2118062401E+00-2.441369569E-01+
*       5.2795981159E-01               0
GRID*               4239               01.2146010006E+00-3.082901181E-01+
*       6.1290109728E-01               0
GRID*               4240               01.1383934476E+007.1522514581E-01+
*       -2.170114354E-01               0
GRID*               4241               01.1739032930E+006.4802958192E-01+
*       -2.170114354E-01               0
GRID*               4242               01.1749986676E+007.1555543562E-01+
*       -2.183116528E-01               0
GRID*               4243               01.1741421466E+006.8078058143E-01+
*       -1.853230882E-01               0
GRID*               4244               01.2105085130E+006.4835987173E-01+
*       -2.183116528E-01               0
GRID*               4245               01.2098743429E+00-3.754702365E-01+
*       3.9538756627E-01               0
GRID*               4246               01.2082314182E+00-3.112810123E-01+
*       3.6054224702E-01               0
GRID*               4247               01.2659035644E+00-1.104306419E-01+
*       4.8293198189E-01               0
GRID*               4248               01.2534729048E+00-1.660084207E-01+
*       5.0946406981E-01               0
GRID*               4249               01.2122661731E+00-1.246029006E-01+
*       5.0823115606E-01               0
GRID*               4250               01.2460864566E+00-1.100335426E-01+
*       4.5766949569E-01               0
GRID*               4251               01.2336557970E+00-1.656113214E-01+
*       4.8420158361E-01               0
GRID*               4252               01.2949497320E+006.8907305802E-01+
*       -1.934223184E-01               0
GRID*               4253               01.3261279705E+006.8907305802E-01+
*       -1.347353961E-01               0
GRID*               4254               01.2552278116E+006.8907305802E-01+
*       -1.345632343E-01               0
GRID*               4255               01.3075692997E+00-7.574176484E-02+
*       4.6931901694E-01               0
GRID*               4256               01.2874611760E+00-3.153183657E-02+
*       4.2543966965E-01               0
GRID*               4257               01.2953066278E+00-1.141231753E-02+
*       4.6238836506E-01               0
GRID*               4258               01.3353385530E+00-4.745072680E-02+
*       4.8834237521E-01               0
GRID*               4259               01.3274931012E+00-6.757024584E-02+
*       4.5139367981E-01               0
GRID*               4260               01.3152304293E+00-3.240798532E-03+
*       4.4446302793E-01               0
GRID*               4261               01.2069800066E+00-8.350156290E-02+
*       3.8849485419E-01               0
GRID*               4262               01.2015658599E+00-1.513686288E-01+
*       3.7952463157E-01               0
GRID*               4263               0-1.326273383E+00-3.315631942E-01+
*       5.1957485641E-01               0
GRID*               4264               0-1.265248254E+00-3.731664180E-01+
*       5.6877304150E-01               0
GRID*               4265               0-1.337724818E+00-4.011720891E-01+
*       5.2367390891E-01               0
GRID*               4266               0-1.326359736E+00-3.917722513E-01+
*       4.4958428219E-01               0
GRID*               4267               0-1.253883172E+00-3.637665801E-01+
*       4.9468341478E-01               0
GRID*               4268               09.9850134393E-015.8717186659E-01+
*       -1.888571625E-01               0
GRID*               4269               09.1681910992E-015.5482156077E-01+
*       -1.856403628E-01               0
GRID*               4270               08.8228804669E-016.2015398078E-01+
*       -1.856403628E-01               0
GRID*               4271               09.8861373512E-017.1756949318E-01+
*       -2.188253723E-01               0
GRID*               4272               01.0234364797E+006.5181147499E-01+
*       -2.188253723E-01               0
GRID*               4273               01.0262139498E+006.8467498392E-01+
*       -1.887075502E-01               0
GRID*               4274               01.0737757833E+005.8593958860E-01+
*       -1.888571625E-01               0
GRID*               4275               09.8574919245E-016.4997422910E-01+
*       -2.192537984E-01               0
GRID*               4276               09.1047475312E-016.5120650710E-01+
*       -2.192537984E-01               0
GRID*               4277               01.0025295138E+006.1742985408E-01+
*       -1.581109609E-01               0
GRID*               4278               0-1.335671627E+00-4.165418188E-01+
*       8.3511037094E-01               0
GRID*               4279               0-1.335671627E+00-3.602817552E-01+
*       8.5316720687E-01               0
GRID*               4280               0-1.325953971E+00-4.245459630E-01+
*       9.0591759482E-01               0
GRID*               4281               0-1.262875650E+00-4.108667339E-01+
*       8.6456876125E-01               0
GRID*               4282               09.2192998909E-015.5252056410E-01+
*       -1.220182891E-01               0
GRID*               4283               09.4130125246E-014.9023299418E-01+
*       -1.874584832E-01               0
GRID*               4284               09.4641213163E-014.8793199752E-01+
*       -1.238364095E-01               0
GRID*               4285               08.8261165264E-015.5477087536E-01+
*       -1.230988460E-01               0
GRID*               4286               01.4430695496E+006.9776978911E-01+
*       -2.015565995E-01               0
GRID*               4287               01.4017783019E+006.3240098546E-01+
*       -2.015565995E-01               0
GRID*               4288               01.4658592388E+006.3549384607E-01+
*       -2.015565995E-01               0
GRID*               4289               09.5092644785E-017.1573224729E-01+
*       -2.192537984E-01               0
GRID*               4290               01.3022818489E+00-6.574862199E-01+
*       2.4314090584E-01               0
GRID*               4291               01.2723131559E+00-6.896038559E-01+
*       2.7910468222E-01               0
GRID*               4292               01.2428755818E+00-7.142728460E-01+
*       3.7294727034E-01               0
GRID*               4293               01.2728442748E+00-6.821552100E-01+
*       3.3698349397E-01               0
GRID*               4294               01.2416438311E+00-6.538767018E-01+
*       2.7783662190E-01               0
GRID*               4295               01.3665472910E+00-7.168777465E-01+
*       4.1256552369E-01               0
GRID*               4296               01.3669234137E+00-7.188244381E-01+
*       4.4847313403E-01               0
GRID*               4297               01.3347207571E+00-6.857021846E-01+
*       4.1103865772E-01               0
GRID*               4298               01.3043208932E+00-7.188244381E-01+
*       4.1058079936E-01               0
GRID*               4299               01.1799871788E+00-7.271049616E-01+
*       3.0114993739E-01               0
GRID*               4300               01.2423845987E+00-7.271049616E-01+
*       3.3825760272E-01               0
GRID*               4301               01.2425333995E+00-7.271049616E-01+
*       2.6411795439E-01               0
GRID*               4302               01.2242368994E+00-5.888296792E-02+
*       4.2430546369E-01               0
GRID*               4303               01.2242369010E+00-1.077508810E-01+
*       4.3213745813E-01               0
GRID*               4304               01.2824669534E+00-7.161196580E-02+
*       3.8872771759E-01               0
GRID*               4305               0-1.225458340E+002.7232257213E-02+
*       1.0961064863E+00               0
GRID*               4306               0-1.246283835E+004.7451454334E-02+
*       1.0810268377E+00               0
GRID*               4307               0-1.212724828E+00-4.120558847E-01+
*       5.9682520300E-01               0
GRID*               4308               0-1.377862983E+00-6.895450396E-02+
*       1.0081121874E+00               0
GRID*               4309               0-1.377862983E+00-1.036394373E-01+
*       9.9449973520E-01               0
GRID*               4310               0-1.336195385E+00-6.895055731E-02+
*       1.0081126934E+00               0
GRID*               4311               01.2536404827E+00-1.141456594E-02+
*       4.6238866076E-01               0
GRID*               4312               01.2659031546E+00-7.574401325E-02+
*       4.6931931264E-01               0
GRID*               4313               0-1.329369575E+006.8657476002E-01+
*       2.9974503682E-01               0
GRID*               4314               0-1.266759356E+006.8657476002E-01+
*       3.3684884613E-01               0
GRID*               4315               0-1.366185097E+007.1819555663E-01+
*       3.3751594186E-01               0
GRID*               4316               0-1.296804724E+006.5477031665E-01+
*       3.3726097868E-01               0
GRID*               4317               0-1.303574878E+007.1819555663E-01+
*       3.7461975117E-01               0
GRID*               4318               0-1.330093983E+006.5318170427E-02+
*       1.0693263519E+00               0
GRID*               4319               0-1.336717940E+003.3979375738E-02+
*       1.0168608846E+00               0
GRID*               4320               0-1.328462409E+004.0231287889E-02+
*       1.0691148900E+00               0
GRID*               4321               0-1.356389659E+002.4181258961E-02+
*       1.0342125157E+00               0
GRID*               4322               0-1.211240812E+001.6114008686E-02+
*       1.0285611929E+00               0
GRID*               4323               0-1.233363985E+00-5.411670236E-02+
*       1.0781627703E+00               0
GRID*               4324               0-1.301532799E+003.1600971779E-01+
*       8.1895426205E-01               0
GRID*               4325               0-1.301532410E+003.2156412411E-01+
*       7.8210842631E-01               0
GRID*               4326               0-1.335848882E+002.6910878438E-01+
*       7.6419686014E-01               0
GRID*               4327               0-1.335849271E+002.6355437806E-01+
*       8.0104269588E-01               0
GRID*               4328               0-1.321964638E+003.4067290849E-01+
*       7.9630528645E-01               0
GRID*               4329               0-1.251256854E+002.7992918686E-01+
*       8.6649516138E-01               0
GRID*               4330               0-1.251256908E+002.6376091542E-01+
*       9.0006494855E-01               0
GRID*               4331               0-1.210850776E+002.4485977914E-01+
*       8.5620832846E-01               0
GRID*               4332               0-1.230022490E+002.8589951443E-01+
*       8.9900762812E-01               0
GRID*               4333               0-1.169824591E+002.6501815188E-01+
*       7.2037921636E-01               0
GRID*               4334               0-1.169824532E+002.5946441257E-01+
*       6.8353495699E-01               0
GRID*               4335               0-1.211490786E+002.5946374557E-01+
*       6.8353338063E-01               0
GRID*               4336               0-1.211491238E+002.6501815188E-01+
*       7.2037921636E-01               0
GRID*               4337               0-1.239788915E+003.1278461283E-01+
*       7.2453170280E-01               0
GRID*               4338               0-1.281455562E+003.1278461283E-01+
*       7.2453170280E-01               0
GRID*               4339               0-1.342085742E+005.6438176520E-01+
*       4.5336010335E-01               0
GRID*               4340               0-1.207233403E+005.2831713193E-01+
*       3.6282857791E-01               0
GRID*               4341               0-1.204369610E+005.8659324341E-01+
*       3.1752220640E-01               0
GRID*               4342               0-1.290206183E+002.1362184271E-01+
*       9.6122758779E-01               0
GRID*               4343               0-1.290206930E+001.8827450551E-01+
*       9.8854194073E-01               0
GRID*               4344               0-1.334647132E+001.0645962273E-01+
*       9.9218750606E-01               0
GRID*               4345               0-1.355701205E+001.0310099272E-01+
*       1.0134033949E+00               0
GRID*               4346               0-1.328020477E+001.0148356986E-01+
*       1.0529411593E+00               0
GRID*               4347               0-1.329705978E+002.0584908970E-01+
*       1.1948493055E+00               0
GRID*               4348               0-1.329705978E+002.4609657755E-01+
*       1.1463870626E+00               0
GRID*               4349               0-1.331929021E+003.3536199903E-01+
*       1.1400387932E+00               0
GRID*               4350               0-1.331929021E+002.9511451118E-01+
*       1.1885010361E+00               0
GRID*               4351               0-1.262885051E+002.7253481132E-01+
*       1.1708642758E+00               0
GRID*               4352               0-1.378139068E+008.7968595022E-02+
*       1.0039344700E+00               0
GRID*               4353               0-1.378139068E+005.1642658991E-02+
*       1.0122260644E+00               0
GRID*               4354               0-1.377496660E+001.7672701217E-01+
*       9.5830680016E-01               0
GRID*               4355               0-1.335832037E+001.7671997064E-01+
*       9.5831217131E-01               0
GRID*               4356               0-1.335831290E+002.0206730785E-01+
*       9.3099781837E-01               0
GRID*               4357               0-1.478322766E+00-4.273156797E-03+
*       -6.855026183E-02               0
GRID*               4358               0-1.439904563E+002.4772738976E-02+
*       -1.377633743E-01               0
GRID*               4359               0-1.468832325E+00-5.356300818E-02+
*       -1.425543768E-01               0
GRID*               4360               01.5335785028E+002.4054324615E-03+
*       -1.852043655E-01               0
GRID*               4361               0-1.336176588E+001.7661540199E-01+
*       5.4674432596E-01               0
GRID*               4362               0-1.313499414E+002.3527026948E-01+
*       5.2014247450E-01               0
GRID*               4363               0-1.355753486E+001.7914810121E-01+
*       5.2474748846E-01               0
GRID*               4364               0-1.334407820E+003.0770672358E-01+
*       4.9438481820E-01               0
GRID*               4365               0-1.334407820E+002.5536876773E-01+
*       5.1220955356E-01               0
GRID*               4366               0-1.603840965E+00-3.070538043E-01+
*       -7.268583906E-02               0
GRID*               4367               0-1.744389409E+00-7.721691715E-02+
*       -6.109096985E-02               0
GRID*               4368               0-1.741395072E+00-1.564262823E-01+
*       -6.109096985E-02               0
GRID*               4369               0-1.801005471E+00-1.508146090E-01+
*       -3.046075654E-02               0
GRID*               4370               0-1.772992706E+00-1.522067166E-01+
*       -9.155172639E-02               0
GRID*               4371               0-1.798011134E+00-2.300239742E-01+
*       -3.046075654E-02               0
GRID*               4372               0-1.746865572E+00-2.177547847E-03+
*       -6.109096985E-02               0
GRID*               4373               0-1.805104395E+00-3.910624696E-02+
*       -3.072603841E-02               0
GRID*               4374               0-1.807580559E+003.5933122348E-02+
*       -3.072603841E-02               0
GRID*               4375               0-1.777091631E+00-4.049835458E-02+
*       -9.181700826E-02               0
GRID*               4376               0-1.864179358E+00-1.879022042E-01+
*       -3.046075654E-02               0
GRID*               4377               01.6133600793E+001.8276832133E-01+
*       -1.861095063E-01               0
GRID*               4378               01.5567430607E+001.3996694573E-01+
*       -1.861095063E-01               0
GRID*               4379               01.6181015050E+001.0276375788E-01+
*       -1.852043655E-01               0
GRID*               4380               01.5814732143E+001.1595776172E-01+
*       -1.213138718E-01               0
GRID*               4381               01.5614844864E+005.9962382274E-02+
*       -1.852043655E-01               0
GRID*               4382               01.5500915317E+001.3582227475E-01+
*       -6.110950634E-02               0
GRID*               4383               01.6115964995E+001.7228289656E-01+
*       -6.110950634E-02               0
GRID*               4384               0-2.658754509E-012.5233182686E-01+
*       -1.843275235E-01               0
GRID*               4385               0-2.278728543E-013.1200099565E-01+
*       -1.874628650E-01               0
GRID*               4386               0-1.752891550E+00-4.038263997E-01+
*       -2.293306673E-01               0
GRID*               4387               0-1.775603111E+00-4.350628090E-01+
*       -2.293306673E-01               0
GRID*               4388               0-1.775603010E+00-4.350625060E-01+
*       -1.876640178E-01               0
GRID*               4389               0-1.142636855E-013.7384050853E-01+
*       -6.250424061E-02               0
GRID*               4390               0-1.520560786E-013.7415273592E-01+
*       -1.249671056E-01               0
GRID*               4391               0-1.901685359E-013.7390313252E-01+
*       -6.246286503E-02               0
GRID*               4392               0-1.522378436E-014.3658029270E-01+
*       -6.247685513E-02               0
GRID*               4393               0-1.141253862E-014.3682989610E-01+
*       -1.249810957E-01               0
GRID*               4394               0-1.900302366E-014.3689252009E-01+
*       -1.249397202E-01               0
GRID*               4395               0-1.752889165E+00-4.038245867E-01+
*       -1.876643775E-01               0
GRID*               4396               01.7712089621E+00-3.110182607E-01+
*       -5.375366057E-02               0
GRID*               4397               01.8247561662E+00-2.840002552E-01+
*       -5.375366057E-02               0
GRID*               4398               01.8707272820E+00-3.326206706E-01+
*       -3.087319926E-02               0
GRID*               4399               01.8171800779E+00-3.596386761E-01+
*       -3.087319926E-02               0
GRID*               4400               01.7967335007E+00-3.166209258E-01+
*       -8.462685984E-02               0
GRID*               4401               0-1.898851430E-012.4953976595E-01+
*       -1.874847033E-01               0
GRID*               4402               0-1.519375651E-013.1202220602E-01+
*       -1.874847033E-01               0
GRID*               4403               0-1.899732176E-013.1175413020E-01+
*       -1.249475683E-01               0
GRID*               4404               0-1.899252764E-013.7448343572E-01+
*       -1.874628650E-01               0
GRID*               4405               0-1.140683672E-013.1169150622E-01+
*       -1.249889439E-01               0
GRID*               4406               0-8.189188853E-012.8988904873E-01+
*       -4.866319627E-02               0
GRID*               4407               0-7.818421222E-013.0325969686E-01+
*       -1.135271974E-01               0
GRID*               4408               0-7.763646533E-012.2643282425E-01+
*       -6.486400110E-02               0
GRID*               4409               01.8170233719E+00-1.974791128E-01+
*       -2.202190558E-01               0
GRID*               4410               0-8.596347520E-013.4963123220E-01+
*       -4.866319627E-02               0
GRID*               4411               0-8.875654964E-012.5934240804E-01+
*       -5.443349743E-02               0
GRID*               4412               0-1.024182172E+002.1683763112E-01+
*       -1.933307292E-01               0
GRID*               4413               0-1.061230149E+001.1737048126E-01+
*       -1.921292033E-01               0
GRID*               4414               0-9.605517242E-011.5159917931E-01+
*       -1.794334974E-01               0
GRID*               4415               0-9.809362675E-011.5190957499E-01+
*       -1.215627007E-01               0
GRID*               4416               0-8.277144668E-013.0846764832E-01+
*       -1.736631963E-01               0
GRID*               4417               01.3664661989E+00-7.168877218E-01+
*       6.2778434860E-01               0
GRID*               4418               01.3039468122E+00-7.168877218E-01+
*       5.8910414800E-01               0
GRID*               4419               01.3039624345E+00-7.168877218E-01+
*       6.5708504570E-01               0
GRID*               4420               08.3035278885E-01-5.446045606E-01+
*       -6.276541606E-02               0
GRID*               4421               07.9451308830E-01-5.545772760E-01+
*       -1.205806806E-01               0
GRID*               4422               07.9273432795E-01-4.836186264E-01+
*       -5.781526454E-02               0
GRID*               4423               08.7034361212E-01-5.486407390E-01+
*       -1.259159043E-01               0
GRID*               4424               08.3367240609E-01-5.578563827E-01+
*       -1.877654161E-01               0
GRID*               4425               08.7191450252E-01-6.204429266E-01+
*       -1.877654161E-01               0
GRID*               4426               09.1012656544E-01-5.535204554E-01+
*       -1.881504883E-01               0
GRID*               4427               07.2293841388E-01-6.247629802E-01+
*       -5.664903062E-02               0
GRID*               4428               07.2134151258E-01-5.644581464E-01+
*       -1.144642952E-01               0
GRID*               4429               07.5849152870E-01-5.538961756E-01+
*       -5.781526454E-02               0
GRID*               4430               07.9610998960E-01-6.148821098E-01+
*       -6.276541606E-02               0
GRID*               4431               07.5895997348E-01-6.254440806E-01+
*       -1.194144467E-01               0
GRID*               4432               01.3664661989E+00-7.168877218E-01+
*       7.0278434860E-01               0
GRID*               4433               08.3379076306E-01-6.827816051E-01+
*       -1.877654161E-01               0
GRID*               4434               07.9575624878E-01-6.202626950E-01+
*       -1.877654161E-01               0
GRID*               4435               07.5813778788E-01-5.592767608E-01+
*       -1.828152645E-01               0
GRID*               4436               01.5186275699E-01-3.121363037E-01+
*       -1.875291361E-01               0
GRID*               4437               01.1395001112E-01-3.120567896E-01+
*       -1.250805876E-01               0
GRID*               4438               01.1380732023E-01-3.746067292E-01+
*       -1.875514515E-01               0
GRID*               4439               01.8994176077E-01-3.744616298E-01+
*       -1.875383467E-01               0
GRID*               4440               01.9008445165E-01-3.119116901E-01+
*       -1.250674828E-01               0
GRID*               4441               01.5202901490E-01-3.743821157E-01+
*       -1.250897982E-01               0
GRID*               4442               02.2774359321E-01-1.869412070E-01+
*       -1.874894432E-01               0
GRID*               4443               01.8978643020E-01-1.244939406E-01+
*       -1.874894432E-01               0
GRID*               4444               01.5184653046E-01-1.872137606E-01+
*       -1.875291361E-01               0
GRID*               4445               01.8980369347E-01-2.496610270E-01+
*       -1.875291361E-01               0
GRID*               4446               01.8994534762E-01-1.868665440E-01+
*       -1.250185794E-01               0
GRID*               4447               01.9030064805E-01-2.487341887E-01+
*       -6.252913611E-02               0
GRID*               4448               02.2769576949E-01-2.484022138E-01+
*       -1.249820351E-01               0
GRID*               4449               02.2837965183E-01-3.110595148E-01+
*       -6.253834670E-02               0
GRID*               4450               02.6577477327E-01-3.107275399E-01+
*       -1.249912457E-01               0
GRID*               4451               01.2667493121E+00-6.281658905E-01+
*       9.3067499821E-01               0
GRID*               4452               01.2722404008E+00-5.222918459E-01+
*       9.6891915394E-01               0
GRID*               4453               01.2792410795E+00-6.100261545E-01+
*       1.0118216787E+00               0
GRID*               4454               01.3042228196E+00-6.831435172E-01+
*       9.6292116613E-01               0
GRID*               4455               01.2972221409E+00-5.954092085E-01+
*       9.2001864139E-01               0
GRID*               4456               01.3097139083E+00-5.772694725E-01+
*       1.0011653219E+00               0
GRID*               4457               0-2.278642865E-01-1.873641862E-01+
*       -1.875520085E-01               0
GRID*               4458               0-2.658873081E-01-2.492920732E-01+
*       -1.870749413E-01               0
GRID*               4459               0-2.661464244E-01-1.869512430E-01+
*       -1.246269498E-01               0
GRID*               4460               0-3.037691568E-01-1.868114780E-01+
*       -1.870749413E-01               0
GRID*               4461               01.3044040270E+00-7.188244381E-01+
*       4.8479293343E-01               0
GRID*               4462               01.3036624004E+00-7.178823640E-01+
*       2.6411190595E-01               0
GRID*               4463               01.2724619567E+00-6.896038559E-01+
*       2.0496503389E-01               0
GRID*               4464               0-1.367070878E+007.1268707285E-01+
*       1.9468236630E-02               0
GRID*               4465               0-1.368136752E+007.1104308809E-01+
*       -1.001400392E-02               0
GRID*               4466               0-3.418321483E-01-1.909757749E-01+
*       -1.273311807E-01               0
GRID*               4467               0-3.044968179E-01-1.876039137E-01+
*       -6.207494128E-02               0
GRID*               4468               0-3.806683133E-01-1.919537451E-01+
*       -6.525623941E-02               0
GRID*               4469               0-3.430056110E-01-2.498571002E-01+
*       -6.207494128E-02               0
GRID*               4470               01.3342672570E+00-5.389918305E-01+
*       4.0034130797E-01               0
GRID*               4471               01.3342672570E+00-5.991693509E-01+
*       4.3398340519E-01               0
GRID*               4472               01.3342672570E+00-5.390427773E-01+
*       4.6624316809E-01               0
GRID*               4473               0-4.174414888E-01-1.917679129E-01+
*       -1.261831489E-01               0
GRID*               4474               01.3369742259E+006.6716837916E-02+
*       3.8974375484E-01               0
GRID*               4475               01.3369742259E+002.4688476104E-02+
*       3.9686512439E-01               0
GRID*               4476               01.3369742259E+004.5110632664E-02+
*       4.2961148320E-01               0
GRID*               4477               01.4698890662E+007.1941428066E-01+
*       -2.206718664E-01               0
GRID*               4478               01.4699086556E+006.6718406977E-01+
*       -1.722284659E-01               0
GRID*               4479               01.4412506127E+005.7370119917E-01+
*       -2.015565995E-01               0
GRID*               4480               01.3365684283E+009.0387147469E-03+
*       4.8449673543E-01               0
GRID*               4481               01.3164603569E+001.6092215966E-02+
*       4.4340014046E-01               0
GRID*               4482               01.2953065757E+002.5744109516E-02+
*       4.5960561275E-01               0
GRID*               4483               01.3353351925E+002.8262410919E-02+
*       4.8603139886E-01               0
GRID*               4484               01.3564889737E+001.8610517369E-02+
*       4.6982592657E-01               0
GRID*               4485               01.3152271210E+003.5315912138E-02+
*       4.4493480389E-01               0
GRID*               4486               01.4864862524E+005.9210704606E-01+
*       -1.598899500E-01               0
GRID*               4487               01.5091943759E+006.2334058771E-01+
*       -1.598904679E-01               0
GRID*               4488               01.5301171774E+005.7739368171E-01+
*       -1.860917464E-01               0
GRID*               4489               01.4867200640E+006.3082621387E-01+
*       -1.793149954E-01               0
GRID*               4490               0-7.606040036E-024.9955479868E-01+
*       -1.250187263E-01               0
GRID*               4491               0-1.361063760E+00-2.046569973E-01+
*       -7.258977354E-02               0
GRID*               4492               0-1.389259507E+00-1.242898514E-01+
*       -7.400411496E-02               0
GRID*               4493               0-1.235331805E+001.0404589577E-01+
*       -6.921311252E-02               0
GRID*               4494               0-1.203652683E+004.4140871589E-02+
*       1.8237875646E-02               0
GRID*               4495               0-1.212262078E+001.1178680434E-01+
*       -1.066901221E-03               0
GRID*               4496               0-1.298843816E+006.5832700115E-02+
*       -7.028001374E-02               0
GRID*               4497               0-1.267164694E+005.9276759313E-03+
*       1.7170974425E-02               0
GRID*               4498               01.2128410268E+001.8464481517E-01+
*       1.1374511548E+00               0
GRID*               4499               01.2128410268E+001.4671052088E-01+
*       1.1775050766E+00               0
GRID*               4500               0-1.216825207E+006.6632023544E-02+
*       3.8171868575E-01               0
GRID*               4501               0-1.202995004E+001.3048076233E-01+
*       4.0092496257E-01               0
GRID*               4502               0-1.210766389E+001.1216942927E-01+
*       3.2987508270E-01               0
GRID*               4503               01.2867624426E+008.9349725689E-02+
*       1.0488907093E+00               0
GRID*               4504               01.3355636393E+003.2319940680E-02+
*       1.0182588628E+00               0
GRID*               4505               01.3355643860E+006.8648530549E-02+
*       1.0099646029E+00               0
GRID*               4506               01.3069061278E+006.6647768440E-02+
*       1.0761463953E+00               0
GRID*               4507               01.3772290094E+006.8640359130E-02+
*       1.0099680158E+00               0
GRID*               4508               08.7497644995E-017.1573224729E-01+
*       -2.192537984E-01               0
GRID*               4509               01.1812396528E+00-7.163409110E-01+
*       5.9868468269E-01               0
GRID*               4510               01.2437358287E+00-7.163409110E-01+
*       6.2798537979E-01               0
GRID*               4511               01.2437202065E+00-7.163409110E-01+
*       5.6000448209E-01               0
GRID*               4512               01.3359245844E+00-2.060316418E-01+
*       9.2631087828E-01               0
GRID*               4513               01.3561562691E+00-2.096402485E-01+
*       9.4379036080E-01               0
GRID*               4514               01.3195635574E+00-2.547393794E-01+
*       9.3717676745E-01               0
GRID*               4515               0-1.189298711E+00-7.651393389E-02+
*       -2.062349714E-01               0
GRID*               4516               0-1.364570445E+00-3.493064815E-02+
*       -1.990041150E-01               0
GRID*               4517               01.3777149492E+00-2.536117419E-01+
*       8.3886872538E-01               0
GRID*               4518               0-1.432415306E+00-2.754993512E-02+
*       -1.990041150E-01               0
GRID*               4519               01.3445402116E+00-4.355789929E-01+
*       1.1845183218E+00               0
GRID*               4520               01.1703940540E+00-2.051635699E-01+
*       9.2076376650E-01               0
GRID*               4521               01.1911587597E+00-2.120204907E-01+
*       9.4327139548E-01               0
GRID*               4522               01.3570096491E+00-2.976862296E-01+
*       1.0455405190E+00               0
GRID*               4523               0-2.286610005E-01-1.876899589E-01+
*       -6.255200848E-02               0
GRID*               4524               01.2875313219E+00-4.647965388E-01+
*       1.0986883680E+00               0
GRID*               4525               01.1804056727E+001.6006827300E-01+
*       1.4357738463E+00               0
GRID*               4526               01.1798290941E+001.2480973809E-01+
*       1.4427460488E+00               0
GRID*               4527               01.1798290941E+001.1845109095E-01+
*       1.3521831766E+00               0
GRID*               4528               01.2114848193E+001.3856032879E-01+
*       1.3929312987E+00               0
GRID*               4529               01.2165218616E+004.3843583698E-02+
*       1.3430298793E+00               0
GRID*               4530               01.1798290941E+007.2738372902E-02+
*       1.3902737728E+00               0
GRID*               4531               01.2476010082E+007.4407004679E-02+
*       1.3526596077E+00               0
GRID*               4532               01.2790212084E+00-1.400230712E-02+
*       1.4009017007E+00               0
GRID*               4533               01.3096781446E+00-7.233112137E-03+
*       1.3631364186E+00               0
GRID*               4534               0-7.602551183E-02-3.122138175E-01+
*       -1.875655329E-01               0
GRID*               4535               01.2790225149E+005.9514522599E-02+
*       1.4009017007E+00               0
GRID*               4536               01.3044068838E+006.7691949865E-03+
*       1.4586224051E+00               0
GRID*               4537               01.1794682489E+00-3.525485577E-02+
*       1.4641388117E+00               0
GRID*               4538               01.1794682489E+00-1.416737981E-02+
*       1.4044613120E+00               0
GRID*               4539               0-3.796804122E-02-3.121366973E-01+
*       -1.251524608E-01               0
GRID*               4540               01.2083798471E+007.0090030085E-01+
*       7.3969030625E-01               0
GRID*               4541               01.2083798251E+006.3601783660E-01+
*       7.5942193073E-01               0
GRID*               4542               01.2083798374E+006.3917639965E-01+
*       6.9577817653E-01               0
GRID*               4543               01.1693906677E+007.2513360671E-01+
*       7.9443445817E-01               0
GRID*               4544               01.2318915942E+007.2247034847E-01+
*       8.3904486374E-01               0
GRID*               4545               01.1693906081E+007.1792772760E-01+
*       8.6759325020E-01               0
GRID*               4546               01.3346903528E+006.7251211991E-01+
*       2.9930896321E-01               0
GRID*               4547               01.2722467045E+006.7251211991E-01+
*       2.6227567708E-01               0
GRID*               4548               01.3680928416E+007.1990727307E-01+
*       2.6812603022E-01               0
GRID*               4549               01.3040332469E+006.4241939299E-01+
*       2.6743499344E-01               0
GRID*               4550               01.3056491932E+007.1990727307E-01+
*       2.3109274408E-01               0
GRID*               4551               0-1.899881170E-01-1.249351986E-01+
*       -1.875520085E-01               0
GRID*               4552               0-1.519643577E-01-1.873162258E-01+
*       -1.875377984E-01               0
GRID*               4553               0-1.545893060E+00-1.192303151E-01+
*       -6.744632710E-02               0
GRID*               4554               0-1.540672615E+00-4.211450001E-02+
*       -6.855026183E-02               0
GRID*               4555               0-1.563116029E+00-8.566212868E-02+
*       -1.359965889E-01               0
GRID*               4556               0-1.602178349E+00-7.857522797E-02+
*       -6.855026183E-02               0
GRID*               4557               01.3462607010E+005.2492559126E-01+
*       4.2060265747E-01               0
GRID*               4558               01.3462607010E+005.7852750051E-01+
*       3.8751687408E-01               0
GRID*               4559               01.3462607010E+005.3200471300E-01+
*       3.6365516026E-01               0
GRID*               4560               01.3340914276E+006.3781630849E-01+
*       4.8579475501E-01               0
GRID*               4561               01.3340914276E+006.4027974099E-01+
*       4.1677860523E-01               0
GRID*               4562               01.3340914276E+005.8667783173E-01+
*       4.4986438862E-01               0
GRID*               4563               0-1.642356559E+00-1.206934843E-01+
*       -1.285372969E-01               0
GRID*               4564               0-1.618198480E+00-1.153282707E-01+
*       -1.924463271E-01               0
GRID*               4565               0-1.612978035E+00-3.821245561E-02+
*       -1.935502618E-01               0
GRID*               4566               0-1.637136114E+00-4.357766919E-02+
*       -1.296412317E-01               0
GRID*               4567               01.2816021810E+005.7572469969E-01+
*       4.2101771253E-01               0
GRID*               4568               01.3438435860E+005.1978493613E-01+
*       4.8609836631E-01               0
GRID*               4569               01.2791850660E+005.7058404457E-01+
*       4.8651342137E-01               0
GRID*               4570               01.2913543394E+005.0883180409E-01+
*       4.5725169022E-01               0
GRID*               4571               01.2715720409E+006.9373847008E-01+
*       4.8645952124E-01               0
GRID*               4572               01.1797367947E+007.1859411397E-01+
*       4.8650732990E-01               0
GRID*               4573               01.2400782152E+006.6233258405E-01+
*       4.8664705174E-01               0
GRID*               4574               01.2422173484E+007.1859411397E-01+
*       5.2282712929E-01               0
GRID*               4575               0-1.693849828E+002.0675687027E-03+
*       -1.962627634E-01               0
GRID*               4576               0-1.718007907E+00-3.297644876E-03+
*       -1.323537332E-01               0
GRID*               4577               0-1.638767377E+003.1733710714E-02+
*       -1.398130252E-01               0
GRID*               4578               0-3.548449525E-016.6629960906E-01+
*       -8.492526499E-02               0
GRID*               4579               0-3.171710768E-017.2838407523E-01+
*       -8.512289773E-02               0
GRID*               4580               0-1.604080706E+00-4.731036073E-03+
*       -6.855026183E-02               0
GRID*               4581               0-1.684952499E+003.5548988236E-02+
*       -7.126276339E-02               0
GRID*               4582               0-1.630601176E+006.5783664471E-02+
*       -7.032635775E-02               0
GRID*               4583               0-1.584416054E+006.1968386949E-02+
*       -1.388766196E-01               0
GRID*               4584               0-1.665287847E+001.0224841126E-01+
*       -1.415891211E-01               0
GRID*               4585               01.1981094655E+004.4441530477E-01+
*       8.1179308905E-01               0
GRID*               4586               01.1981094944E+003.9699510979E-01+
*       7.8796496515E-01               0
GRID*               4587               01.1981632285E+004.5230333818E-01+
*       7.5944426375E-01               0
GRID*               4588               01.1981631997E+004.9972353316E-01+
*       7.8327238765E-01               0
GRID*               4589               01.2475226655E+004.2866872116E-01+
*       7.8359386480E-01               0
GRID*               4590               0-3.429729086E-016.2469152399E-01+
*       -6.230712850E-02               0
GRID*               4591               0-4.191007532E-016.2388063818E-01+
*       -6.230712850E-02               0
GRID*               4592               01.1981094394E+004.0357798055E-01+
*       8.5053955640E-01               0
GRID*               4593               01.2682797584E+004.2489046117E-01+
*       8.8260849675E-01               0
GRID*               4594               01.2189202927E+004.9594527317E-01+
*       8.8228701961E-01               0
GRID*               4595               01.1981094600E+003.4920574733E-01+
*       7.6099522992E-01               0
GRID*               4596               01.2214611097E+003.4688876957E-01+
*       7.0027156853E-01               0
GRID*               4597               01.2214611441E+003.9467813203E-01+
*       7.2724130377E-01               0
GRID*               4598               01.2708205810E+003.7104351501E-01+
*       7.5139090482E-01               0
GRID*               4599               01.3296084823E+006.2370425436E-01+
*       -1.934223184E-01               0
GRID*               4600               01.3246298307E+007.1769840148E-01+
*       -2.209136588E-01               0
GRID*               4601               01.3284295984E+006.5677145950E-01+
*       -1.643359772E-01               0
GRID*               4602               01.3592885810E+006.5232959782E-01+
*       -2.209136588E-01               0
GRID*               4603               01.4209195433E+006.9776978911E-01+
*       -7.655659949E-02               0
GRID*               4604               01.4627280737E+006.3206974533E-01+
*       -7.655659949E-02               0
GRID*               4605               01.3679396184E+006.3722436977E-01+
*       -9.629107548E-03               0
GRID*               4606               01.3179393945E+006.5129742779E-01+
*       -7.805142594E-02               0
GRID*               4607               01.3092401991E+006.0257556709E-01+
*       -9.667816245E-03               0
GRID*               4608               0-1.223818706E+00-3.056684631E-01+
*       6.5902060238E-01               0
GRID*               4609               0-1.201273385E+00-2.987016805E-01+
*       6.0994740111E-01               0
GRID*               4610               0-1.201273393E+00-3.424469897E-01+
*       5.9272615050E-01               0
GRID*               4611               0-1.276342141E+00-3.105243057E-01+
*       6.1374719028E-01               0
GRID*               4612               01.0972661943E+006.4946712762E-01+
*       -2.170114354E-01               0
GRID*               4613               01.1648503551E+007.1426460469E-01+
*       -3.400584125E-02               0
GRID*               4614               01.1648503551E+006.3926460469E-01+
*       -3.400584125E-02               0
GRID*               4615               01.1272631164E+007.1137842465E-01+
*       -3.167910558E-02               0
GRID*               4616               01.1433634047E+006.7564302934E-01+
*       -6.568494683E-02               0
GRID*               4617               01.1272631164E+006.3637842465E-01+
*       -3.167910558E-02               0
GRID*               4618               09.4145301873E-01-6.104497507E-01+
*       -1.865084714E-01               0
GRID*               4619               09.3988212833E-01-5.386475631E-01+
*       -1.246589596E-01               0
GRID*               4620               09.0972788468E-01-6.198794854E-01+
*       -1.871410536E-01               0
GRID*               4621               09.3948344756E-01-6.050065931E-01+
*       -1.236495250E-01               0
GRID*               4622               09.0815699428E-01-5.480772978E-01+
*       -1.252915419E-01               0
GRID*               4623               01.3433442978E+003.3886377744E-01+
*       8.7836570513E-01               0
GRID*               4624               01.3433442978E+003.4301363632E-01+
*       9.2806359636E-01               0
GRID*               4625               01.3439202666E+004.2910183821E-01+
*       9.5228862828E-01               0
GRID*               4626               01.3439202666E+004.2495197932E-01+
*       9.0259073704E-01               0
GRID*               4627               07.9004879306E-01-2.557989635E-01+
*       -1.861201539E-01               0
GRID*               4628               07.5358394604E-01-3.183281525E-01+
*       -1.861201539E-01               0
GRID*               4629               08.2932738502E-01-3.153146664E-01+
*       -1.838266351E-01               0
GRID*               4630               01.3231094394E+003.7342201093E-01+
*       8.3209680649E-01               0
GRID*               4631               01.2677037897E+003.3880225928E-01+
*       8.5838346484E-01               0
GRID*               4632               0-1.331326222E+002.2572270854E-01+
*       1.2606070922E+00               0
GRID*               4633               0-1.331326222E+002.9466785102E-01+
*       1.2760476679E+00               0
GRID*               4634               0-1.331326222E+002.4362614835E-01+
*       1.3240409722E+00               0
GRID*               4635               01.3231631736E+004.8446467435E-01+
*       8.1293381521E-01               0
GRID*               4636               01.3231094394E+004.2915644596E-01+
*       8.4145451662E-01               0
GRID*               4637               01.3439202666E+004.8068641436E-01+
*       9.1194844717E-01               0
GRID*               4638               01.2683334926E+004.8019868955E-01+
*       8.5408779535E-01               0
GRID*               4639               01.2814418403E+003.0612497217E-01+
*       8.1790521396E-01               0
GRID*               4640               01.3016766987E+002.7156673869E-01+
*       8.6417411260E-01               0
GRID*               4641               01.3350392444E+002.5794648805E-01+
*       8.1783167650E-01               0
GRID*               4642               01.3010663353E+003.2518200865E-01+
*       8.1204102875E-01               0
GRID*               4643               01.3213011937E+002.9062377516E-01+
*       8.5830992739E-01               0
GRID*               4644               07.1093633617E-01-2.452807575E-01+
*       -6.112015393E-02               0
GRID*               4645               01.3231094394E+003.8784736759E-01+
*       7.8820978785E-01               0
GRID*               4646               01.3231631736E+004.4315559598E-01+
*       7.5968908645E-01               0
GRID*               4647               01.3231094394E+003.4327611982E-01+
*       8.0396788470E-01               0
GRID*               4648               01.3433442978E+003.0871788633E-01+
*       8.5023678334E-01               0
GRID*               4649               0-2.666614742E-016.2522964843E-01+
*       -6.225632090E-02               0
GRID*               4650               0-3.049485955E-015.6445269540E-01+
*       -5.939431365E-02               0
GRID*               4651               01.3319267531E+006.7077606795E-01+
*       8.7706654772E-01               0
GRID*               4652               01.3319267531E+006.1340862263E-01+
*       8.3468907043E-01               0
GRID*               4653               01.3319267531E+006.0653787252E-01+
*       9.1070878143E-01               0
GRID*               4654               01.3231631736E+005.5241515034E-01+
*       7.8331789644E-01               0
GRID*               4655               01.3319267531E+005.4545814664E-01+
*       8.6430498921E-01               0
GRID*               4656               01.2563399792E+005.4497042183E-01+
*       8.0644433739E-01               0
GRID*               4657               04.9245248951E-055.6212567419E-01+
*       -6.254187118E-02               0
GRID*               4658               01.2069267531E+006.7077606795E-01+
*       8.7706654772E-01               0
GRID*               4659               01.1790411352E+006.9172560458E-01+
*       9.1848707274E-01               0
GRID*               4660               01.1790411352E+006.1714788135E-01+
*       9.2399097312E-01               0
GRID*               4661               01.2372179408E+006.2691343076E-01+
*       8.9923603641E-01               0
GRID*               4662               0-1.169922599E+00-1.270818978E-01+
*       9.9175873322E-01               0
GRID*               4663               0-1.211588856E+00-9.239526621E-02+
*       1.0053713957E+00               0
GRID*               4664               0-1.211589266E+00-1.270818978E-01+
*       9.9175873322E-01               0
GRID*               4665               0-1.312641322E+002.4786688420E-01+
*       5.3377355451E-01               0
GRID*               4666               01.2694277393E+006.7531868882E-01+
*       8.4851816126E-01               0
GRID*               4667               01.3664618531E+007.0910093983E-01+
*       8.5987954743E-01               0
GRID*               4668               01.2996386587E+006.4428876601E-01+
*       8.4062851109E-01               0
GRID*               4669               01.3333797875E+006.3632697642E-01+
*       7.7047162099E-01               0
GRID*               4670               01.2577930136E+005.6788877562E-01+
*       7.4222688794E-01               0
GRID*               4671               01.2665565931E+006.2888224791E-01+
*       7.9359806194E-01               0
GRID*               4672               01.3329851843E+00-3.761926716E-01+
*       2.5663560677E-01               0
GRID*               4673               01.2691817119E+00-4.189065607E-01+
*       2.6406342409E-01               0
GRID*               4674               01.3349464752E+00-4.490271405E-01+
*       2.6145307272E-01               0
GRID*               4675               01.3349464752E+00-4.236643102E-01+
*       2.0438344529E-01               0
GRID*               4676               0-1.337538491E+00-6.965248662E-02+
*       1.0817910040E+00               0
GRID*               4677               01.2079852159E+00-3.777612910E-01+
*       2.5048790559E-01               0
GRID*               4678               01.2079852083E+00-4.000005813E-01+
*       3.1172917073E-01               0
GRID*               4679               01.2099465068E+00-4.505957599E-01+
*       2.5530537154E-01               0
GRID*               4680               01.2099464992E+00-4.728350502E-01+
*       3.1654663668E-01               0
GRID*               4681               01.3349464752E+00-5.567717925E-01+
*       2.5141071904E-01               0
GRID*               4682               01.3349464752E+00-4.919324066E-01+
*       2.2154079657E-01               0
GRID*               4683               01.3349156764E+00-6.255051335E-01+
*       2.0896729091E-01               0
GRID*               4684               01.2711122040E+00-5.604743707E-01+
*       2.2643746191E-01               0
GRID*               4685               01.3349156764E+00-5.606657476E-01+
*       1.7909736843E-01               0
GRID*               4686               0-1.161827535E+004.8909488482E-03+
*       1.0131865768E+00               0
GRID*               4687               0-1.161827535E+00-3.226525596E-02+
*       1.0104027476E+00               0
GRID*               4688               0-1.161827535E+00-1.790203006E-02+
*       1.0575292343E+00               0
GRID*               4689               0-3.813663731E-01-4.373571195E-01+
*       -6.249530908E-02               0
GRID*               4690               0-4.572953062E-01-4.376436893E-01+
*       -6.257661683E-02               0
GRID*               4691               0-1.217400931E+00-6.701944859E-03+
*       1.0145709117E+00               0
GRID*               4692               0-1.188813149E+00-2.049878649E-02+
*       1.0284593045E+00               0
GRID*               4693               0-1.203492905E+004.8964664295E-03+
*       1.0131858294E+00               0
GRID*               4694               0-1.211631622E+006.4662586414E-03+
*       1.0217259991E+00               0
GRID*               4695               0-1.196951866E+00-1.892899428E-02+
*       1.0369994742E+00               0
GRID*               4696               0-1.183043840E+00-7.330582988E-03+
*       1.0356143919E+00               0
GRID*               4697               0-1.254204748E+00-8.869742712E-02+
*       1.0461161425E+00               0
GRID*               4698               0-1.212538491E+00-7.433589948E-02+
*       1.0932424190E+00               0
GRID*               4699               0-1.212538491E+00-1.309780542E-01+
*       1.0826492880E+00               0
GRID*               4700               0-1.202995000E+001.9157128856E-01+
*       4.7278731847E-01               0
GRID*               4701               0-1.202995000E+001.4989805015E-01+
*       4.5066189071E-01               0
GRID*               4702               0-1.211423452E+001.5210500631E-01+
*       5.3076773811E-01               0
GRID*               4703               0-1.224003879E+001.5433944858E-01+
*       4.7393660238E-01               0
GRID*               4704               0-1.244659621E+001.5809101730E-01+
*       4.9770256898E-01               0
GRID*               4705               0-1.212667725E+001.7279618958E-01+
*       5.4179539671E-01               0
GRID*               4706               0-1.192011983E+001.6904462085E-01+
*       5.1802943011E-01               0
GRID*               4707               0-1.225248152E+001.7503063184E-01+
*       4.8496426097E-01               0
GRID*               4708               0-5.302971118E-01-1.884894611E-01+
*       -5.545946989E-02               0
GRID*               4709               0-4.922312957E-01-1.265164205E-01+
*       -5.545946989E-02               0
GRID*               4710               0-4.555250168E-01-1.889631552E-01+
*       -6.092690948E-02               0
GRID*               4711               0-4.920944059E-01-1.880166714E-01+
*       -1.163863794E-01               0
GRID*               4712               0-5.675281704E-01-1.950467235E-01+
*       -1.032004721E-01               0
GRID*               4713               0-4.541477677E-01-1.293211783E-01+
*       -1.207157093E-01               0
GRID*               4714               0-4.175783785E-01-1.302676621E-01+
*       -6.525623941E-02               0
GRID*               4715               0-1.340832857E+00-5.168079822E-01+
*       7.6195732016E-02               0
GRID*               4716               0-1.281648431E+00-4.827774307E-01+
*       6.5809806153E-02               0
GRID*               4717               0-1.288993145E+00-5.530015849E-01+
*       9.5161565472E-02               0
GRID*               4718               0-1.215832916E+00-4.924607916E-01+
*       1.4674279946E-02               0
GRID*               4719               0-1.215832916E+00-5.674607916E-01+
*       1.4674279946E-02               0
GRID*               4720               0-1.215832910E+00-5.738004396E-01+
*       6.3736860952E-02               0
GRID*               4721               0-1.180260010E+00-7.121085597E-01+
*       1.9795863478E-02               0
GRID*               4722               0-1.180260004E+00-6.434482077E-01+
*       6.8858444484E-02               0
GRID*               4723               0-1.180260010E+00-6.371085597E-01+
*       1.9795863478E-02               0
GRID*               4724               0-1.309841014E+00-6.056612697E-01+
*       5.5259319974E-03               0
GRID*               4725               0-1.340832857E+00-5.674607916E-01+
*       1.4674279946E-02               0
GRID*               4726               0-1.310426119E+00-6.033250257E-01+
*       3.5744775384E-02               0
GRID*               4727               0-4.168334107E-01-1.286696691E-01+
*       -1.902562394E-01               0
GRID*               4728               0-4.914863278E-01-1.249184276E-01+
*       -1.804594699E-01               0
GRID*               4729               0-4.547800489E-01-1.873651622E-01+
*       -1.859269095E-01               0
GRID*               4730               0-3.791433170E-01-1.912376686E-01+
*       -1.902562394E-01               0
GRID*               4731               0-1.310618266E+002.0913789838E-01+
*       1.0013878111E+00               0
GRID*               4732               0-1.265050627E+002.9124633303E-01+
*       1.0980667935E+00               0
GRID*               4733               0-1.267768331E+003.4138457748E-01+
*       1.0369052337E+00               0
GRID*               4734               01.2082790537E+001.3056425271E-01+
*       1.5314888601E-01               0
GRID*               4735               01.2081510954E+005.7016308697E-02+
*       1.7016178948E-01               0
GRID*               4736               01.2236548390E+001.8691851515E-01+
*       2.9706637967E-01               0
GRID*               4737               0-1.164878021E+001.0234161098E-01+
*       1.0090332882E+00               0
GRID*               4738               0-1.164878021E+009.2428559066E-02+
*       1.0555550839E+00               0
GRID*               4739               0-1.164878021E+001.3777267196E-01+
*       1.0402402768E+00               0
GRID*               4740               01.3332790164E+001.6680666973E-01+
*       2.0820482399E-01               0
GRID*               4741               01.3332790164E+001.2790851671E-01+
*       1.4588515141E-01               0
GRID*               4742               01.3331510580E+009.3258725723E-02+
*       2.2521772746E-01               0
GRID*               4743               01.3331510580E+005.4360572699E-02+
*       1.6289805488E-01               0
GRID*               4744               01.1427403251E-011.2511290653E-01+
*       -6.249593740E-02               0
GRID*               4745               01.5237102136E-016.2796150774E-02+
*       -6.253720970E-02               0
GRID*               4746               01.1376505773E-011.2480361328E-01+
*       -1.874959374E-01               0
GRID*               4747               01.1393730535E-015.7530114279E-05+
*       -1.875372097E-01               0
GRID*               4748               01.5186204659E-016.2486857524E-02+
*       -1.875372097E-01               0
GRID*               4749               03.7799556317E-022.4961398699E-01+
*       -1.874807684E-01               0
GRID*               4750               0-1.439944127E-041.8716979794E-01+
*       -1.874807684E-01               0
GRID*               4751               07.5837969005E-021.8725267894E-01+
*       -1.874959374E-01               0
GRID*               4752               03.7852247694E-021.8708303395E-01+
*       -1.249767058E-01               0
GRID*               4753               0-1.221910289E+00-5.918804412E-01+
*       1.2954986653E-01               0
GRID*               4754               0-1.252656050E+00-6.272061879E-01+
*       1.9456499410E-01               0
GRID*               4755               0-1.179495816E+00-6.480050425E-01+
*       1.6314028958E-01               0
GRID*               4756               0-3.807897029E-021.8713228073E-01+
*       -1.249500839E-01               0
GRID*               4757               0-3.803679971E-021.2485773666E-01+
*       -1.874693155E-01               0
GRID*               4758               0-1.180727988E+00-6.466785288E-01+
*       9.5336696440E-02               0
GRID*               4759               0-1.253888222E+00-6.258796742E-01+
*       1.2676140096E-01               0
GRID*               4760               0-1.247810843E+00-6.077996725E-01+
*       6.0948395381E-02               0
GRID*               4761               09.7051963970E-01-4.970946340E-02+
*       -7.822037167E-02               0
GRID*               4762               09.1313529887E-011.0247682023E-02+
*       -7.822037167E-02               0
GRID*               4763               09.9200404908E-013.1861569842E-02+
*       -7.732402246E-02               0
GRID*               4764               09.5050838815E-012.3547453278E-02+
*       -1.555443941E-01               0
GRID*               4765               09.3461970825E-019.1818715264E-02+
*       -7.732402246E-02               0
GRID*               4766               08.7454070733E-011.8372186469E-02+
*       -1.465523613E-01               0
GRID*               4767               08.5865202743E-018.6643448455E-02+
*       -6.833198962E-02               0
GRID*               4768               08.9602511671E-019.9943219710E-02+
*       -1.456560121E-01               0
GRID*               4769               0-1.368548489E+00-7.215006594E-01+
*       8.6098230741E-02               0
GRID*               4770               0-1.368548489E+00-6.622885071E-01+
*       1.4952559748E-01               0
GRID*               4771               0-1.333566674E+004.0512242115E-01+
*       1.4587442126E-01               0
GRID*               4772               0-1.340673757E+003.4538056573E-01+
*       1.5504663801E-01               0
GRID*               4773               09.1088994143E-012.9957466812E-02+
*       -2.032203717E-01               0
GRID*               4774               09.4680461955E-01-3.056757370E-02+
*       -2.032203717E-01               0
GRID*               4775               09.6828902893E-015.1003459544E-02+
*       -2.023240225E-01               0
GRID*               4776               09.3237435081E-011.1152850005E-01+
*       -2.023240225E-01               0
GRID*               4777               01.0747014956E+009.0872303472E-02+
*       -6.652359993E-02               0
GRID*               4778               01.0078357413E+009.3241347563E-02+
*       -7.732402246E-02               0
GRID*               4779               0-1.526262111E-01-3.122704166E-01+
*       -6.253779836E-02               0
GRID*               4780               0-7.634018799E-02-3.122273315E-01+
*       -6.256553288E-02               0
GRID*               4781               0-1.146228965E-01-3.747204962E-01+
*       -6.256553288E-02               0
GRID*               4782               0-1.902285373E-01-8.549682399E-04+
*       -6.250009833E-02               0
GRID*               4783               0-1.901181955E-01-6.256144470E-02+
*       -1.250521068E-01               0
GRID*               4784               0-1.519829097E-01-6.247328734E-02+
*       -1.875000983E-01               0
GRID*               4785               0-1.899280473E-01-4.058494703E-05+
*       -1.875000983E-01               0
GRID*               4786               0-2.279332545E-01-6.250249625E-02+
*       -1.875520085E-01               0
GRID*               4787               0-1.327748457E+00-7.881167982E-02+
*       3.2286575637E-01               0
GRID*               4788               0-1.327748457E+00-9.304701769E-02+
*       3.8015046274E-01               0
GRID*               4789               0-1.339500903E+00-1.418867634E-01+
*       3.3868279353E-01               0
GRID*               4790               0-1.339500903E+00-1.561221012E-01+
*       3.9596749990E-01               0
GRID*               4791               0-1.214500924E+00-2.354780049E-01+
*       3.1984625872E-01               0
GRID*               4792               0-1.201522739E+00-2.397552269E-01+
*       2.4638825542E-01               0
GRID*               4793               0-1.343128408E+00-2.836008821E-01+
*       3.1527336777E-01               0
GRID*               4794               0-1.281367941E+00-3.174034528E-01+
*       3.1492345833E-01               0
GRID*               4795               0-1.283879363E+00-2.391184281E-01+
*       3.7569606602E-01               0
GRID*               4796               0-1.798761283E+00-1.563589306E-01+
*       -2.182045218E-01               0
GRID*               4797               0-1.773791285E+00-1.285451690E-01+
*       -1.542954916E-01               0
GRID*               4798               0-1.798861069E+00-1.185222585E-01+
*       -2.195823442E-01               0
GRID*               4799               0-1.831305712E+00-1.406446411E-01+
*       -1.877868659E-01               0
GRID*               4800               0-1.773891072E+00-9.070849688E-02+
*       -1.556733140E-01               0
GRID*               4801               01.5143833379E+004.6029486700E-01+
*       -2.014673848E-02               0
GRID*               4802               01.5143834343E+004.6029456009E-01+
*       -6.181338796E-02               0
GRID*               4803               01.5225349115E+004.3720287259E-01+
*       -2.174943697E-02               0
GRID*               4804               01.5070506250E+004.3612378615E-01+
*       -4.189617545E-02               0
GRID*               4805               01.5225350079E+004.3720256567E-01+
*       -6.341608646E-02               0
GRID*               4806               01.4644509658E+004.5532747629E-01+
*       -2.211899289E-02               0
GRID*               4807               01.4636342212E+004.7608919291E-01+
*       -2.103888567E-02               0
GRID*               4808               01.4329749423E+005.5457331424E-01+
*       -6.169455027E-02               0
GRID*               4809               01.1791523546E+00-7.177594985E-01+
*       7.0914256134E-01               0
GRID*               4810               0-6.075192356E-015.5813974893E-01+
*       -6.064634090E-02               0
GRID*               4811               0-6.432373136E-014.9123901602E-01+
*       -6.064634090E-02               0
GRID*               4812               0-6.468627195E-016.2700905020E-01+
*       -5.671404164E-02               0
GRID*               4813               0-6.456229166E-015.6680864400E-01+
*       -1.173603825E-01               0
GRID*               4814               0-4.932090892E-014.9454359265E-01+
*       -6.296419942E-02               0
GRID*               4815               0-5.308537157E-014.9769747169E-01+
*       -1.236105403E-01               0
GRID*               4816               0-5.686348063E-014.9478546370E-01+
*       -6.064634090E-02               0
GRID*               4817               0-5.320340379E-015.5934368955E-01+
*       -5.693274233E-02               0
GRID*               4818               0-4.942529472E-015.6225569754E-01+
*       -1.198969417E-01               0
GRID*               4819               0-5.696786643E-015.6249756859E-01+
*       -1.175790832E-01               0
GRID*               4820               0-6.068850975E-015.6138590570E-01+
*       -1.856463409E-01               0
GRID*               4821               0-5.702843291E-016.2594413156E-01+
*       -1.819327423E-01               0
GRID*               4822               0-6.462285814E-016.3025520697E-01+
*       -1.817140416E-01               0
GRID*               4823               0-6.090221482E-016.3136686985E-01+
*       -1.136467840E-01               0
GRID*               4824               01.3342672570E+00-5.981916624E-01+
*       5.0452449821E-01               0
GRID*               4825               01.3681523528E+00-7.186190760E-01+
*       4.8419236552E-01               0
GRID*               4826               01.3056329661E+00-7.186190760E-01+
*       5.2051216492E-01               0
GRID*               4827               01.3681523528E+00-7.186190760E-01+
*       5.5919236552E-01               0
GRID*               4828               01.3379316352E+00-5.371497576E-01+
*       6.4845400854E-01               0
GRID*               4829               0-5.688786334E-014.9883497564E-01+
*       -1.856463409E-01               0
GRID*               4830               0-5.322778650E-015.6339320149E-01+
*       -1.819327423E-01               0
GRID*               4831               01.3058347474E+00-7.163051325E-01+
*       5.5460931321E-01               0
GRID*               4832               01.3683541341E+00-7.163051325E-01+
*       5.9328951381E-01               0
GRID*               4833               01.3377565393E+00-6.849242085E-01+
*       5.5248187933E-01               0
GRID*               4834               0-6.813864405E-014.3298641972E-01+
*       -1.862051445E-01               0
GRID*               4835               0-9.709782796E-015.0949825112E-01+
*       -6.030245989E-02               0
GRID*               4836               0-1.197492294E+002.9322430145E-01+
*       -6.164054912E-02               0
GRID*               4837               0-1.177086533E+003.1116153229E-01+
*       -1.250834656E-01               0
GRID*               4838               0-1.196014193E+002.7576523554E-01+
*       -1.243924149E-01               0
GRID*               4839               0-1.126866203E+003.0047816493E-01+
*       -1.261947822E-01               0
GRID*               4840               01.3419791477E+00-2.958627809E-01+
*       5.3740599064E-01               0
GRID*               4841               01.3368062382E+00-2.424547195E-01+
*       5.2205870363E-01               0
GRID*               4842               01.3342672570E+00-5.357834091E-01+
*       5.3298769118E-01               0
GRID*               4843               01.3342672570E+00-5.952373277E-01+
*       5.7521169468E-01               0
GRID*               4844               0-9.950460841E-012.8130922334E-01+
*       -1.933307292E-01               0
GRID*               4845               0-9.314156366E-012.1607077152E-01+
*       -1.794334974E-01               0
GRID*               4846               0-7.503102489E-017.8294203904E-02+
*       -6.218653339E-02               0
GRID*               4847               0-7.365415889E-011.7123430136E-01+
*       -6.486400110E-02               0
GRID*               4848               0-6.804961220E-013.0830735829E-01+
*       -1.862051445E-01               0
GRID*               4849               0-7.094457648E-013.0292817932E-01+
*       -1.260691456E-01               0
GRID*               4850               0-7.487004600E-013.0754599123E-01+
*       -1.898640011E-01               0
GRID*               4851               0-1.057127964E+003.9653883708E-01+
*       -6.484310436E-02               0
GRID*               4852               0-1.024271878E+003.1558251582E-01+
*       -6.833072924E-02               0
GRID*               4853               0-8.316629058E-015.3956426661E-01+
*       -6.879072282E-02               0
GRID*               4854               0-8.717985959E-015.2815497623E-01+
*       -1.290931827E-01               0
GRID*               4855               0-8.703990494E-016.0366354657E-01+
*       -6.879072282E-02               0
GRID*               4856               0-1.203905056E+005.1305579204E-01+
*       4.9081621563E-01               0
GRID*               4857               0-7.607118415E-023.1194721844E-01+
*       -1.875042406E-01               0
GRID*               4858               0-1.139883232E-012.4954861272E-01+
*       -1.874847033E-01               0
GRID*               4859               0-7.610121295E-023.1155253177E-01+
*       -6.250424061E-02               0
GRID*               4860               0-3.811868139E-022.4922964680E-01+
*       -6.248076842E-02               0
GRID*               4861               0-1.519945841E-014.3716059591E-01+
*       -1.874768551E-01               0
GRID*               4862               01.2729715221E+00-5.067037800E-01+
*       5.3232022004E-01               0
GRID*               4863               0-1.239524105E+00-7.693265590E-02+
*       1.0641724892E+00               0
GRID*               4864               0-1.233754796E+00-6.376445240E-02+
*       1.0713275766E+00               0
GRID*               4865               01.3292492904E+00-4.976700898E-01+
*       8.6815955598E-01               0
GRID*               4866               0-1.140183520E-012.4915392605E-01+
*       -6.248470325E-02               0
GRID*               4867               0-7.608583565E-022.4936862125E-01+
*       -1.249654717E-01               0
GRID*               4868               0-1.350458340E+009.6126981320E-02+
*       1.1408938849E+00               0
GRID*               4869               0-1.329705978E+001.4707757656E-01+
*       1.1773857944E+00               0
GRID*               4870               0-1.331871554E+002.6480809925E-01+
*       1.0735895803E+00               0
GRID*               4871               0-1.204705978E+002.2012799291E-01+
*       1.1625050066E+00               0
GRID*               4872               0-1.204705978E+001.7526916069E-01+
*       1.2159409227E+00               0
GRID*               4873               0-1.206326222E+002.4000161175E-01+
*       1.2282627934E+00               0
GRID*               4874               0-1.262282252E+002.0314300868E-01+
*       1.2429703319E+00               0
GRID*               4875               0-1.206326222E+001.9514277953E-01+
*       1.2816987095E+00               0
GRID*               4876               01.2116419406E+00-6.841004096E-01+
*       6.3282724403E-01               0
GRID*               4877               01.2454212809E+00-6.288739033E-01+
*       6.6109278526E-01               0
GRID*               4878               01.2716647364E+00-6.611666438E-01+
*       4.3404945055E-01               0
GRID*               4879               01.3020646004E+00-6.280443902E-01+
*       4.3450730891E-01               0
GRID*               4880               01.2409954117E+00-6.254394898E-01+
*       4.3278139023E-01               0
GRID*               4881               01.2732754458E+00-6.811505924E-01+
*       3.7340512871E-01               0
GRID*               4882               0-1.206871554E+001.9144435008E-01+
*       1.0383736502E+00               0
GRID*               4883               0-1.204705978E+001.7273282838E-01+
*       1.1111711325E+00               0
GRID*               4884               0-1.204705978E+001.6138203394E-01+
*       1.1607281652E+00               0
GRID*               4885               0-1.206929021E+003.0939341439E-01+
*       1.1561567373E+00               0
GRID*               4886               0-1.264505295E+002.9240843016E-01+
*       1.2366220626E+00               0
GRID*               4887               0-9.994243915E-01-1.023972244E-01+
*       -1.905939108E-01               0
GRID*               4888               0-1.031926319E+00-4.508829265E-02+
*       -1.905939108E-01               0
GRID*               4889               0-1.030339287E+00-7.514228685E-02+
*       -1.183396839E-01               0
GRID*               4890               01.2576137253E+00-2.940549092E-01+
*       7.6145794070E-01               0
GRID*               4891               01.2992841490E+00-2.940570414E-01+
*       7.6147413585E-01               0
GRID*               4892               01.1705248080E+00-2.639103970E-01+
*       7.7763068636E-01               0
GRID*               4893               01.2121897609E+00-2.639093954E-01+
*       7.4036309735E-01               0
GRID*               4894               01.2157213225E+00-2.920598306E-01+
*       8.8738632773E-01               0
GRID*               4895               01.2157213225E+00-3.273218354E-01+
*       9.1814211584E-01               0
GRID*               4896               01.2829201473E+00-3.107948555E-01+
*       8.7597953576E-01               0
GRID*               4897               01.2159487724E+00-3.574340044E-01+
*       8.5235346037E-01               0
GRID*               4898               0-1.327748457E+00-1.198517138E-02+
*       3.1245809288E-01               0
GRID*               4899               0-1.327748457E+00-4.417910463E-02+
*       3.7231846829E-01               0
GRID*               4900               01.2042493207E+00-5.212866781E-01+
*       8.1531917018E-01               0
GRID*               4901               01.2717478703E+00-6.611666438E-01+
*       5.0826158461E-01               0
GRID*               4902               01.2717634925E+00-6.611666438E-01+
*       5.7624248231E-01               0
GRID*               4903               01.3019835083E+00-6.280543655E-01+
*       5.7472613382E-01               0
GRID*               4904               0-1.210079502E+006.2861960648E-02+
*       -2.036368919E-01               0
GRID*               4905               0-9.860197294E-01-1.583669747E-01+
*       -6.559391077E-02               0
GRID*               4906               0-1.005530306E+00-8.629990655E-02+
*       -6.559391077E-02               0
GRID*               4907               01.3254700726E+001.2376107267E-01+
*       4.0361866178E-01               0
GRID*               4908               01.2636943509E+008.9841845488E-02+
*       4.3238392472E-01               0
GRID*               4909               01.3254700726E+001.0215486742E-01+
*       4.4348639015E-01               0
GRID*               4910               01.1700514111E+001.7612743979E-01+
*       5.4660214505E-01               0
GRID*               4911               01.2117163640E+001.7613335793E-01+
*       5.4660671860E-01               0
GRID*               4912               01.1913237116E+001.7781482236E-01+
*       5.2468175303E-01               0
GRID*               4913               0-1.155363787E+00-2.268525162E-02+
*       -2.062349714E-01               0
GRID*               4914               0-1.089054549E+005.9414210691E-02+
*       -1.921292033E-01               0
GRID*               4915               0-1.147820231E+005.8311606374E-02+
*       -2.036368919E-01               0
GRID*               4916               0-1.201273385E+00-2.907250603E-01+
*       5.6167844945E-01               0
GRID*               4917               0-1.046815755E+007.9600763904E-02+
*       -6.712920328E-02               0
GRID*               4918               0-9.896875239E-01-2.490173944E-02+
*       -6.559391077E-02               0
GRID*               4919               0-1.024486461E+001.3178373602E-02+
*       -1.327231140E-01               0
GRID*               4920               0-1.335240120E+002.4061607098E-01+
*       -1.281330913E-01               0
GRID*               4921               0-1.280111230E+003.5251226784E-01+
*       -1.216512145E-01               0
GRID*               4922               0-1.577814558E+006.2872378752E-01+
*       -1.300645088E-01               0
GRID*               4923               0-1.509857922E+006.2371888448E-01+
*       -1.068146692E-01               0
GRID*               4924               0-1.411497833E+002.4739176953E-01+
*       -6.649254222E-02               0
GRID*               4925               0-1.322492235E+002.9322430145E-01+
*       -6.164054912E-02               0
GRID*               4926               0-1.344431236E+002.6253268825E-01+
*       -1.090225418E-02               0
GRID*               4927               0-1.242623806E+006.0650857745E-01+
*       5.1531206121E-03               0
GRID*               4928               0-1.212868483E+006.7343450774E-01+
*       1.0259314422E-02               0
GRID*               4929               0-1.324335291E+006.1568064255E-01+
*       -2.020613369E-01               0
GRID*               4930               0-1.443758377E+006.9816544291E-01+
*       -1.901480087E-01               0
GRID*               4931               0-1.398658424E+006.9816544291E-01+
*       -1.312839570E-01               0
GRID*               4932               0-1.472656557E+006.9816544291E-01+
*       -1.279943766E-01               0
GRID*               4933               0-1.421608371E+006.9816544291E-01+
*       -6.514800867E-02               0
GRID*               4934               0-1.450732113E+007.2141479237E-01+
*       -3.213766940E-02               0
GRID*               4935               0-1.501780299E+007.2141479237E-01+
*       -9.498403736E-02               0
GRID*               4936               0-1.473590537E+006.6958023528E-01+
*       -9.728567807E-02               0
GRID*               4937               0-1.487161946E+005.9246054747E-01+
*       -1.484809836E-01               0
GRID*               4938               0-1.432609797E+005.7090280716E-01+
*       -1.296738722E-01               0
GRID*               4939               0-1.502050830E+005.3757623331E-01+
*       -1.867434919E-01               0
GRID*               4940               0-1.459355679E+005.9144657166E-01+
*       -1.685585257E-01               0
GRID*               4941               0-1.447498682E+005.1601849301E-01+
*       -1.679363805E-01               0
GRID*               4942               0-1.061319855E+002.1611536596E-01+
*       -6.712920328E-02               0
GRID*               4943               0-1.021308092E+001.5309927002E-01+
*       -6.712920328E-02               0
GRID*               4944               0-9.842601151E-012.5256641989E-01+
*       -6.833072924E-02               0
GRID*               4945               0-1.156275932E+003.3040379711E-01+
*       -1.866405491E-01               0
GRID*               4946               0-1.219431296E+002.6253268825E-01+
*       -1.090225418E-02               0
GRID*               4947               01.0981661353E+006.1307603143E-01+
*       -9.553626812E-02               0
GRID*               4948               01.0179395903E+006.4448769575E-01+
*       -3.167910558E-02               0
GRID*               4949               0-1.556223969E+00-3.899948129E-01+
*       -2.165256997E-02               0
GRID*               4950               0-1.576808635E+00-3.813225466E-01+
*       -2.277995020E-02               0
GRID*               4951               0-1.238010490E+00-5.748186237E-01+
*       -1.456076849E-01               0
GRID*               4952               0-1.199300992E+00-6.453752919E-01+
*       -1.408262943E-01               0
GRID*               4953               0-1.210857345E+00-7.167053860E-01+
*       -1.612958542E-01               0
GRID*               4954               0-1.249566844E+00-6.461487177E-01+
*       -1.660772447E-01               0
GRID*               4955               0-1.198448497E+00-6.120806779E-01+
*       -1.698468299E-01               0
GRID*               4956               0-1.265431014E+00-4.603471533E-01+
*       -5.356102655E-02               0
GRID*               4957               0-1.286022301E+00-5.719041234E-01+
*       -5.624476990E-02               0
GRID*               4958               0-1.268537550E+00-4.973296934E-01+
*       -1.391543563E-01               0
GRID*               4959               0-1.217419203E+00-4.632616536E-01+
*       -1.429239415E-01               0
GRID*               4960               0-1.234903954E+00-5.378360836E-01+
*       -6.001435507E-02               0
GRID*               4961               0-1.268854298E+00-4.281083931E-01+
*       -1.932353065E-01               0
GRID*               4962               0-1.289445585E+00-5.396653632E-01+
*       -1.959190498E-01               0
GRID*               4963               0-1.238327238E+00-5.055973234E-01+
*       -1.996886350E-01               0
GRID*               4964               0-1.218939451E+00-6.044433317E-01+
*       -7.091904985E-02               0
GRID*               4965               0-1.167821105E+00-5.703752919E-01+
*       -7.468863502E-02               0
GRID*               4966               0-9.511959439E-013.2458085986E-01+
*       -6.833072924E-02               0
GRID*               4967               0-9.923418441E-015.5054890299E-01+
*       -1.123803615E-01               0
GRID*               4968               0-1.167821105E+00-4.953752919E-01+
*       -7.468863502E-02               0
GRID*               4969               0-1.110925068E+00-5.622445261E-01+
*       -4.678510994E-02               0
GRID*               4970               0-1.129996106E+00-5.326198180E-01+
*       -1.214737450E-01               0
GRID*               4971               01.3486548204E+006.3436269108E-02+
*       2.8264193651E-01               0
GRID*               4972               01.3486548204E+001.3632767194E-01+
*       2.7600862918E-01               0
GRID*               4973               01.3331510580E+002.0367322896E-02+
*       2.3185103479E-01               0
GRID*               4974               0-9.559270827E-016.2837767082E-01+
*       -1.208686244E-01               0
GRID*               4975               01.2103690763E+006.0259062833E-02+
*       1.0093570177E-01               0
GRID*               4976               01.2697701494E+003.0256268414E-02+
*       1.2963025509E-01               0
GRID*               4977               01.2103690723E+00-1.938580349E-02+
*       1.1035031117E-01               0
GRID*               4978               01.2236548313E+007.7817310613E-02+
*       2.9847900063E-01               0
GRID*               4979               01.2081510689E+003.4748364402E-02+
*       2.4768809890E-01               0
GRID*               4980               06.7575616391E-01-2.964011373E-01+
*       -5.535001019E-02               0
GRID*               4981               01.2818848761E+003.2894379494E-02+
*       3.2276162994E-01               0
GRID*               4982               01.2663811137E+00-1.017456672E-02+
*       2.7197072822E-01               0
GRID*               4983               01.2528981535E+00-6.249787061E-01+
*       -1.958990618E-01               0
GRID*               4984               01.3242066627E+00-6.257745910E-01+
*       -1.958990618E-01               0
GRID*               4985               01.2911149836E+00-5.670955753E-01+
*       -1.958990618E-01               0
GRID*               4986               0-1.214131187E+00-5.213095214E-01+
*       7.7985275895E-01               0
GRID*               4987               0-1.214131197E+00-4.607875837E-01+
*       7.3334463750E-01               0
GRID*               4988               0-1.212188555E+00-5.814043702E-01+
*       7.3438487598E-01               0
GRID*               4989               0-1.210671627E+00-3.607946961E-01+
*       8.7158083471E-01               0
GRID*               4990               0-1.200953971E+00-4.650197697E-01+
*       8.8293289384E-01               0
GRID*               4991               0-1.200953971E+00-4.250589039E-01+
*       9.2433122266E-01               0
GRID*               4992               0-1.219432389E+00-3.157262008E-01+
*       8.9196630614E-01               0
GRID*               4993               0-1.210671627E+00-3.325612901E-01+
*       8.3202652688E-01               0
GRID*               4994               0-1.281354069E+00-3.297674368E-01+
*       8.7175815257E-01               0
GRID*               4995               0-7.794038322E-01-1.187888065E-01+
*       -6.255580656E-02               0
GRID*               4996               0-7.476079789E-01-1.039791272E-01+
*       -1.322846016E-01               0
GRID*               4997               0-7.521894879E-01-1.930335493E-01+
*       -7.920735581E-02               0
GRID*               4998               04.9560273810E-01-6.238225376E-01+
*       -6.251994687E-02               0
GRID*               4999               05.7129896742E-01-6.221572431E-01+
*       -6.251994687E-02               0
GRID*               5000               03.4205497008E-01-7.187163754E-01+
*       -2.187568652E-01               0
GRID*               5001               03.0471311333E-01-7.187163754E-01+
*       -1.562684335E-01               0
GRID*               5002               03.4259104741E-01-6.565028892E-01+
*       -1.562417521E-01               0
GRID*               5003               0-7.016563822E-01-3.124341539E-01+
*       -1.872050124E-01               0
GRID*               5004               0-1.210610254E+001.4942202547E-01+
*       8.2470256737E-04               0
GRID*               5005               0-1.297191992E+001.0346792124E-01+
*       -6.838840995E-02               0
GRID*               5006               0-1.274122265E+001.1120882981E-01+
*       -2.421986534E-04               0
GRID*               5007               0-1.174727740E+001.7348561217E-01+
*       -2.036368919E-01               0
GRID*               5008               0-1.177131332E+001.0601557782E-01+
*       -2.036368919E-01               0
GRID*               5009               0-7.211349673E-01-2.580267359E-01+
*       -7.920735581E-02               0
GRID*               5010               0-6.843745130E-01-2.665249825E-01+
*       -1.269483581E-01               0
GRID*               5011               0-6.430161101E-01-2.560252636E-01+
*       -4.774100225E-02               0
GRID*               5012               0-7.032668114E-01-3.130223790E-01+
*       -6.220501240E-02               0
GRID*               5013               0-6.665063572E-01-3.215206256E-01+
*       -1.099460146E-01               0
GRID*               5014               0-4.555836690E-01-5.621169134E-01+
*       -1.875766168E-01               0
GRID*               5015               0-3.810108728E-01-3.127133573E-01+
*       -6.249530908E-02               0
GRID*               5016               01.3486548204E+001.6119970323E-01+
*       3.4174998487E-01               0
GRID*               5017               01.3446117962E+002.2440905383E-01+
*       3.0666049950E-01               0
GRID*               5018               01.2945166690E+002.0123278860E-01+
*       3.3109001656E-01               0
GRID*               5019               01.3446117962E+002.4928108513E-01+
*       3.7240185519E-01               0
GRID*               5020               0-3.054059721E-01-5.623044202E-01+
*       -6.256261384E-02               0
GRID*               5021               0-3.434032757E-01-6.256264536E-01+
*       -6.231348674E-02               0
GRID*               5022               0-1.504256280E+003.7913282336E-01+
*       -8.095387193E-02               0
GRID*               5023               0-1.557386509E+003.8892110878E-01+
*       -6.167837583E-02               0
GRID*               5024               0-1.547743122E+003.4848455319E-01+
*       -4.266835011E-02               0
GRID*               5025               0-1.284605785E+00-2.434123685E-01+
*       5.7231878947E-01               0
GRID*               5026               0-1.284605733E+00-2.644005197E-01+
*       6.0310581794E-01               0
GRID*               5027               0-1.335637212E+00-2.394007286E-01+
*       6.2428767829E-01               0
GRID*               5028               0-1.335637264E+00-2.184125774E-01+
*       5.9350064983E-01               0
GRID*               5029               0-1.304828298E+00-2.785577320E-01+
*       5.8585584936E-01               0
GRID*               5030               01.2157930600E+003.8285320455E-01+
*       4.0614004900E-01               0
GRID*               5031               01.2196118132E+003.2894989389E-01+
*       3.6206484252E-01               0
GRID*               5032               01.2163255964E+003.9304376127E-01+
*       3.2473120651E-01               0
GRID*               5033               01.2833686748E+004.0731134853E-01+
*       3.6848345736E-01               0
GRID*               5034               01.2871874280E+003.5340803787E-01+
*       3.2440825088E-01               0
GRID*               5035               0-1.516948019E+005.5843585446E-01+
*       -1.871700036E-01               0
GRID*               5036               0-1.474252868E+006.1230619280E-01+
*       -1.689850374E-01               0
GRID*               5037               0-1.489141753E+005.5742187865E-01+
*       -2.072475457E-01               0
GRID*               5038               0-1.604889123E+003.3132580938E-01+
*       -1.503004086E-01               0
GRID*               5039               0-1.607592017E+003.0789401761E-01+
*       -1.699364156E-01               0
GRID*               5040               03.7908837352E-01-6.150341069E-02+
*       -1.868840120E-01               0
GRID*               5041               03.0367008078E-01-6.199972528E-02+
*       -1.875187987E-01               0
GRID*               5042               03.4147888322E-01-6.102892376E-02+
*       -1.244028107E-01               0
GRID*               5043               02.6570648392E-014.3212733062E-04+
*       -1.875187987E-01               0
GRID*               5044               03.0353234064E-016.2808858434E-02+
*       -1.875187987E-01               0
GRID*               5045               02.2769282233E-016.2536368179E-02+
*       -1.874578079E-01               0
GRID*               5046               02.6585614940E-016.2950049452E-02+
*       -1.249766066E-01               0
GRID*               5047               01.7149500492E+003.1225363992E-01+
*       -5.640736651E-02               0
GRID*               5048               02.6623660875E-011.1720072970E-03+
*       -6.251879871E-02               0
GRID*               5049               02.6587752918E-01-6.165045767E-02+
*       -1.250082420E-01               0
GRID*               5050               02.2824432693E-01-6.132425898E-02+
*       -6.248944325E-02               0
GRID*               5051               01.9034402230E-017.9321019096E-04+
*       -6.253720970E-02               0
GRID*               5052               02.2797722454E-014.6701149736E-04+
*       -1.250560084E-01               0
GRID*               5053               01.8998494273E-01-6.202925478E-02+
*       -1.250266530E-01               0
GRID*               5054               01.7168322780E+003.7595946311E-01+
*       -1.874444948E-01               0
GRID*               5055               01.7168323627E+003.7595951899E-01+
*       -2.291111551E-01               0
GRID*               5056               01.7419743177E+003.8838812745E-01+
*       -2.270591628E-01               0
GRID*               5057               01.7419742330E+003.8838807156E-01+
*       -1.853925025E-01               0
GRID*               5058               01.7365963785E+003.6548406125E-01+
*       -2.061703179E-01               0
GRID*               5059               01.7192096214E+003.4578687094E-01+
*       -9.807404700E-02               0
GRID*               5060               01.7367356492E+003.3597584765E-01+
*       -7.741869104E-02               0
GRID*               5061               01.7397359542E+003.8905231384E-01+
*       -6.267800503E-02               0
GRID*               5062               01.7193371947E+003.8190455884E-01+
*       -6.290246259E-02               0
GRID*               5063               01.7163368898E+003.2882809265E-01+
*       -7.764314860E-02               0
GRID*               5064               01.7368632225E+003.7209353555E-01+
*       -4.224710663E-02               0
GRID*               5065               02.6567779896E-01-1.244959916E-01+
*       -1.874894432E-01               0
GRID*               5066               0-1.346910236E+00-5.855407933E-01+
*       8.0487285525E-02               0
GRID*               5067               0-1.346910236E+00-6.013286410E-01+
*       1.4391465227E-01               0
GRID*               5068               0-1.221645325E+00-4.403857458E-01+
*       2.5260954093E-01               0
GRID*               5069               0-1.367757776E+00-7.253797276E-01+
*       2.6582961932E-01               0
GRID*               5070               01.8981389747E-015.3330224567E-05+
*       -1.875372097E-01               0
GRID*               5071               01.8996356295E-016.2571252346E-02+
*       -1.249950176E-01               0
GRID*               5072               0-1.179495822E+00-7.166653946E-01+
*       1.8907770857E-01               0
GRID*               5073               0-1.215673816E+003.0688769319E-01+
*       4.3597502398E-02               0
GRID*               5074               0-1.215673802E+003.4943983032E-01+
*       1.0114835932E-01               0
GRID*               5075               0-1.215673798E+002.7295741608E-01+
*       1.0534962819E-01               0
GRID*               5076               0-1.215673781E+003.1682681095E-01+
*       1.7860708110E-01               0
GRID*               5077               0-1.334674303E+005.9477104612E-01+
*       6.6651021331E-02               0
GRID*               5078               0-1.334674303E+005.2630395749E-01+
*       8.2793266153E-02               0
GRID*               5079               0-1.208192049E+004.0033548867E-01+
*       2.0144812564E-01               0
GRID*               5080               0-1.208192028E+003.6772246930E-01+
*       2.7890684742E-01               0
GRID*               5081               0-1.208192042E+004.5552974312E-01+
*       2.5470640509E-01               0
GRID*               5082               0-1.208192040E+004.8280183493E-01+
*       3.1167443829E-01               0
GRID*               5083               0-1.204369612E+005.5932115160E-01+
*       2.6055417320E-01               0
GRID*               5084               0-1.263811631E+005.1935811155E-01+
*       2.9364230554E-01               0
GRID*               5085               0-1.333192004E+003.9207616018E-01+
*       3.2509116779E-01               0
GRID*               5086               0-1.333192004E+003.3812616334E-01+
*       2.9074457527E-01               0
GRID*               5087               0-1.333192004E+003.9627622408E-01+
*       2.5534640433E-01               0
GRID*               5088               0-1.210766402E+001.4160336531E-01+
*       2.7517539280E-01               0
GRID*               5089               0-1.269284327E+002.0688199293E-01+
*       3.2954439005E-01               0
GRID*               5090               0-1.279736929E+001.6860434048E-01+
*       2.4536569755E-01               0
GRID*               5091               0-1.276238437E+002.5178353996E-01+
*       2.7613841411E-01               0
GRID*               5092               0-1.204369634E+006.8657476002E-01+
*       2.9974503682E-01               0
GRID*               5093               0-1.204369624E+006.2912068030E-01+
*       2.7556739757E-01               0
GRID*               5094               0-1.214073126E+006.1289239214E-01+
*       2.1172065756E-01               0
GRID*               5095               0-1.269692705E+006.0692123188E-01+
*       2.3564333364E-01               0
GRID*               5096               0-1.179342884E+006.6288490959E-01+
*       2.4418687062E-01               0
GRID*               5097               0-1.244665965E+006.4068546117E-01+
*       2.0426280669E-01               0
GRID*               5098               0-1.234962462E+006.5691374933E-01+
*       2.6810954670E-01               0
GRID*               5099               0-1.214073130E+006.0676175623E-01+
*       1.4547168568E-01               0
GRID*               5100               0-1.179342887E+006.5675427367E-01+
*       1.7793789874E-01               0
GRID*               5101               01.0425087581E+00-1.805984916E-01+
*       -1.948423664E-01               0
GRID*               5102               01.0156700428E+00-8.668648489E-02+
*       -1.480627381E-01               0
GRID*               5103               09.5586269407E-01-1.519355867E-01+
*       -2.032203717E-01               0
GRID*               5104               09.8688713116E-01-1.671551862E-01+
*       -1.323931677E-01               0
GRID*               5105               09.0024106716E-01-1.384922813E-01+
*       -1.407711730E-01               0
GRID*               5106               0-1.214073115E+005.4309286344E-01+
*       1.9670743319E-01               0
GRID*               5107               0-1.273889804E+005.1197602047E-01+
*       1.2032358246E-01               0
GRID*               5108               0-1.273515134E+005.0312982340E-01+
*       2.2979556553E-01               0
GRID*               5109               0-1.268008731E+004.2441290015E-01+
*       1.7832255436E-01               0
GRID*               5110               03.7954574629E-01-4.356349460E-01+
*       -1.874634234E-01               0
GRID*               5111               04.5560275744E-01-4.387349739E-01+
*       -1.844975797E-01               0
GRID*               5112               04.1758152154E-01-3.699941534E-01+
*       -6.246342337E-02               0
GRID*               5113               04.5571157906E-01-4.356080884E-01+
*       -5.949757965E-02               0
GRID*               5114               0-1.221910279E+00-5.316026850E-01+
*       1.6758763707E-01               0
GRID*               5115               0-1.215832900E+00-5.135226834E-01+
*       1.0177463149E-01               0
GRID*               5116               0-1.214565566E+00-4.613785308E-01+
*       1.3823587775E-01               0
GRID*               5117               0-1.249649970E+00-6.122857110E-01+
*       -1.959190498E-01               0
GRID*               5118               0-1.198531623E+00-5.782176712E-01+
*       -1.996886350E-01               0
GRID*               5119               0-1.211798489E+004.1037701965E-01+
*       4.7695611948E-01               0
GRID*               5120               0-1.207233382E+004.6538572442E-01+
*       4.5127881873E-01               0
GRID*               5121               0-1.368343210E+00-6.516520818E-01+
*       8.4497862178E-02               0
GRID*               5122               0-1.332233367E+005.0296747940E-01+
*       3.4347482712E-01               0
GRID*               5123               0-1.332233367E+004.3759145719E-01+
*       3.7624530741E-01               0
GRID*               5124               0-1.333192004E+004.5745218240E-01+
*       2.9232068749E-01               0
GRID*               5125               0-1.179847207E+00-7.044148729E-01+
*       8.5942922777E-01               0
GRID*               5126               0-1.179847267E+00-7.116207520E-01+
*       7.8627043574E-01               0
GRID*               5127               0-1.242348194E+00-7.089574938E-01+
*       8.3088084131E-01               0
GRID*               5128               0-1.364991462E+00-7.136904762E-01+
*       7.8859013200E-01               0
GRID*               5129               0-1.302492448E+00-7.110272180E-01+
*       8.3320053756E-01               0
GRID*               5130               0-1.302491492E+00-7.136904762E-01+
*       7.8859013200E-01               0
GRID*               5131               0-1.336798475E+003.8258275242E-01+
*       4.0192260816E-01               0
GRID*               5132               0-1.336798475E+003.6940055280E-01+
*       4.6443858255E-01               0
GRID*               5133               0-1.332267892E+003.1614120523E-01+
*       4.2386842677E-01               0
GRID*               5134               0-1.332267892E+003.2932340485E-01+
*       3.6135245237E-01               0
GRID*               5135               0-1.270316419E+003.4332053998E-01+
*       4.0088726239E-01               0
GRID*               5136               02.2859133236E-011.8764319907E-01+
*       -6.245780787E-02               0
GRID*               5137               0-1.299403692E+00-1.933906001E-01+
*       9.9971305374E-01               0
GRID*               5138               0-1.257737957E+00-2.225242040E-01+
*       9.7647807590E-01               0
GRID*               5139               03.7953764569E-016.4389139185E-02+
*       -6.243913974E-02               0
GRID*               5140               03.4180400976E-012.1328865253E-03+
*       -6.251879871E-02               0
GRID*               5141               0-1.254205157E+00-1.233840588E-01+
*       1.0325034801E+00               0
GRID*               5142               0-1.234450572E+00-1.411935995E-01+
*       1.0397799361E+00               0
GRID*               5143               0-1.212328696E+00-1.428095442E-01+
*       9.7378282454E-01               0
GRID*               5144               0-1.233711142E+00-1.254659531E-01+
*       1.0577558447E+00               0
GRID*               5145               0-1.191834680E+00-1.448914385E-01+
*       9.9903518920E-01               0
GRID*               5146               0-1.341070359E+00-2.796140867E-01+
*       1.0677800750E+00               0
GRID*               5147               0-1.343783832E+00-3.695528000E-01+
*       1.1197316219E+00               0
GRID*               5148               0-1.286104244E+00-3.517199100E-01+
*       1.0848712858E+00               0
GRID*               5149               0-1.216070359E+00-2.678959242E-01+
*       9.8999751068E-01               0
GRID*               5150               0-1.216070359E+00-2.596848743E-01+
*       1.0446585720E+00               0
GRID*               5151               0-1.216070359E+00-2.285980786E-01+
*       1.0114576543E+00               0
GRID*               5152               0-1.295871824E+00-1.233840588E-01+
*       1.0325034801E+00               0
GRID*               5153               0-1.295870893E+00-8.869517873E-02+
*       1.0461164383E+00               0
GRID*               5154               0-1.336196317E+00-1.036394373E-01+
*       9.9449973520E-01               0
GRID*               5155               0-1.316651526E+00-1.020234926E-01+
*       1.0604968467E+00               0
GRID*               5156               0-1.377202412E+00-1.908542333E-01+
*       9.4267036558E-01               0
GRID*               5157               0-1.335535746E+00-1.617230415E-01+
*       9.6590217843E-01               0
GRID*               5158               0-1.377515528E+002.6910878438E-01+
*       7.6419686014E-01               0
GRID*               5159               0-1.377515528E+002.6355504506E-01+
*       8.0104111952E-01               0
GRID*               5160               04.5494162030E-011.8562869630E-01+
*       -5.924683574E-02               0
GRID*               5161               05.2991164496E-011.9551575663E-01+
*       -5.563753493E-02               0
GRID*               5162               0-1.377040004E+002.6978295506E-01+
*       7.4045579883E-01               0
GRID*               5163               0-1.355805585E+002.8889173944E-01+
*       7.5465265897E-01               0
GRID*               5164               0-1.376881136E+002.5834838138E-01+
*       6.5868795865E-01               0
GRID*               5165               0-1.377110968E+002.6112866392E-01+
*       6.8425485898E-01               0
GRID*               5166               0-1.335443369E+002.6112712903E-01+
*       6.8425118750E-01               0
GRID*               5167               0-1.355242156E+002.8058452394E-01+
*       6.6663133639E-01               0
GRID*               5168               0-4.915950490E-01-6.600094100E-02+
*       -1.239635094E-01               0
GRID*               5169               0-4.550256598E-01-6.694742474E-02+
*       -6.850403953E-02               0
GRID*               5170               0-4.169421318E-01-6.975218251E-02+
*       -1.337602789E-01               0
GRID*               5171               0-3.790997964E-01-6.824797937E-02+
*       -6.525623941E-02               0
GRID*               5172               0-1.377231696E+002.4891775910E-01+
*       6.4063840897E-01               0
GRID*               5173               0-1.334589258E+003.7738219524E-01+
*       8.9912950382E-01               0
GRID*               5174               0-1.333877938E+004.5386555321E-01+
*       9.2046033399E-01               0
GRID*               5175               0-1.269717248E+003.9745228012E-01+
*       9.3062529120E-01               0
GRID*               5176               0-1.229951836E+002.9434077628E-01+
*       8.8149484381E-01               0
GRID*               5177               0-1.210780122E+002.5330104099E-01+
*       8.3869554415E-01               0
GRID*               5178               0-1.212657411E+002.5819502587E-01+
*       8.1720359593E-01               0
GRID*               5179               0-1.231829125E+002.9923476116E-01+
*       8.6000289559E-01               0
GRID*               5180               0-1.191352394E+002.7260661529E-01+
*       8.3220327837E-01               0
GRID*               5181               0-4.542806920E-01-6.534943174E-02+
*       -1.935040395E-01               0
GRID*               5182               0-3.793768556E-01-6.646863914E-02+
*       -1.902562394E-01               0
GRID*               5183               0-1.292923888E+002.6376008717E-01+
*       9.0006602805E-01               0
GRID*               5184               0-1.292923000E+002.7993005476E-01+
*       8.6649306626E-01               0
GRID*               5185               0-1.335381152E+002.5441948020E-01+
*       8.4317075675E-01               0
GRID*               5186               0-1.335382040E+002.3824951261E-01+
*       8.7674371854E-01               0
GRID*               5187               0-1.312886720E+002.9545834759E-01+
*       8.8597215153E-01               0
GRID*               5188               01.2714889071E+006.9373847008E-01+
*       4.1224738717E-01               0
GRID*               5189               01.1798314406E+007.1820628711E-01+
*       4.1245343196E-01               0
GRID*               5190               01.2422288604E+007.1820628711E-01+
*       3.7456109729E-01               0
GRID*               5191               01.2401728610E+006.6194475720E-01+
*       4.1259315380E-01               0
GRID*               5192               0-1.785500987E+004.5980302636E-01+
*       -6.318279851E-02               0
GRID*               5193               0-1.833619474E+004.3743804116E-01+
*       -5.304870177E-02               0
GRID*               5194               0-1.815750662E+004.3900844747E-01+
*       -7.319920223E-02               0
GRID*               5195               0-1.774117030E+004.3478527003E-01+
*       -6.276729618E-02               0
GRID*               5196               0-1.791985842E+004.3321486372E-01+
*       -4.261679571E-02               0
GRID*               5197               0-1.822235517E+004.1242028483E-01+
*       -5.263319944E-02               0
GRID*               5198               01.3039662287E+00-7.168877218E-01+
*       7.0278434860E-01               0
GRID*               5199               0-1.799506745E+004.7526050758E-01+
*       -9.416208473E-02               0
GRID*               5200               0-1.847625232E+004.5289552238E-01+
*       -8.402798799E-02               0
GRID*               5201               0-1.817375557E+004.7369010127E-01+
*       -7.401158427E-02               0
GRID*               5202               0-1.801573079E+004.7892581482E-01+
*       -4.323927530E-02               0
GRID*               5203               0-1.815578838E+004.9438329603E-01+
*       -7.421856152E-02               0
GRID*               5204               01.2212607478E+005.6874344824E-01+
*       3.8323158173E-01               0
GRID*               5205               01.2822011063E+005.5449834952E-01+
*       3.4518695391E-01               0
GRID*               5206               01.2096903997E+006.0926933854E-01+
*       3.3666255426E-01               0
GRID*               5207               01.2700318329E+006.1625059000E-01+
*       3.7444868505E-01               0
GRID*               5208               01.5614708336E+00-7.292769813E-01+
*       -2.198805095E-01               0
GRID*               5209               01.5143083687E+00-7.292769813E-01+
*       -1.577615379E-01               0
GRID*               5210               01.5929247303E+00-7.292769813E-01+
*       -1.574394288E-01               0
GRID*               5211               01.3340914276E+006.9373847008E-01+
*       4.5013972184E-01               0
GRID*               5212               0-1.783745468E+005.3839906592E-01+
*       -2.114817634E-02               0
GRID*               5213               0-1.778550712E+005.6092930046E-01+
*       -2.239717119E-02               0
GRID*               5214               01.3346903528E+006.1905339082E-01+
*       3.4094784660E-01               0
GRID*               5215               01.3673428869E+007.2278603545E-01+
*       4.1435081587E-01               0
GRID*               5216               01.3026843670E+006.6652450553E-01+
*       4.1449053771E-01               0
GRID*               5217               01.3047403664E+007.2278603545E-01+
*       3.7645848120E-01               0
GRID*               5218               01.0537471546E+00-6.135802289E-01+
*       -1.884121370E-01               0
GRID*               5219               01.0841717828E+00-5.785737818E-01+
*       -1.279988004E-01               0
GRID*               5220               09.7604847560E-01-5.410866675E-01+
*       -1.265626253E-01               0
GRID*               5221               08.6994493136E-01-6.149997690E-01+
*       -1.249064696E-01               0
GRID*               5222               0-1.585202775E+002.5049290697E-01+
*       -6.696706889E-02               0
GRID*               5223               0-1.656064437E+002.7979101914E-01+
*       -6.696706889E-02               0
GRID*               5224               0-1.612178260E+003.0047075597E-01+
*       -6.696706889E-02               0
GRID*               5225               0-1.641644384E+003.1939410799E-01+
*       -1.086337356E-01               0
GRID*               5226               0-1.634624191E+003.6495300192E-01+
*       -6.281592314E-02               0
GRID*               5227               0-1.627468126E+003.0934709969E-01+
*       -8.811632537E-02               0
GRID*               5228               0-1.597869033E+003.7688463508E-01+
*       -6.281593697E-02               0
GRID*               5229               0-1.242656577E+00-1.185532313E-01+
*       4.8799584683E-01               0
GRID*               5230               09.0947195405E-01-4.282098294E-01+
*       -1.881504883E-01               0
GRID*               5231               09.5158597978E-01-4.118609199E-01+
*       -1.341624900E-01               0
GRID*               5232               09.9149358732E-01-4.215281322E-01+
*       -1.960120018E-01               0
GRID*               5233               0-1.738134992E+003.3587424937E-01+
*       -1.083251651E-01               0
GRID*               5234               0-1.701420341E+003.2393462308E-01+
*       -1.083255479E-01               0
GRID*               5235               0-1.693394224E+003.6679943347E-01+
*       -6.412209670E-02               0
GRID*               5236               0-1.709299466E+003.0379442005E-01+
*       -8.911469411E-02               0
GRID*               5237               0-1.656679573E+003.5485980718E-01+
*       -6.412247950E-02               0
GRID*               5238               0-1.701420341E+003.2393462308E-01+
*       -1.499922146E-01               0
GRID*               5239               0-1.634624191E+003.6495300192E-01+
*       -2.114925648E-02               0
GRID*               5240               0-1.656679573E+003.5485980718E-01+
*       -2.245581284E-02               0
GRID*               5241               0-1.642503315E+003.4481279889E-01+
*       -4.360506931E-02               0
GRID*               5242               09.4135125144E-01-4.691260000E-01+
*       -6.315048828E-02               0
GRID*               5243               0-4.904923509E-012.5225654551E-01+
*       -6.042428194E-02               0
GRID*               5244               0-5.330314222E-012.4981826922E-01+
*       -1.106943452E-01               0
GRID*               5245               0-5.693620138E-012.3672535707E-01+
*       -5.027006326E-02               0
GRID*               5246               0-5.282702452E-013.0643519831E-01+
*       -5.305628058E-02               0
GRID*               5247               0-4.919396536E-013.1952811046E-01+
*       -1.134805625E-01               0
GRID*               5248               0-5.708093164E-013.0399692202E-01+
*       -1.033263438E-01               0
GRID*               5249               0-9.939816580E-01-6.372445261E-01+
*       -1.093861331E-01               0
GRID*               5250               0-1.069752625E+00-6.372445261E-01+
*       -1.100070246E-01               0
GRID*               5251               0-9.206900733E-01-7.158025896E-01+
*       -9.429788541E-02               0
GRID*               5252               0-9.998084843E-01-6.030471157E-01+
*       -7.848197218E-02               0
GRID*               5253               0-9.964610400E-01-7.158025896E-01+
*       -9.491877691E-02               0
GRID*               5254               0-1.699722457E+00-6.253152548E-01+
*       -2.280798641E-01               0
GRID*               5255               0-1.663005382E+00-6.372567238E-01+
*       -2.280798641E-01               0
GRID*               5256               0-1.663005382E+00-6.372567238E-01+
*       -1.864131974E-01               0
GRID*               5257               0-9.772678979E-01-5.680864630E-01+
*       -1.215606916E-01               0
GRID*               5258               0-1.029807454E+00-5.038391444E-01+
*       -1.078517428E-01               0
GRID*               5259               0-9.339752824E-01-5.474365552E-01+
*       -1.358422145E-01               0
GRID*               5260               0-1.763195590E+00-5.824725000E-01+
*       -2.278302252E-01               0
GRID*               5261               0-1.740496703E+00-6.137180476E-01+
*       -2.278302252E-01               0
GRID*               5262               0-1.740500048E+00-6.137154669E-01+
*       -1.861640954E-01               0
GRID*               5263               0-9.508134989E-01-7.160432845E-01+
*       -1.555560834E-01               0
GRID*               5264               0-9.340997388E-01-6.468852214E-01+
*       -1.677306419E-01               0
GRID*               5265               0-9.499405747E-01-6.838324855E-01+
*       -1.886588576E-01               0
GRID*               5266               0-1.186661386E+00-4.346086894E-01+
*       -1.932353065E-01               0
GRID*               5267               01.5130927501E+001.0564886751E-02+
*       -1.237429949E-01               0
GRID*               5268               01.4193604038E+00-7.411712384E-03+
*       -6.353862940E-02               0
GRID*               5269               01.4039011616E+002.2583830343E-02+
*       -6.263178507E-02               0
GRID*               5270               01.4976335078E+004.0560429478E-02+
*       -1.228361505E-01               0
GRID*               5271               01.4245116179E+001.5172117959E-02+
*       -1.261704145E-01               0
GRID*               5272               01.4742430390E+002.9570300679E-01+
*       -1.924752170E-01               0
GRID*               5273               01.3526533414E+002.4592244860E-01+
*       -1.960971547E-01               0
GRID*               5274               01.3837481086E+002.9808944338E-01+
*       -1.960971547E-01               0
GRID*               5275               01.7714846557E+001.1222028297E-01+
*       -1.852354823E-01               0
GRID*               5276               01.6762600472E+009.3951793730E-02+
*       -1.204398477E-01               0
GRID*               5277               01.7464648149E+005.3444845972E-02+
*       -1.208832608E-01               0
GRID*               5278               01.4877408681E+001.7298116259E-01+
*       -6.110950634E-02               0
GRID*               5279               01.5520258380E+002.1526395102E-01+
*       -6.110950634E-02               0
GRID*               5280               0-1.156134326E+00-5.120976197E-01+
*       -1.996886350E-01               0
GRID*               5281               01.4471948613E+00-5.508615414E-01+
*       -2.059224172E-02               0
GRID*               5282               01.4546984226E+00-5.947505625E-01+
*       -2.104947222E-02               0
GRID*               5283               01.4314244686E+00-5.838491971E-01+
*       -2.210684876E-02               0
GRID*               5284               01.4798693824E+00-5.347107385E-01+
*       -4.269909048E-02               0
GRID*               5285               01.4873729437E+00-5.785997596E-01+
*       -4.315632098E-02               0
GRID*               5286               0-1.121926147E+00-5.796416548E-01+
*       -1.996886350E-01               0
GRID*               5287               0-1.065030110E+00-5.715108889E-01+
*       -1.717851099E-01               0
GRID*               5288               0-9.428667624E-01-5.458482518E-01+
*       -7.477558168E-02               0
GRID*               5289               0-7.594199822E-025.6282494964E-01+
*       -6.252954564E-02               0
GRID*               5290               0-1.899457096E-015.6323849841E-01+
*       -1.247331760E-01               0
GRID*               5291               0-1.517443357E-016.2667064968E-01+
*       -1.247858665E-01               0
GRID*               5292               01.2770970722E+005.4119216184E-01+
*       9.0545896935E-01               0
GRID*               5293               01.2694267361E+006.6093204665E-01+
*       9.1569651717E-01               0
GRID*               5294               01.3662150199E+006.9663868837E-01+
*       9.3377688663E-01               0
GRID*               5295               01.2993918255E+006.3182651455E-01+
*       9.1452585030E-01               0
GRID*               5296               01.2117698515E+002.4274702542E-01+
*       1.3228050057E+00               0
GRID*               5297               01.1795341408E+003.1076282584E-01+
*       1.3323935976E+00               0
GRID*               5298               01.2425540448E+002.8927418208E-01+
*       1.3158447775E+00               0
GRID*               5299               0-3.826340530E-027.1869746355E-01+
*       -3.124986297E-02               0
GRID*               5300               01.2340339295E+003.9848903868E-01+
*       1.2309790053E+00               0
GRID*               5301               01.2337665634E+003.6614656399E-01+
*       1.2495263188E+00               0
GRID*               5302               0-7.582339721E-026.8821699141E-01+
*       -1.875295456E-01               0
GRID*               5303               0-3.784811752E-026.8821699141E-01+
*       -1.250382450E-01               0
GRID*               5304               0-1.141169791E-016.8821699141E-01+
*       -1.250336984E-01               0
GRID*               5305               01.3680428445E+004.2527597187E-01+
*       1.3252987385E+00               0
GRID*               5306               0-1.792427287E-016.6551154317E-01+
*       -8.552311117E-02               0
GRID*               5307               0-1.903363763E-016.2567761427E-01+
*       -6.225632090E-02               0
GRID*               5308               0-1.658486201E-016.6413582255E-01+
*       -2.448917637E-02               0
GRID*               5309               0-1.547549725E-017.0396975146E-01+
*       -4.775596664E-02               0
GRID*               5310               0-2.033041186E-016.6536552483E-01+
*       -8.674549727E-02               0
GRID*               5311               01.2157930663E+004.3999796469E-01+
*       4.5364915672E-01               0
GRID*               5312               01.2212607243E+004.9842379839E-01+
*       4.2458099749E-01               0
GRID*               5313               01.2883037964E+004.5554662551E-01+
*       4.2082414061E-01               0
GRID*               5314               01.2212607180E+004.4127903825E-01+
*       3.7707188977E-01               0
GRID*               5315               01.3407930430E+004.1876585837E-01+
*       4.1074401820E-01               0
GRID*               5316               01.3462607010E+004.7719169207E-01+
*       3.8167585896E-01               0
GRID*               5317               01.3413255794E+004.2895641509E-01+
*       3.2933517571E-01               0
GRID*               5318               01.2888363328E+004.6573718223E-01+
*       3.3941529813E-01               0
GRID*               5319               01.3016766476E+002.5539846725E-01+
*       8.9774389977E-01               0
GRID*               5320               01.2957468505E+002.1558662294E-01+
*       9.6191896297E-01               0
GRID*               5321               01.3354317173E+002.2104416817E-01+
*       9.1582753950E-01               0
GRID*               5322               01.3216937177E+002.6988972672E-01+
*       9.2273600321E-01               0
GRID*               5323               01.3157639206E+002.3007788241E-01+
*       9.8691106642E-01               0
GRID*               5324               01.3772290094E+003.2314423098E-02+
*       1.0182596101E+00               0
GRID*               5325               01.3378410268E+001.7490210502E-01+
*       1.2160602050E+00               0
GRID*               5326               01.3415218616E+001.0639057351E-01+
*       1.2800425072E+00               0
GRID*               5327               01.2806129409E+001.1402374698E-01+
*       1.2414334119E+00               0
GRID*               5328               01.2957495478E+001.9025141635E-01+
*       9.8922445070E-01               0
GRID*               5329               01.2957498773E+001.5798541249E-01+
*       1.0078557033E+00               0
GRID*               5330               01.3348973078E+001.0965732472E-01+
*       9.9840574545E-01               0
GRID*               5331               01.3348969783E+001.4192332858E-01+
*       9.7977449280E-01               0
GRID*               5332               01.3152264844E+001.7629224941E-01+
*       1.0235525320E+00               0
GRID*               5333               01.3765619312E+001.4191741123E-01+
*       9.7977906636E-01               0
GRID*               5334               01.2130055300E+00-2.452115584E-01+
*       8.5250907798E-01               0
GRID*               5335               01.2385389847E+00-3.030427925E-01+
*       8.2837459689E-01               0
GRID*               5336               01.2383115348E+00-2.729306236E-01+
*       8.9416325235E-01               0
GRID*               5337               01.2101534253E+003.8370524056E-01+
*       5.6859259166E-01               0
GRID*               5338               01.2771965083E+003.7687648072E-01+
*       5.1231602138E-01               0
GRID*               5339               01.2157930555E+004.0394955164E-01+
*       5.0616887013E-01               0
GRID*               5340               01.2188435984E+004.5723473023E-01+
*       5.4259641974E-01               0
GRID*               5341               01.2802470513E+004.3016165930E-01+
*       5.4874357099E-01               0
GRID*               5342               01.2858866814E+004.5040597038E-01+
*       4.8631984945E-01               0
GRID*               5343               01.3462607010E+004.6907330549E-01+
*       4.5210540108E-01               0
GRID*               5344               01.3407930430E+004.1064747178E-01+
*       4.8117356032E-01               0
GRID*               5345               01.3438435860E+004.6393265036E-01+
*       5.1760110992E-01               0
GRID*               5346               01.2233582649E+00-3.785933596E-01+
*       9.7270605552E-01               0
GRID*               5347               01.2233582649E+00-3.969930116E-01+
*       9.2245337873E-01               0
GRID*               5348               07.6091649316E-013.2321653361E-01+
*       -1.984663388E-01               0
GRID*               5349               0-1.180535760E+006.5428509944E-01+
*       1.1076531720E-01               0
GRID*               5350               0-1.245858838E+006.3821628694E-01+
*       1.3709022515E-01               0
GRID*               5351               0-1.180099997E+006.5432068097E-01+
*       1.4552068938E-01               0
GRID*               5352               0-1.211885705E+006.8577521168E-01+
*       1.3713922886E-01               0
GRID*               5353               0-1.245423074E+006.3825186847E-01+
*       1.7184559734E-01               0
GRID*               5354               0-1.368144699E+007.2263317790E-01+
*       4.6207719929E-02               0
GRID*               5355               06.8285925284E-011.6449393639E-01+
*       -1.915870312E-01               0
GRID*               5356               01.3786580945E+00-2.594816681E-01+
*       7.3711476321E-01               0
GRID*               5357               01.3369934711E+00-2.594827987E-01+
*       6.9986336936E-01               0
GRID*               5358               01.3786580945E+00-2.594816684E-01+
*       6.9985458599E-01               0
GRID*               5359               07.3012642003E-011.7965690964E-01+
*       -1.400533700E-01               0
GRID*               5360               06.8438139787E-011.6519594666E-01+
*       -6.658703120E-02               0
GRID*               5361               0-1.217085793E+006.4202203482E-01+
*       4.8531212972E-01               0
GRID*               5362               0-1.272240819E+005.6806062680E-01+
*       4.9074864541E-01               0
GRID*               5363               0-1.277738536E+006.3347240378E-01+
*       5.2991092623E-01               0
GRID*               5364               01.2703916375E+00-5.004378847E-01+
*       4.6465160570E-01               0
GRID*               5365               0-1.207267914E+003.6523605867E-01+
*       3.6595642157E-01               0
GRID*               5366               0-1.266709948E+003.5281394774E-01+
*       3.2405582202E-01               0
GRID*               5367               01.2124542365E+00-4.641170213E-01+
*       5.3255507351E-01               0
GRID*               5368               0-1.332979251E+004.5275168794E-01+
*       6.0336815359E-01               0
GRID*               5369               0-1.328905024E+005.0009953791E-01+
*       5.6446128311E-01               0
GRID*               5370               0-1.263134328E+004.9247896258E-01+
*       5.8823698224E-01               0
GRID*               5371               0-1.328905024E+004.5050558613E-01+
*       5.4731426906E-01               0
GRID*               5372               0-1.271770743E+004.2589037573E-01+
*       6.0992887140E-01               0
GRID*               5373               0-1.337541439E+003.8391699928E-01+
*       5.6900615823E-01               0
GRID*               5374               0-1.267696515E+004.2364427392E-01+
*       5.5387498688E-01               0
GRID*               5375               0-1.336798475E+004.0367909952E-01+
*       5.0195142929E-01               0
GRID*               5376               0-1.207979266E+004.5481650717E-01+
*       6.4482428597E-01               0
GRID*               5377               0-1.203905038E+004.5257040536E-01+
*       5.8877040145E-01               0
GRID*               5378               0-4.923947544E-013.7087924157E-01+
*       -5.305628058E-02               0
GRID*               5379               0-5.664468127E-013.6723419544E-01+
*       -5.305628058E-02               0
GRID*               5380               0-5.303538639E-014.3266917396E-01+
*       -5.305628058E-02               0
GRID*               5381               0-1.340316030E+00-2.183021515E-01+
*       4.0215949603E-02               0
GRID*               5382               0-1.340316030E+00-2.547501509E-01+
*       1.0435401903E-01               0
GRID*               5383               0-4.934529164E-014.9859310459E-01+
*       -1.879641994E-01               0
GRID*               5384               0-3.790301801E-013.0499337873E-01+
*       -5.928370981E-02               0
GRID*               5385               0-4.168200233E-013.1540606438E-01+
*       -1.197079917E-01               0
GRID*               5386               0-6.047277551E-014.2935048518E-01+
*       -6.064634090E-02               0
GRID*               5387               0-5.679984903E-014.3582305300E-01+
*       -1.137026215E-01               0
GRID*               5388               0-6.811198595E-015.0362872356E-01+
*       -1.154043373E-01               0
GRID*               5389               0-5.305976910E-014.3671868590E-01+
*       -1.780562806E-01               0
GRID*               5390               0-4.925727732E-014.3558118195E-01+
*       -1.160204800E-01               0
GRID*               5391               0-1.215316071E+00-3.210959470E-01+
*       1.1015894987E-01               0
GRID*               5392               0-1.487161471E+005.9245940101E-01+
*       -1.068144739E-01               0
GRID*               5393               0-1.038698934E+00-5.022508410E-01+
*       -4.678510994E-02               0
GRID*               5394               0-1.280358554E+002.7548572484E-01+
*       -1.866405491E-01               0
GRID*               5395               0-1.357632099E+003.3286765429E-01+
*       -1.225827257E-01               0
GRID*               5396               0-1.391756131E+003.2190477623E-01+
*       -1.859421766E-01               0
GRID*               5397               0-1.369364152E+002.2965319291E-01+
*       -1.914925422E-01               0
GRID*               5398               0-1.446637697E+002.8703512237E-01+
*       -1.274347188E-01               0
GRID*               5399               0-1.075937556E+00-6.408331686E-01+
*       -3.042353008E-02               0
GRID*               5400               0-1.075937556E+00-7.158331686E-01+
*       -3.042353008E-02               0
GRID*               5401               0-1.129020255E+00-7.116682752E-01+
*       -3.199216558E-02               0
GRID*               5402               0-1.129020255E+00-6.366682752E-01+
*       -3.199216558E-02               0
GRID*               5403               0-1.056207745E+00-6.775014437E-01+
*       -6.241569567E-02               0
GRID*               5404               0-1.336989480E+00-2.860348862E-01+
*       1.8338066426E-01               0
GRID*               5405               0-1.560579459E+007.2945448486E-01+
*       -2.200296145E-01               0
GRID*               5406               0-1.553294514E+006.8262483081E-01+
*       -1.834274627E-01               0
GRID*               5407               0-1.538750651E+006.8740130961E-01+
*       -2.200296145E-01               0
GRID*               5408               0-1.467117407E+007.1659338220E-01+
*       -2.190678684E-01               0
GRID*               5409               0-1.521238597E+006.7454020695E-01+
*       -2.190678684E-01               0
GRID*               5410               0-1.202748472E+00-2.636621289E-02+
*       2.9662102876E-01               0
GRID*               5411               0-1.335766383E+001.4150003421E-01+
*       2.7377031925E-01               0
GRID*               5412               0-1.335766383E+008.3093003985E-02+
*       2.9764576425E-01               0
GRID*               5413               0-1.334346194E+003.8051747380E-02+
*       2.4496356290E-01               0
GRID*               5414               0-1.334346194E+009.6458777608E-02+
*       2.2108811789E-01               0
GRID*               5415               0-1.271362630E+007.8661536840E-02+
*       2.4608947214E-01               0
GRID*               5416               0-1.362136088E+001.0711386521E-01+
*       -1.942131125E-01               0
GRID*               5417               0-1.413302176E+001.7545973896E-01+
*       -1.914925422E-01               0
GRID*               5418               0-1.341825201E+003.7555598259E-02+
*       3.4948936731E-01               0
GRID*               5419               0-1.277421448E+003.3124131113E-02+
*       2.9793307519E-01               0
GRID*               5420               0-1.367383430E+007.2426434235E-01+
*       1.5710329589E-01               0
GRID*               5421               0-1.400639573E+006.3871611673E-01+
*       -1.901480087E-01               0
GRID*               5422               0-1.413970798E+006.7589049439E-01+
*       -1.687477735E-01               0
GRID*               5423               0-1.370143576E+006.6827572531E-01+
*       -2.285997648E-01               0
GRID*               5424               0-1.036026861E+007.0038579879E-01+
*       -5.207790163E-02               0
GRID*               5425               01.8680210526E+00-1.134636019E-01+
*       -2.975132470E-02               0
GRID*               5426               01.8107046563E+00-1.491165456E-01+
*       -2.975132470E-02               0
GRID*               5427               09.1430639949E-01-9.153360882E-02+
*       -2.032203717E-01               0
GRID*               5428               08.4212893248E-01-6.228707325E-02+
*       -1.349499577E-01               0
GRID*               5429               08.2741135319E-01-9.579710210E-02+
*       -1.817295861E-01               0
GRID*               5430               08.8552348788E-01-1.720023101E-01+
*       -1.875508013E-01               0
GRID*               5431               08.1334602087E-01-1.427557746E-01+
*       -1.192803873E-01               0
GRID*               5432               07.5217666784E-01-1.639700741E-01+
*       -1.178497400E-01               0
GRID*               5433               07.8442760059E-01-1.396771340E-01+
*       -5.672958605E-02               0
GRID*               5434               08.4253973527E-01-2.158823420E-01+
*       -6.255080129E-02               0
GRID*               5435               08.1028880252E-01-2.401752821E-01+
*       -1.236709552E-01               0
GRID*               5436               0-4.938709933E-01-6.251608537E-01+
*       -1.875526068E-01               0
GRID*               5437               0-4.566167649E-01-6.260540257E-01+
*       -1.248660936E-01               0
GRID*               5438               0-5.336565516E-01-4.442358655E-01+
*       -6.059151562E-02               0
GRID*               5439               0-4.956867919E-01-5.001603978E-01+
*       -6.257661683E-02               0
GRID*               5440               08.6957682569E-01-1.477582809E-01+
*       -6.255080129E-02               0
GRID*               5441               07.8921049900E-01-3.509738583E-02+
*       -1.817295861E-01               0
GRID*               5442               08.7610554529E-01-3.083389255E-02+
*       -2.032203717E-01               0
GRID*               5443               08.5640667000E-011.0635323324E-01+
*       -1.933319896E-01               0
GRID*               5444               08.2162227386E-014.5561873887E-02+
*       -1.933319896E-01               0
GRID*               5445               08.1146469101E-01-7.155307288E-02+
*       -5.672958605E-02               0
GRID*               5446               07.6783911240E-01-3.057036339E-02+
*       -5.672958605E-02               0
GRID*               5447               08.9835973730E-01-6.728957959E-02+
*       -7.822037167E-02               0
GRID*               5448               08.5473415869E-01-2.630687010E-02+
*       -7.822037167E-02               0
GRID*               5449               08.0025088725E-015.0088896327E-02+
*       -6.833198962E-02               0
GRID*               5450               0-3.817258479E-01-6.881605490E-01+
*       -6.231348674E-02               0
GRID*               5451               0-4.190670560E-01-6.881605490E-01+
*       -1.248222777E-01               0
GRID*               5452               0-4.206508994E-01-7.187865692E-01+
*       -3.125386494E-02               0
GRID*               5453               0-4.194600584E-01-6.569471182E-01+
*       -9.356735168E-02               0
GRID*               5454               0-4.579921074E-01-7.187865692E-01+
*       -9.376265587E-02               0
GRID*               5455               0-5.321742541E-01-6.878934767E-01+
*       -1.875526068E-01               0
GRID*               5456               0-3.428049720E-01-6.881605490E-01+
*       -1.248216931E-01               0
GRID*               5457               0-3.421663867E-01-7.184486040E-01+
*       -2.168572254E-01               0
GRID*               5458               0-3.425588954E-01-6.566091530E-01+
*       -1.541707122E-01               0
GRID*               5459               0-9.833506131E-017.7570119614E-02+
*       -1.977891249E-01               0
GRID*               5460               0-1.003735156E+007.7880515299E-02+
*       -1.399183282E-01               0
GRID*               5461               0-1.011175014E+001.9613849048E-02+
*       -1.977891249E-01               0
GRID*               5462               0-1.282639306E+00-3.551916574E-01+
*       -1.932353065E-01               0
GRID*               5463               0-1.320506628E+00-3.928672507E-01+
*       -1.932353065E-01               0
GRID*               5464               0-1.316503499E+00-6.214050273E-01+
*       1.0155778096E-01               0
GRID*               5465               0-1.826395091E+002.8643461797E-01+
*       -1.916588813E-01               0
GRID*               5466               0-1.775001145E+003.1662365032E-01+
*       -1.916588813E-01               0
GRID*               5467               0-1.872459855E+003.3446764071E-01+
*       -2.193183788E-01               0
GRID*               5468               0-1.800104998E+003.2090225868E-01+
*       -1.609772600E-01               0
GRID*               5469               0-1.821065908E+003.6465667306E-01+
*       -2.193183788E-01               0
GRID*               5470               01.5149077464E+003.8676734059E-01+
*       -1.067067511E-01               0
GRID*               5471               01.4922122638E+004.1800998501E-01+
*       -1.067072707E-01               0
GRID*               5472               01.3367957207E+004.8048469263E-01+
*       -1.866945503E-01               0
GRID*               5473               0-9.689362191E-013.9800402261E-02+
*       -7.278912492E-02               0
GRID*               5474               0-9.466069256E-01-2.662198804E-02+
*       -1.383830357E-01               0
GRID*               5475               0-9.115883028E-01-2.010437309E-02+
*       -7.278912492E-02               0
GRID*               5476               0-9.323396076E-01-8.480651478E-02+
*       -6.559391077E-02               0
GRID*               5477               01.5601693408E+003.8031955322E-01+
*       -2.290070973E-01               0
GRID*               5478               01.5515131893E+003.9931069786E-01+
*       -2.287290771E-01               0
GRID*               5479               01.5171461540E+004.4576430549E-01+
*       -2.295522828E-01               0
GRID*               5480               01.5070983844E+004.7124131321E-01+
*       -2.278858616E-01               0
GRID*               5481               0-9.092781559E-01-3.992000824E-02+
*       -1.977891249E-01               0
GRID*               5482               0-9.300294607E-01-1.046221499E-01+
*       -1.905939108E-01               0
GRID*               5483               0-8.921401446E-01-1.056805495E-01+
*       -1.281497173E-01               0
GRID*               5484               0-9.451535454E-012.0644092552E-02+
*       -1.977891249E-01               0
GRID*               5485               0-9.659048502E-01-4.405804914E-02+
*       -1.905939108E-01               0
GRID*               5486               01.5809338437E+003.7427842355E-01+
*       -2.286174541E-01               0
GRID*               5487               0-2.287709441E-016.8845365827E-01+
*       -6.225632090E-02               0
GRID*               5488               0-2.042831879E-017.2691186656E-01+
*       -2.448917637E-02               0
GRID*               5489               0-1.656767620E-017.2691186656E-01+
*       -8.699332917E-02               0
GRID*               5490               01.6620257329E+003.5785451271E-01+
*       -2.293134881E-01               0
GRID*               5491               01.6620257328E+003.5785451271E-01+
*       -1.876468214E-01               0
GRID*               5492               01.6365591085E+003.5573318117E-01+
*       -2.281446228E-01               0
GRID*               5493               01.6498852134E+003.3858768374E-01+
*       -2.074581108E-01               0
GRID*               5494               01.6365591084E+003.5573318117E-01+
*       -1.864779561E-01               0
GRID*               5495               0-8.619262212E-01-6.808419369E-01+
*       -7.477558168E-02               0
GRID*               5496               0-8.844668076E-01-7.158025896E-01+
*       -3.169686224E-02               0
GRID*               5497               0-9.039763132E-01-6.466445265E-01+
*       -1.064724439E-01               0
GRID*               5498               0-2.282328308E-015.0246154538E-01+
*       -1.218711688E-01               0
GRID*               5499               0-2.665488337E-015.0177100695E-01+
*       -5.939431365E-02               0
GRID*               5500               0-2.282617125E-015.6254795998E-01+
*       -6.225632090E-02               0
GRID*               5501               0-2.660886469E-015.0257182616E-01+
*       -1.843943137E-01               0
GRID*               5502               0-1.899553604E-014.9967996105E-01+
*       -1.874768551E-01               0
GRID*               5503               0-2.278015256E-015.6334877919E-01+
*       -1.872563209E-01               0
GRID*               5504               0-1.214073129E+005.5094876287E-01+
*       1.3085730539E-01               0
GRID*               5505               0-1.342720493E+002.9524581630E-01+
*       2.0742899642E-01               0
GRID*               5506               0-1.342720493E+002.3709575556E-01+
*       2.4282716736E-01               0
GRID*               5507               07.8764566104E-011.4108693184E-02+
*       -1.250615757E-01               0
GRID*               5508               07.5621948049E-013.9495485690E-02+
*       -1.915870312E-01               0
GRID*               5509               07.2224286768E-018.0423049876E-03+
*       -1.233166172E-01               0
GRID*               5510               07.5465464254E-018.8701564704E-02+
*       -1.349190208E-01               0
GRID*               5511               07.8476760745E-011.0767644202E-01+
*       -1.933319896E-01               0
GRID*               5512               08.2100001038E-011.6881450403E-01+
*       -1.933319896E-01               0
GRID*               5513               07.6023938495E-011.9863178696E-01+
*       -1.984663388E-01               0
GRID*               5514               07.9552921340E-011.8572329784E-01+
*       -1.417983284E-01               0
GRID*               5515               07.9647178788E-012.5976984897E-01+
*       -1.984663388E-01               0
GRID*               5516               06.0929175830E-015.8902995415E-02+
*       -5.251898578E-02               0
GRID*               5517               06.5372083160E-013.6572425819E-02+
*       -1.191060170E-01               0
GRID*               5518               06.4078937540E-01-1.326707708E-03+
*       -5.251898578E-02               0
GRID*               5519               06.7632039298E-014.4736042980E-02+
*       -6.658703120E-02               0
GRID*               5520               0-1.169504357E+001.8582080291E-01+
*       5.5582522997E-01               0
GRID*               5521               0-1.211169727E+002.1116110009E-01+
*       5.8313420980E-01               0
GRID*               5522               0-1.169504357E+002.1116450610E-01+
*       5.8313861364E-01               0
GRID*               5523               06.4803531847E-01-5.846617174E-03+
*       -1.775189858E-01               0
GRID*               5524               06.8671185010E-01-3.802044570E-02+
*       -1.092485718E-01               0
GRID*               5525               07.1655735455E-01-3.437673801E-02+
*       -1.817295861E-01               0
GRID*               5526               06.8356633605E-014.0216133514E-02+
*       -1.915870312E-01               0
GRID*               5527               07.1544670420E-011.0025727738E-01+
*       -6.658703120E-02               0
GRID*               5528               07.5632127506E-011.9727901051E-01+
*       -7.346633876E-02               0
GRID*               5529               07.1936481409E-011.0161005383E-01+
*       -1.915870312E-01               0
GRID*               5530               0-6.035594244E-01-1.957283977E-01+
*       -4.774100225E-02               0
GRID*               5531               0-6.422747775E-01-1.762223976E-01+
*       -1.174697973E-01               0
GRID*               5532               0-1.211337908E+00-1.876250944E-01+
*       9.3824281733E-01               0
GRID*               5533               0-1.236990722E+00-2.268820871E-01+
*       9.9468448035E-01               0
GRID*               5534               0-1.212304943E+00-2.065164726E-01+
*       9.2711351511E-01               0
GRID*               5535               0-1.191557708E+00-2.108743557E-01+
*       9.4531991956E-01               0
GRID*               5536               0-1.237957757E+00-2.457734653E-01+
*       9.8355517813E-01               0
GRID*               5537               0-5.660502529E-01-1.242846748E-01+
*       -1.804594699E-01               0
GRID*               5538               0-6.035472920E-01-1.067456109E-01+
*       -1.251882650E-01               0
GRID*               5539               0-6.407968600E-01-1.054603489E-01+
*       -1.947287951E-01               0
GRID*               5540               0-6.047777384E-01-1.937614615E-01+
*       -1.727410022E-01               0
GRID*               5541               0-1.257737026E+00-1.933906001E-01+
*       9.9971305374E-01               0
GRID*               5542               0-1.237982440E+00-2.112001408E-01+
*       1.0069895097E+00               0
GRID*               5543               0-1.212329627E+00-1.719431481E-01+
*       9.5054784670E-01               0
GRID*               5544               07.5869788188E-02-4.371171152E-01+
*       -1.875514515E-01               0
GRID*               5545               03.7902720253E-02-3.746060736E-01+
*       -1.875514515E-01               0
GRID*               5546               0-4.670068484E-06-4.371051711E-01+
*       -1.875883660E-01               0
GRID*               5547               03.7987184039E-02-4.370263126E-01+
*       -1.251398175E-01               0
GRID*               5548               0-1.170662029E+00-1.428095442E-01+
*       9.7378282454E-01               0
GRID*               5549               01.1398490138E-01-4.370629734E-01+
*       -1.250400331E-01               0
GRID*               5550               01.7948218727E+00-1.770768515E-01+
*       -1.462277932E-01               0
GRID*               5551               01.7657512332E+00-1.779996223E-01+
*       -1.787536606E-01               0
GRID*               5552               01.7959415893E+00-2.146059356E-01+
*       -1.489727163E-01               0
GRID*               5553               07.6082719047E-02-4.369414325E-01+
*       -6.255145146E-02               0
GRID*               5554               0-5.514867997E-05-3.120049580E-01+
*       -6.258692796E-02               0
GRID*               5555               03.8013873623E-02-3.120575201E-01+
*       -1.251383794E-01               0
GRID*               5556               03.7825552058E-02-3.744746530E-01+
*       -6.255145146E-02               0
GRID*               5557               0-3.815636279E-02-3.745538301E-01+
*       -6.256553288E-02               0
GRID*               5558               0-8.734048454E-05-3.746063923E-01+
*       -1.251169843E-01               0
GRID*               5559               0-1.769077956E+002.4708662821E-01+
*       -6.665888127E-02               0
GRID*               5560               0-1.706600480E+002.1098701680E-01+
*       -6.665888127E-02               0
GRID*               5561               0-1.689399949E+001.1055926634E-01+
*       -7.126276339E-02               0
GRID*               5562               0-1.751877424E+001.4665887775E-01+
*       -7.126276339E-02               0
GRID*               5563               0-1.736839702E+001.7244148548E-01+
*       -1.379216447E-01               0
GRID*               5564               0-1.746199269E+009.0535686135E-02+
*       -1.962627634E-01               0
GRID*               5565               0-1.763399801E+001.9096343660E-01+
*       -1.916588813E-01               0
GRID*               5566               0-1.777106934E+001.1931651757E-01+
*       -1.649383208E-01               0
GRID*               5567               0-1.794307466E+002.1974426803E-01+
*       -1.603344387E-01               0
GRID*               5568               0-1.284605522E+00-6.605407933E-01+
*       1.2157622359E-01               0
GRID*               5569               0-1.306243776E+00-7.215006594E-01+
*       1.2718716880E-01               0
GRID*               5570               0-1.316708777E+00-6.320414527E-01+
*       1.6658551627E-01               0
GRID*               5571               0-1.339565522E+00-3.953665504E-01+
*       1.1255821127E-01               0
GRID*               5572               0-1.339565522E+00-4.200418841E-01+
*       1.7200045272E-01               0
GRID*               5573               0-1.695273526E+001.3616778884E-01+
*       -1.962627634E-01               0
GRID*               5574               0-1.676970586E+006.3320099313E-02+
*       -1.962627634E-01               0
GRID*               5575               0-1.622619263E+009.3554775548E-02+
*       -1.953263578E-01               0
GRID*               5576               0-1.640922203E+001.6640246508E-01+
*       -1.953263578E-01               0
GRID*               5577               0-1.683321236E+00-3.976239166E-02+
*       -6.109096985E-02               0
GRID*               5578               0-1.748496835E+007.3133832053E-02+
*       -7.126276339E-02               0
GRID*               5579               0-1.170662907E+008.3512533023E-02+
*       4.9752467269E-01               0
GRID*               5580               0-1.169329773E+001.0358930604E-01+
*       5.0335137641E-01               0
GRID*               5581               0-1.191242732E+009.5767697201E-02+
*       4.8359179190E-01               0
GRID*               5582               0-1.210994726E+001.0358238571E-01+
*       5.0334853713E-01               0
GRID*               5583               0-1.635048625E+001.4079394257E-01+
*       -7.032635775E-02               0
GRID*               5584               0-1.732711566E+003.2720609910E-02+
*       -1.962627634E-01               0
GRID*               5585               0-1.783434286E+001.2646014867E-02+
*       -2.186670431E-01               0
GRID*               5586               0-1.768730627E+00-2.337223992E-02+
*       -1.547580129E-01               0
GRID*               5587               0-1.770361890E+005.1939139981E-02+
*       -1.649298065E-01               0
GRID*               5588               0-1.712474058E+002.3659553931E-01+
*       -1.916588813E-01               0
GRID*               5589               0-1.682488379E+002.0267616172E-01+
*       -1.369852390E-01               0
GRID*               5590               0-6.052559559E-01-5.990672797E-02+
*       -6.181354367E-02               0
GRID*               5591               0-5.682789851E-017.6556552044E-04+
*       -6.181354367E-02               0
GRID*               5592               0-5.278549680E-01-6.557931757E-02+
*       -5.545946989E-02               0
GRID*               5593               0-5.648319389E-01-1.262516111E-01+
*       -5.545946989E-02               0
GRID*               5594               0-5.692247019E-01-5.922505371E-02+
*       -1.172730136E-01               0
GRID*               5595               0-5.320190660E-013.4394209128E-04+
*       -1.303175832E-01               0
GRID*               5596               0-4.906493321E-01-6.010321767E-03+
*       -6.850403953E-02               0
GRID*               5597               0-4.920633305E-01-2.848815732E-03+
*       -1.935040395E-01               0
GRID*               5598               0-5.292689664E-01-6.241781154E-02+
*       -1.804594699E-01               0
GRID*               5599               0-1.198122243E+004.4427284251E-01+
*       7.1100911255E-01               0
GRID*               5600               0-1.198122263E+003.8895173404E-01+
*       7.3168420755E-01               0
GRID*               5601               0-1.209949834E+005.1310168455E-01+
*       7.4966913188E-01               0
GRID*               5602               0-1.259322061E+004.4439806771E-01+
*       7.3772342494E-01               0
GRID*               5603               0-1.209949854E+004.5778057608E-01+
*       7.7034422689E-01               0
GRID*               5604               0-1.218199080E+003.5315999754E-01+
*       8.0501902791E-01               0
GRID*               5605               0-1.209589281E+003.1708033450E-01+
*       8.5255783212E-01               0
GRID*               5606               0-1.209589258E+003.4722622561E-01+
*       8.8068675391E-01               0
GRID*               5607               0-1.279038367E+003.5704858519E-01+
*       8.6175565683E-01               0
GRID*               5608               0-1.272456347E+003.3488605832E-01+
*       4.7140365382E-01               0
GRID*               5609               0-1.170411643E+002.3182153660E-01+
*       6.0206269762E-01               0
GRID*               5610               0-1.212077898E+002.4798809817E-01+
*       6.3563125556E-01               0
GRID*               5611               0-5.287848958E-01-1.870131420E-01+
*       -1.804594699E-01               0
GRID*               5612               0-1.481556860E+001.8484743527E-01+
*       -1.914925422E-01               0
GRID*               5613               0-1.529367019E+002.2928587241E-01+
*       -1.334596111E-01               0
GRID*               5614               0-1.586678160E+002.1934976862E-01+
*       -1.919670689E-01               0
GRID*               5615               0-1.574902263E+001.5369720949E-01+
*       -1.953263578E-01               0
GRID*               5616               0-1.517591121E+001.6363331327E-01+
*       -1.368189000E-01               0
GRID*               5617               0-1.622712422E+001.9813564663E-01+
*       -1.372934266E-01               0
GRID*               5618               01.8126870615E+00-2.253034862E-02+
*       -1.856477786E-01               0
GRID*               5619               01.8126870615E+00-6.003034862E-02+
*       -1.231477786E-01               0
GRID*               5620               01.8126870615E+001.4969651377E-02+
*       -1.231477786E-01               0
GRID*               5621               01.7674397699E+00-2.446531989E-01+
*       -5.375366057E-02               0
GRID*               5622               01.7386932801E+00-1.565306038E-01+
*       -1.144014391E-01               0
GRID*               5623               01.7553706651E+00-1.331832924E-01+
*       -6.064777857E-02               0
GRID*               5624               01.8121760580E+00-1.854518309E-01+
*       -3.205088061E-02               0
GRID*               5625               01.7954986730E+00-2.087991424E-01+
*       -8.580454118E-02               0
GRID*               5626               01.7834295682E+00-9.732923581E-02+
*       -9.269865918E-02               0
GRID*               5627               0-1.717817501E+003.7762497625E-01+
*       -1.867367549E-01               0
GRID*               5628               0-1.681097083E+003.6568092764E-01+
*       -1.867362180E-01               0
GRID*               5629               0-1.733716975E+003.1461554050E-01+
*       -1.700617660E-01               0
GRID*               5630               0-1.206153784E+001.8266234213E-01+
*       9.4427605416E-01               0
GRID*               5631               0-1.241586414E+009.7358638183E-02+
*       1.0697897800E+00               0
GRID*               5632               0-1.209589258E+003.0879901381E-01+
*       8.9580545683E-01               0
GRID*               5633               0-1.209589258E+002.9201832889E-01+
*       9.5037580175E-01               0
GRID*               5634               0-1.209589258E+003.5137608450E-01+
*       9.3038464514E-01               0
GRID*               5635               01.8034705005E+007.5246857835E-02+
*       -3.122069362E-02               0
GRID*               5636               01.7805809769E+001.4804251067E-02+
*       -9.186847219E-02               0
GRID*               5637               01.8004216164E+001.1330979429E-01+
*       -9.145617587E-02               0
GRID*               5638               01.7536821284E+00-6.652971568E-02+
*       -1.856477786E-01               0
GRID*               5639               01.8688156540E+00-4.307659631E-02+
*       -2.174741326E-01               0
GRID*               5640               01.7827527679E+00-6.560694494E-02+
*       -1.531219112E-01               0
GRID*               5641               0-1.169183180E+002.2869408546E-01+
*       8.8977479128E-01               0
GRID*               5642               0-1.335564097E+002.4891622421E-01+
*       6.4063473749E-01               0
GRID*               5643               0-7.602264590E-02-4.372161518E-01+
*       -1.875655329E-01               0
GRID*               5644               0-1.141037692E-01-4.997408225E-01+
*       -1.875485800E-01               0
GRID*               5645               0-7.639947748E-02-4.371400598E-01+
*       -6.256553288E-02               0
GRID*               5646               0-1.144806008E-01-4.996647305E-01+
*       -6.254857997E-02               0
GRID*               5647               0-1.527040198E-01-4.372451669E-01+
*       -6.254857997E-02               0
GRID*               5648               0-1.323122209E+003.9451098713E-01+
*       6.7875179149E-01               0
GRID*               5649               0-1.323122209E+003.5031011378E-01+
*       7.0446964962E-01               0
GRID*               5650               0-1.323122209E+003.4305982455E-01+
*       6.5154624756E-01               0
GRID*               5651               0-1.218199111E+003.9773124532E-01+
*       7.8926093106E-01               0
GRID*               5652               0-1.198122232E+003.4438048626E-01+
*       7.4744230440E-01               0
GRID*               5653               0-1.267571318E+003.8434873695E-01+
*       7.5664012911E-01               0
GRID*               5654               0-1.211415995E+002.5712256390E-01+
*       6.5417759574E-01               0
GRID*               5655               0-1.219122001E+003.2546158305E-01+
*       6.6555513428E-01               0
GRID*               5656               0-1.239788463E+003.0723020651E-01+
*       6.8768586706E-01               0
GRID*               5657               0-1.190824325E+002.7769512210E-01+
*       6.6140264785E-01               0
GRID*               5658               0-1.219196793E+003.2780276472E-01+
*       6.9491091917E-01               0
GRID*               5659               0-1.321489113E+003.4134707918E-01+
*       7.7256422514E-01               0
GRID*               5660               0-1.334949800E+004.6333982917E-01+
*       7.1741181083E-01               0
GRID*               5661               0-1.334949800E+005.1479647675E-01+
*       7.4509895295E-01               0
GRID*               5662               0-1.334949800E+004.6692831828E-01+
*       7.7009940419E-01               0
GRID*               5663               0-1.210771623E+002.6834744669E-01+
*       7.3853892728E-01               0
GRID*               5664               0-1.218477177E+003.3113205952E-01+
*       7.1307063009E-01               0
GRID*               5665               0-1.212373897E+002.6763092448E-01+
*       7.6085107820E-01               0
GRID*               5666               0-1.191062159E+002.8597837117E-01+
*       7.4939000548E-01               0
GRID*               5667               0-1.220079451E+003.3041553731E-01+
*       7.3538278100E-01               0
GRID*               5668               0-1.248539204E+002.1362267097E-01+
*       9.6122650830E-01               0
GRID*               5669               0-1.222610437E+002.1506731100E-01+
*       9.8736163867E-01               0
GRID*               5670               0-1.212138183E+002.2116802376E-01+
*       9.1621585066E-01               0
GRID*               5671               0-1.228592139E+002.2823778604E-01+
*       9.8660692290E-01               0
GRID*               5672               0-1.186209416E+002.2261266379E-01+
*       9.4235098103E-01               0
GRID*               5673               0-1.271377959E+005.9491791863E-01+
*       9.6276682216E-01               0
GRID*               5674               0-1.240600043E+005.6595364164E-01+
*       9.6102961034E-01               0
GRID*               5675               06.7064099372E-013.7512004210E-01+
*       -6.632646242E-02               0
GRID*               5676               06.0933311451E-014.3776405932E-01+
*       -5.641019050E-02               0
GRID*               5677               01.3374542127E+00-4.734132698E-01+
*       5.0467981770E-01               0
GRID*               5678               01.3348743281E+00-4.671473745E-01+
*       4.3701120336E-01               0
GRID*               5679               0-1.208524402E+00-3.472144188E-02+
*       1.1419656896E+00               0
GRID*               5680               0-1.229349897E+00-1.450224476E-02+
*       1.1268860410E+00               0
GRID*               5681               0-1.282072654E+005.8556306210E-02+
*       1.2063015805E+00               0
GRID*               5682               0-1.330364262E+00-1.769036471E-02+
*       1.3373037084E+00               0
GRID*               5683               0-1.346374055E+00-9.686501589E-02+
*       1.3483296181E+00               0
GRID*               5684               0-1.261320292E+001.0950690145E-01+
*       1.2427934900E+00               0
GRID*               5685               0-1.205364262E+001.0150667231E-01+
*       1.2815218675E+00               0
GRID*               5686               0-1.262940536E+001.2938052029E-01+
*       1.3085512767E+00               0
GRID*               5687               0-1.225458340E+006.1243846878E-02+
*       1.1558367981E+00               0
GRID*               5688               0-1.208524402E+00-7.098522133E-04+
*       1.2016960014E+00               0
GRID*               5689               0-4.536756276E-015.6115610616E-02+
*       -6.850403953E-02               0
GRID*               5690               0-5.406713406E-016.0401747901E-02+
*       -7.141550805E-02               0
GRID*               5691               0-5.036976361E-011.2252768028E-01+
*       -7.141550805E-02               0
GRID*               5692               0-5.044114215E-015.9980124472E-02+
*       -1.399195476E-01               0
GRID*               5693               0-1.217085802E+006.9794419641E-01+
*       4.4965709656E-01               0
GRID*               5694               0-1.180077627E+007.2194142790E-01+
*       4.8623448236E-01               0
GRID*               5695               0-1.248413362E+006.6988562432E-01+
*       4.8589157891E-01               0
GRID*               5696               0-1.180077617E+006.6601926631E-01+
*       5.2188951553E-01               0
GRID*               5697               0-1.342085742E+006.9794419641E-01+
*       4.4965709656E-01               0
GRID*               5698               0-1.279475523E+006.9794419641E-01+
*       4.1176090586E-01               0
GRID*               5699               0-1.279564898E+006.9794419641E-01+
*       4.8597627008E-01               0
GRID*               5700               0-1.323122209E+003.9809947624E-01+
*       7.3143938485E-01               0
GRID*               5701               0-1.179342894E+007.2033898931E-01+
*       2.6836450988E-01               0
GRID*               5702               0-1.309520891E+006.6613975304E-01+
*       4.1217303841E-01               0
GRID*               5703               0-1.235601108E+007.3103090370E-01+
*       3.6471064137E-01               0
GRID*               5704               0-1.241547122E+006.7897510011E-01+
*       4.0226392862E-01               0
GRID*               5705               0-1.265646476E+006.9922646033E-01+
*       3.6512277392E-01               0
GRID*               5706               0-1.207979286E+005.0385076187E-01+
*       6.8362284313E-01               0
GRID*               5707               0-1.257351512E+004.3514714503E-01+
*       6.7167713618E-01               0
GRID*               5708               0-1.337541439E+003.8525421783E-01+
*       6.1700352672E-01               0
GRID*               5709               0-1.337541439E+003.3380305525E-01+
*       5.8979798278E-01               0
GRID*               5710               0-1.342085742E+006.3445085713E-01+
*       4.8618973312E-01               0
GRID*               5711               0-1.868278282E+00-1.193842193E-03+
*       -3.072603841E-02               0
GRID*               5712               0-1.866708063E+003.7340487449E-02+
*       -3.074630907E-02               0
GRID*               5713               0-1.806010340E+007.4467451989E-02+
*       -3.074630907E-02               0
GRID*               5714               0-1.836236398E+003.6146645255E-02+
*       -6.147234748E-02               0
GRID*               5715               0-1.542698221E+003.3068128693E-02+
*       -6.855026183E-02               0
GRID*               5716               0-1.569218691E+001.0358282924E-01+
*       -7.032635775E-02               0
GRID*               5717               06.0733792375E-01-5.648809158E-01+
*       -1.787493431E-01               0
GRID*               5718               05.7023199992E-01-6.249194501E-01+
*       -1.875199469E-01               0
GRID*               5719               06.4662470460E-01-6.300828531E-01+
*       -1.816490306E-01               0
GRID*               5720               06.0939569308E-01-6.301615479E-01+
*       -1.191689775E-01               0
GRID*               5721               06.3896325409E-01-2.450917683E-01+
*       -5.924484699E-02               0
GRID*               5722               06.7714636742E-01-2.612005925E-01+
*       -1.203650009E-01               0
GRID*               5723               06.4323202456E-01-2.557727391E-01+
*       -1.842448470E-01               0
GRID*               5724               06.8002493437E-01-3.070821081E-01+
*       -1.803500102E-01               0
GRID*               5725               07.1520510663E-01-2.559617283E-01+
*       -1.861201539E-01               0
GRID*               5726               07.1936954997E-01-4.898780643E-01+
*       -5.781526454E-02               0
GRID*               5727               07.5364804350E-01-4.214479766E-01+
*       -5.781526454E-02               0
GRID*               5728               0-1.214565582E+00-3.653166390E-01+
*       5.1135526206E-02               0
GRID*               5729               0-1.214565582E+00-4.403166390E-01+
*       5.1135526206E-02               0
GRID*               5730               0-1.339565522E+00-4.403166390E-01+
*       5.1135526206E-02               0
GRID*               5731               0-1.340832857E+00-4.924607916E-01+
*       1.4674279946E-02               0
GRID*               5732               01.3617056848E+00-5.905939973E-01+
*       -1.431298780E-01               0
GRID*               5733               01.5160824557E+00-4.819275400E-01+
*       -1.871171922E-01               0
GRID*               5734               01.2993989354E+00-4.768211686E-01+
*       -1.889169706E-01               0
GRID*               5735               01.2997914883E+00-5.304285192E-01+
*       -1.348160324E-01               0
GRID*               5736               01.3699896365E+00-5.003195905E-01+
*       -1.361477868E-01               0
GRID*               5737               01.4153268903E+00-5.052425343E-01+
*       -7.223081619E-02               0
GRID*               5738               01.3451287421E+00-5.353514630E-01+
*       -7.089906185E-02               0
GRID*               5739               01.3451287421E+00-6.103514630E-01+
*       -7.089906185E-02               0
GRID*               5740               01.2654837632E+004.7738284340E-01+
*       1.1997034292E+00               0
GRID*               5741               01.2958817631E+004.5191567460E-01+
*       1.1829486876E+00               0
GRID*               5742               01.3035951126E+005.2145901664E-01+
*       1.1365341251E+00               0
GRID*               5743               01.1804049077E+005.6996263958E-01+
*       1.1755177923E+00               0
GRID*               5744               01.2423506797E+005.1520648044E-01+
*       1.1325740410E+00               0
GRID*               5745               01.2189202666E+004.2694154862E-01+
*       9.8203247063E-01               0
GRID*               5746               01.2189202666E+005.0218055945E-01+
*       9.8907640184E-01               0
GRID*               5747               0-1.812998890E+001.8416795094E-01+
*       -3.178890574E-02               0
GRID*               5748               0-1.870316025E+001.4851594070E-01+
*       -3.178890574E-02               0
GRID*               5749               0-1.868663828E+001.8581935556E-01+
*       -3.178465708E-02               0
GRID*               5750               0-1.811346693E+002.2147136579E-01+
*       -3.178465708E-02               0
GRID*               5751               0-1.840229905E+001.8433529626E-01+
*       -6.357356282E-02               0
GRID*               5752               0-1.181637909E+005.4274679749E-01+
*       -7.467856693E-02               0
GRID*               5753               0-1.281228445E+005.7043696424E-01+
*       -6.203837945E-02               0
GRID*               5754               0-1.242562205E+005.1305379300E-01+
*       -5.965560951E-02               0
GRID*               5755               0-9.909422977E-016.2605747333E-01+
*       -5.207790163E-02               0
GRID*               5756               0-1.796921989E+007.0461091093E-02+
*       -2.186670431E-01               0
GRID*               5757               0-1.866708063E+001.1234048745E-01+
*       -3.074630907E-02               0
GRID*               5758               0-1.809390928E+001.4799249768E-01+
*       -3.074630907E-02               0
GRID*               5759               0-1.859917278E+001.5932272469E-02+
*       -2.186670431E-01               0
GRID*               5760               0-1.867445449E+001.2093944047E-01+
*       -2.195650395E-01               0
GRID*               5761               0-1.804450159E+001.0046825909E-01+
*       -2.195650395E-01               0
GRID*               5762               0-1.835357824E+001.2924909053E-01+
*       -1.882405969E-01               0
GRID*               5763               01.5288141738E+004.3055652668E-01+
*       -1.870624272E-01               0
GRID*               5764               01.5886857054E+002.4792477306E-01+
*       -1.861095063E-01               0
GRID*               5765               01.5403895321E+002.0407246997E-01+
*       -1.861095063E-01               0
GRID*               5766               01.4848794545E+003.9383921107E-01+
*       -8.679005821E-02               0
GRID*               5767               01.5452304905E+004.0595992125E-01+
*       -6.341556679E-02               0
GRID*               5768               01.1967521804E+00-1.834096077E-01+
*       1.1626413573E+00               0
GRID*               5769               01.3669935794E+00-4.052393264E-01+
*       1.3381809050E+00               0
GRID*               5770               01.3364135271E+00-4.254703085E-01+
*       1.2881446487E+00               0
GRID*               5771               01.3044933099E+00-4.347876988E-01+
*       1.3162676270E+00               0
GRID*               5772               01.3457836053E+00-4.211851515E-01+
*       -1.889169706E-01               0
GRID*               5773               01.2695939807E+00-3.102771741E-01+
*       1.3624396514E+00               0
GRID*               5774               01.3320929017E+00-2.770148617E-01+
*       1.3781715268E+00               0
GRID*               5775               01.3675393272E+00-3.125711369E-01+
*       1.3948833485E+00               0
GRID*               5776               01.3050404062E+00-3.458334493E-01+
*       1.3791514731E+00               0
GRID*               5777               01.3008822813E+00-3.025735123E-01+
*       1.3301454161E+00               0
GRID*               5778               01.2953092729E+006.2058955964E-02+
*       4.6789379820E-01               0
GRID*               5779               01.2536395960E+002.5745458551E-02+
*       4.5960579017E-01               0
GRID*               5780               01.2536388493E+006.2074046866E-02+
*       4.6790005075E-01               0
GRID*               5781               01.3319800033E+00-3.478672762E-02+
*       3.9092985954E-01               0
GRID*               5782               01.3319800033E+00-1.539165312E-02+
*       3.6015317232E-01               0
GRID*               5783               01.3319800033E+00-5.726197884E-02+
*       3.5153190030E-01               0
GRID*               5784               01.2188436092E+004.9328314327E-01+
*       4.9007670633E-01               0
GRID*               5785               01.3265658566E+00-1.563096219E-01+
*       2.9112164775E-01               0
GRID*               5786               0-1.348818705E+00-3.585701974E-01+
*       6.7775469550E-01               0
GRID*               5787               0-1.287793576E+00-3.801332006E-01+
*       6.1784624277E-01               0
GRID*               5788               0-1.373381974E-043.1210130025E-01+
*       -1.874807684E-01               0
GRID*               5789               0-3.808865259E-022.4962433347E-01+
*       -1.874807684E-01               0
GRID*               5790               0-1.348818705E+00-3.531971151E-01+
*       6.2466827696E-01               0
GRID*               5791               0-1.212724830E+00-4.163879213E-01+
*       5.3515399585E-01               0
GRID*               5792               0-1.201359748E+00-4.069880834E-01+
*       4.6106436913E-01               0
GRID*               5793               01.1701478611E+00-2.570251618E-01+
*       6.8204495265E-01               0
GRID*               5794               01.2118155113E+00-2.460445211E-01+
*       6.4644386375E-01               0
GRID*               5795               01.2118128141E+00-2.570241599E-01+
*       6.8203754087E-01               0
GRID*               5796               0-1.261099987E+00-2.480997794E-01+
*       9.2586717235E-01               0
GRID*               5797               01.2417569026E+00-6.275075548E-01+
*       5.4562646791E-01               0
GRID*               5798               01.2042492904E+00-5.633276823E-01+
*       9.1296681395E-01               0
GRID*               5799               01.1809864646E+00-6.931306720E-01+
*       9.2672494486E-01               0
GRID*               5800               01.1789536148E+00-6.996672097E-01+
*       8.9222732698E-01               0
GRID*               5801               01.1789536148E+00-6.249849803E-01+
*       9.1314911216E-01               0
GRID*               5802               01.2111901318E+00-6.572096400E-01+
*       9.2263468778E-01               0
GRID*               5803               01.2231313722E+00-1.459870646E-01+
*       -1.907017397E-01               0
GRID*               5804               01.2254792689E+00-7.841796001E-02+
*       -1.907017397E-01               0
GRID*               5805               01.1266047098E+00-1.727607238E-01+
*       -1.948423664E-01               0
GRID*               5806               01.1988427692E+00-8.857573063E-02+
*       -1.355441061E-01               0
GRID*               5807               01.1289526064E+00-1.051916192E-01+
*       -1.948423664E-01               0
GRID*               5808               01.1976287338E+00-2.577282339E-01+
*       -1.832938204E-01               0
GRID*               5809               01.2698667932E+00-1.735432407E-01+
*       -1.239955600E-01               0
GRID*               5810               01.1733401308E+00-2.003168999E-01+
*       -1.281361868E-01               0
GRID*               5811               02.6634477662E-01-6.565902376E-01+
*       -1.562592519E-01               0
GRID*               5812               09.8512777158E-01-8.732662923E-02+
*       -2.032203717E-01               0
GRID*               5813               01.2220597492E+00-3.090103572E-02+
*       -6.570173966E-02               0
GRID*               5814               01.1255330868E+00-5.767469491E-02+
*       -6.984236644E-02               0
GRID*               5815               01.1949178898E+002.9512634499E-02+
*       -7.741141755E-02               0
GRID*               5816               01.2682275723E+00-1.388401225E-03+
*       -1.431131572E-01               0
GRID*               5817               01.1717009098E+00-2.816206041E-02+
*       -1.472537840E-01               0
GRID*               5818               01.1805009695E+002.8088094204E-02+
*       1.4695826539E+00               0
GRID*               5819               01.1805009695E+004.9175570164E-02+
*       1.4099051542E+00               0
GRID*               5820               01.1805009695E+001.0124693536E-01+
*       1.4623774302E+00               0
GRID*               5821               01.0334506836E+00-5.923047863E-02+
*       -1.948423664E-01               0
GRID*               5822               01.0995717662E+00-5.782056873E-02+
*       -1.948423664E-01               0
GRID*               5823               01.0371544521E+00-5.115451650E-03+
*       -1.471663889E-01               0
GRID*               5824               01.0344101116E+005.2413369440E-02+
*       -2.023240225E-01               0
GRID*               5825               01.0729973959E+00-1.699259061E-02+
*       -6.984236644E-02               0
GRID*               5826               01.1272371864E+005.0190199169E-02+
*       -6.652359993E-02               0
GRID*               5827               01.1040202064E+00-7.484495740E-03+
*       -1.363659664E-01               0
GRID*               5828               01.3483582649E+00-4.374668184E-01+
*       8.9946867775E-01               0
GRID*               5829               01.2905570898E+00-3.804660317E-01+
*       8.8029079865E-01               0
GRID*               5830               01.2042492999E+00-5.762801984E-01+
*       8.4907260121E-01               0
GRID*               5831               01.1689565693E+002.9366760680E-02+
*       -2.024114176E-01               0
GRID*               5832               01.1012758659E+005.0044325350E-02+
*       -1.915235999E-01               0
GRID*               5833               01.1734050095E+007.9702833668E-02+
*       -1.439350175E-01               0
GRID*               5834               01.3483582649E+00-4.444111314E-01+
*       9.6532290369E-01               0
GRID*               5835               01.3292492904E+00-5.046144028E-01+
*       9.3401378193E-01               0
GRID*               5836               01.1618635774E+00-6.181340171E-02+
*       -1.948423664E-01               0
GRID*               5837               01.3208593831E+005.6286587872E-01+
*       6.5922422724E-01               0
GRID*               5838               01.2554892230E+005.7284311128E-01+
*       6.9165816663E-01               0
GRID*               5839               01.3333797875E+006.4182336913E-01+
*       6.9694667311E-01               0
GRID*               5840               01.3281781616E+006.3809315584E-01+
*       6.2937827413E-01               0
GRID*               5841               01.2502875971E+005.6911289800E-01+
*       6.2408976765E-01               0
GRID*               5842               01.2628080016E+006.4807038841E-01+
*       6.6181221352E-01               0
GRID*               5843               01.1922157880E+00-2.609567238E-01+
*       6.2880732357E-01               0
GRID*               5844               01.2359989122E+00-3.010843449E-01+
*       6.5333357469E-01               0
GRID*               5845               01.2586467458E+00-2.485500890E-01+
*       5.4804633067E-01               0
GRID*               5846               01.2124854725E+00-2.191675678E-01+
*       5.9311407822E-01               0
GRID*               5847               01.2656587749E+006.9717008756E-01+
*       5.5844170667E-01               0
GRID*               5848               01.2031782212E+006.9717008756E-01+
*       5.9712190727E-01               0
GRID*               5849               01.1797367947E+007.1859411397E-01+
*       5.6150732990E-01               0
GRID*               5850               01.2341649492E+006.6576420153E-01+
*       5.5862923717E-01               0
GRID*               5851               01.3374542127E+00-4.701539015E-01+
*       5.7142434079E-01               0
GRID*               5852               01.3374542127E+00-4.155374010E-01+
*       5.3409638368E-01               0
GRID*               5853               03.0346657732E-01-3.109527375E-01+
*       -1.874528990E-01               0
GRID*               5854               02.6549401509E-01-2.484768768E-01+
*       -1.874528990E-01               0
GRID*               5855               02.2788269725E-01-3.119863531E-01+
*       -1.875383467E-01               0
GRID*               5856               02.6585525948E-01-3.744622139E-01+
*       -1.875383467E-01               0
GRID*               5857               01.3438435860E+005.7092341289E-01+
*       5.2202873270E-01               0
GRID*               5858               01.3281781616E+006.4124792597E-01+
*       5.5777694044E-01               0
GRID*               5859               01.2635196417E+006.4090855765E-01+
*       5.2226162911E-01               0
GRID*               5860               01.2732718000E+005.7401566204E-01+
*       5.5849560680E-01               0
GRID*               5861               01.3438435860E+005.1460024556E-01+
*       5.5363098135E-01               0
GRID*               5862               01.3281781616E+005.8492475863E-01+
*       5.8937918910E-01               0
GRID*               5863               01.2099465194E+00-5.499240797E-01+
*       3.2204040721E-01               0
GRID*               5864               01.2704637846E+00-5.320371586E-01+
*       3.8138223024E-01               0
GRID*               5865               01.3281781616E+006.9717008756E-01+
*       5.9712190727E-01               0
GRID*               5866               01.3673195889E+007.2212621384E-01+
*       5.6102457035E-01               0
GRID*               5867               01.2967478029E+006.6929630141E-01+
*       5.5814647763E-01               0
GRID*               5868               01.3048002022E+007.2212621384E-01+
*       5.2234436975E-01               0
GRID*               5869               01.1703548688E+00-2.652195099E-01+
*       7.5804634439E-01               0
GRID*               5870               01.1703548688E+00-2.652195101E-01+
*       7.2078616716E-01               0
GRID*               5871               01.2120198217E+00-2.652185083E-01+
*       7.2077875538E-01               0
GRID*               5872               01.3206742139E+00-3.180797387E-01+
*       7.8720595730E-01               0
GRID*               5873               01.2979363752E+00-2.912651112E-01+
*       6.8403723008E-01               0
GRID*               5874               01.2562659515E+00-2.912629789E-01+
*       6.8402103493E-01               0
GRID*               5875               01.2146010010E+00-3.219243653E-01+
*       6.5724214802E-01               0
GRID*               5876               08.6900361954E-01-6.087567980E-01+
*       -6.276541606E-02               0
GRID*               5877               09.0721568246E-01-5.418343267E-01+
*       -6.315048828E-02               0
GRID*               5878               06.8444955138E-01-5.676151924E-01+
*       -1.816490306E-01               0
GRID*               5879               07.2258467306E-01-6.301435654E-01+
*       -1.816490306E-01               0
GRID*               5880               01.1701964866E+00-2.626381285E-01+
*       6.9922321698E-01               0
GRID*               5881               01.2118614396E+00-2.626371267E-01+
*       6.9921580520E-01               0
GRID*               5882               01.1918014079E+00-2.806528410E-01+
*       7.0726955948E-01               0
GRID*               5883               0-1.203652683E+00-1.058591284E-01+
*       1.8237875646E-02               0
GRID*               5884               0-1.203652663E+00-1.368951530E-01+
*       8.4766682650E-02               0
GRID*               5885               0-1.355875492E+005.6505032385E-01+
*       -2.020613369E-01               0
GRID*               5886               0-1.612501942E+006.5701492943E-01+
*       -9.226071383E-02               0
GRID*               5887               0-1.614681945E+006.8755366852E-01+
*       -1.017720236E-01               0
GRID*               5888               0-1.650929951E+006.5553873910E-01+
*       -9.284464306E-02               0
GRID*               5889               0-1.626711524E+006.5633854068E-01+
*       -6.349706006E-02               0
GRID*               5890               0-1.590463519E+006.8835347011E-01+
*       -7.242444056E-02               0
GRID*               5891               0-1.628891527E+006.8687727978E-01+
*       -7.300836979E-02               0
GRID*               5892               0-1.469799106E+006.4527497787E-01+
*       -6.514800867E-02               0
GRID*               5893               0-1.421608371E+006.2316544291E-01+
*       -6.514800867E-02               0
GRID*               5894               0-1.479343715E+006.0730642843E-01+
*       -2.231917429E-02               0
GRID*               5895               0-1.454011404E+006.0836233637E-01+
*       -8.746718296E-02               0
GRID*               5896               0-1.215316090E+00-2.183021515E-01+
*       4.0215949603E-02               0
GRID*               5897               0-1.172094504E+00-1.679637276E-01+
*       -6.304298252E-02               0
GRID*               5898               0-1.340316030E+00-3.233520629E-01+
*       1.0163863467E-01               0
GRID*               5899               01.4567331210E+005.1461061497E-01+
*       -1.450279008E-01               0
GRID*               5900               01.5062475354E+005.3049636868E-01+
*       -1.862969300E-01               0
GRID*               5901               01.4330972905E+005.0643246975E-01+
*       -1.646581298E-01               0
GRID*               5902               01.4628504220E+005.8392890084E-01+
*       -1.795201790E-01               0
GRID*               5903               01.2509486655E+007.1555543562E-01+
*       -2.183116528E-01               0
GRID*               5904               01.2547484332E+006.5462849364E-01+
*       -1.617339712E-01               0
GRID*               5905               01.1647178659E+006.0239329526E-01+
*       -6.354240017E-02               0
GRID*               5906               01.2076834329E+005.1949195859E-01+
*       -1.304500233E-01               0
GRID*               5907               01.1356208848E+005.7909090204E-01+
*       -1.273995627E-01               0
GRID*               5908               01.1965571108E+00-2.926422050E-01+
*       -5.829382038E-02               0
GRID*               5909               01.1965571108E+00-3.676422050E-01+
*       -5.829382038E-02               0
GRID*               5910               01.1289893794E+00-3.181232130E-01+
*       -6.236327088E-02               0
GRID*               5911               01.1767964234E+00-3.107654180E-01+
*       -1.206570913E-01               0
GRID*               5912               01.1289893794E+00-3.931232130E-01+
*       -6.236327088E-02               0
GRID*               5913               0-1.613559163E+00-3.693759368E-01+
*       -6.444661687E-02               0
GRID*               5914               01.3558336467E+006.7516989847E-01+
*       -4.338750313E-02               0
GRID*               5915               05.7368789849E-017.1882365780E-01+
*       -3.118496773E-02               0
GRID*               5916               05.7180064688E-016.5698692390E-01+
*       -9.342778685E-02               0
GRID*               5917               01.1797487167E+006.4055543562E-01+
*       -9.331165277E-02               0
GRID*               5918               01.2237497832E+006.1407305802E-01+
*       -6.842231839E-02               0
GRID*               5919               01.1957165159E+006.4294873088E-01+
*       -1.568540529E-01               0
GRID*               5920               01.2397175824E+006.1646635328E-01+
*       -1.319647186E-01               0
GRID*               5921               09.4926051923E-014.0082040264E-01+
*       -5.124193269E-02               0
GRID*               5922               09.0453345865E-013.4201587544E-01+
*       -5.124193269E-02               0
GRID*               5923               0-1.215673816E+002.3188769319E-01+
*       4.3597502398E-02               0
GRID*               5924               0-1.257308962E+003.5985385006E-01+
*       -2.721526347E-02               0
GRID*               5925               0-1.115962059E+001.7458821649E-01+
*       -1.921292033E-01               0
GRID*               5926               0-1.163924607E+002.0206473992E-01+
*       -1.287697524E-01               0
GRID*               5927               0-1.198271974E+002.5897207947E-01+
*       -1.866405491E-01               0
GRID*               5928               01.2312483804E+002.5373927701E-02+
*       -2.024114176E-01               0
GRID*               5929               01.1255330868E+00-2.076746949E-01+
*       -6.984236644E-02               0
GRID*               5930               01.1255330868E+00-1.326746949E-01+
*       -6.984236644E-02               0
GRID*               5931               01.1965571108E+00-2.176422050E-01+
*       -5.829382038E-02               0
GRID*               5932               08.2622710312E-011.6477620420E-01+
*       -6.833198962E-02               0
GRID*               5933               08.0169888062E-012.5573154914E-01+
*       -7.346633876E-02               0
GRID*               5934               08.6332583065E-012.7818785711E-01+
*       -5.124193269E-02               0
GRID*               5935               08.5715616342E-012.0817960580E-01+
*       -1.195739223E-01               0
GRID*               5936               0-1.209674355E+005.2590928652E-01+
*       5.9981965997E-02               0
GRID*               5937               08.5809873790E-012.8222615693E-01+
*       -1.762419327E-01               0
GRID*               5938               01.5476284309E+002.3736926320E-01+
*       -1.285847234E-01               0
GRID*               5939               01.4667532911E+001.7679376672E-01+
*       -1.282822203E-01               0
GRID*               5940               01.4422588576E+003.4363822139E-01+
*       -1.900406212E-01               0
GRID*               5941               01.3861561312E+003.4970160754E-01+
*       -1.900406212E-01               0
GRID*               5942               01.3960459613E+003.2909785241E-01+
*       -1.361377760E-01               0
GRID*               5943               0-1.439767312E+002.3897471206E-01+
*       -1.914925422E-01               0
GRID*               5944               0-1.694264277E+002.6832872085E-01+
*       -1.336259502E-01               0
GRID*               5945               0-1.646824523E+002.0644650170E-01+
*       -6.696706889E-02               0
GRID*               5946               01.3336422980E+001.8715715149E-01+
*       1.8155931872E-02               0
GRID*               5947               01.3030349304E+002.5393168869E-01+
*       -5.294122287E-02               0
GRID*               5948               01.3777623705E+001.5381260413E-01+
*       -6.717271400E-02               0
GRID*               5949               01.3126547210E+001.9096975563E-01+
*       -4.901678213E-02               0
GRID*               5950               01.3471550029E+002.2058714133E-01+
*       -1.382698687E-01               0
GRID*               5951               0-1.360331745E+001.0404589577E-01+
*       -6.921311252E-02               0
GRID*               5952               0-1.424707201E+006.6387181264E-02+
*       -6.921311252E-02               0
GRID*               5953               0-1.411497833E+001.7239176953E-01+
*       -6.649254222E-02               0
GRID*               5954               0-1.475873288E+001.3473305502E-01+
*       -6.649254222E-02               0
GRID*               5955               0-1.454653631E+001.1913168579E-01+
*       -1.914925422E-01               0
GRID*               5956               0-1.281291483E+001.8695471372E-01+
*       -1.007755161E-02               0
GRID*               5957               01.2004700744E+001.5448050948E-01+
*       4.5669908389E-01               0
GRID*               5958               01.2004700796E+002.0077107954E-01+
*       4.3122064033E-01               0
GRID*               5959               01.2113471517E+001.9818706643E-01+
*       4.8673926156E-01               0
GRID*               5960               01.1804781619E+00-7.142728460E-01+
*       3.3583960502E-01               0
GRID*               5961               01.1804781619E+00-7.142728460E-01+
*       4.1083960502E-01               0
GRID*               5962               01.3351534128E+003.8577005980E-01+
*       6.1004872405E-01               0
GRID*               5963               01.2572628484E+004.2525889526E-01+
*       6.1433773183E-01               0
GRID*               5964               01.3208593831E+004.5439678542E-01+
*       6.4964671297E-01               0
GRID*               5965               01.3438435860E+004.5929954946E-01+
*       5.8405255212E-01               0
GRID*               5966               01.2659530215E+004.9878838492E-01+
*       5.8834155991E-01               0
GRID*               5967               01.3351534128E+003.9040316070E-01+
*       5.4359728185E-01               0
GRID*               5968               01.2079852279E+00-3.530859572E-01+
*       1.9104566414E-01               0
GRID*               5969               01.2671569161E+00-3.737740987E-01+
*       1.6201971220E-01               0
GRID*               5970               01.2079217229E+00-3.807879641E-01+
*       9.3819418192E-02               0
GRID*               5971               01.2056975768E+00-3.209089591E-01+
*       1.0191304758E-01               0
GRID*               5972               01.2648692650E+00-3.415971005E-01+
*       7.2887095649E-02               0
GRID*               5973               01.3329216794E+00-3.507380528E-01+
*       3.2396733129E-02               0
GRID*               5974               01.3329216794E+00-3.785318482E-01+
*       1.0233973340E-01               0
GRID*               5975               01.3306975332E+00-2.908590477E-01+
*       4.0490362519E-02               0
GRID*               5976               01.2056975928E+00-2.158590477E-01+
*       4.0490362519E-02               0
GRID*               5977               01.2170315639E+00-1.311881038E-01+
*       3.4352291458E-02               0
GRID*               5978               01.2079217390E+00-3.507380528E-01+
*       3.2396733129E-02               0
GRID*               5979               01.2056975928E+00-2.908590477E-01+
*       4.0490362519E-02               0
GRID*               5980               01.2557287830E+00-3.433802577E-01+
*       -2.589708725E-02               0
GRID*               5981               01.3336422980E+001.5301096705E-01+
*       8.1625815353E-02               0
GRID*               5982               01.3353690389E+009.1749511275E-02+
*       3.0202083687E-02               0
GRID*               5983               01.3353690389E+005.7603326836E-02+
*       9.3671967167E-02               0
GRID*               5984               01.2702613893E+001.2890666277E-01+
*       4.8358015559E-02               0
GRID*               5985               01.2086423576E+002.6215715149E-01+
*       1.8155931872E-02               0
GRID*               5986               01.2650144098E+003.2564715974E-01+
*       5.2050928885E-02               0
GRID*               5987               0-1.290206601E+001.5600636917E-01+
*       1.0071695002E+00               0
GRID*               5988               01.2989302532E+001.0832523863E-01+
*       -1.445841316E-01               0
GRID*               5989               01.2810725087E+001.7023855659E-01+
*       -1.494456801E-01               0
GRID*               5990               0-1.533527000E+00-4.212556758E-01+
*       -2.165256997E-02               0
GRID*               5991               0-1.533527602E+00-4.212542427E-01+
*       -6.331903514E-02               0
GRID*               5992               01.1187684470E+003.1152876528E-01+
*       -6.013984656E-02               0
GRID*               5993               01.2431426395E+002.9177453720E-01+
*       -7.109715474E-02               0
GRID*               5994               01.1770601453E+002.4142595246E-01+
*       -8.227296615E-02               0
GRID*               5995               01.2879846185E+002.5068101148E-01+
*       -1.960971547E-01               0
GRID*               5996               01.2219021243E+002.0033242674E-01+
*       -2.072729661E-01               0
GRID*               5997               0-6.860938229E-018.9819538250E-02+
*       -1.871865334E-01               0
GRID*               5998               0-7.225595547E-01-1.699900377E-02+
*       -1.319153285E-01               0
GRID*               5999               0-7.152478729E-012.3805006707E-02+
*       -6.218653339E-02               0
GRID*               6000               0-6.037943087E-016.0129918923E-02+
*       -6.181354367E-02               0
GRID*               6001               0-5.820410745E-016.6756011760E-02+
*       -1.332290517E-01               0
GRID*               6002               0-5.761866642E-011.1976610130E-01+
*       -7.141550805E-02               0
GRID*               6003               0-7.294348580E-01-4.645711415E-02+
*       -6.972879508E-02               0
GRID*               6004               0-6.709822174E-01-4.711727452E-02+
*       -6.972879508E-02               0
GRID*               6005               0-7.224062627E-012.8072533612E-02+
*       -1.871865334E-01               0
GRID*               6006               0-6.781406071E-01-4.284974762E-02+
*       -1.947287951E-01               0
GRID*               6007               0-1.546090648E+004.1143300270E-01+
*       -2.285817681E-01               0
GRID*               6008               0-1.546090733E+004.1143294667E-01+
*       -1.869151078E-01               0
GRID*               6009               0-6.366596273E-014.0328266475E-04+
*       -6.181354367E-02               0
GRID*               6010               0-6.439713090E-01-4.040072781E-02+
*       -1.315423387E-01               0
GRID*               6011               01.5281158476E+00-5.740479627E-01+
*       -2.289138047E-01               0
GRID*               6012               0-6.075055773E-016.6417814207E-02+
*       -1.868135437E-01               0
GRID*               6013               0-5.420853390E-016.3563253936E-02+
*       -1.964155081E-01               0
GRID*               6014               0-5.798979328E-011.2605399659E-01+
*       -1.964155081E-01               0
GRID*               6015               01.2794476640E+006.6493785644E-01+
*       1.8066354758E-01               0
GRID*               6016               01.2778317177E+005.8744997635E-01+
*       2.1700579693E-01               0
GRID*               6017               01.2420976048E+007.1922631704E-01+
*       2.2524903497E-01               0
GRID*               6018               01.2476826181E+006.3416417347E-01+
*       1.7997915482E-01               0
GRID*               6019               01.2404816585E+006.4173843695E-01+
*       2.6159128432E-01               0
GRID*               6020               01.3346903528E+005.4525851150E-01+
*       2.6011809959E-01               0
GRID*               6021               01.3346903528E+006.1505804019E-01+
*       2.7513132396E-01               0
GRID*               6022               01.3418913124E+006.0748377672E-01+
*       1.9351919446E-01               0
GRID*               6023               01.2168913720E+005.8993785644E-01+
*       6.7696833714E-02               0
GRID*               6024               01.2150505878E+005.6535119732E-01+
*       -3.870869646E-05               0
GRID*               6025               0-1.170989875E+002.6375030008E-01+
*       7.8035566508E-01               0
GRID*               6026               0-1.170989815E+002.5819656076E-01+
*       8.1719992445E-01               0
GRID*               6027               01.2096904017E+006.1323438777E-01+
*       2.6263725311E-01               0
GRID*               6028               01.2096903996E+005.5350908189E-01+
*       2.1707927195E-01               0
GRID*               6029               01.2168913613E+006.0566012430E-01+
*       1.8102512361E-01               0
GRID*               6030               08.1081499554E-014.8882403724E-01+
*       -1.925328997E-01               0
GRID*               6031               08.2619863212E-015.5124953633E-01+
*       -1.281732625E-01               0
GRID*               6032               08.4274587353E-015.5693394286E-01+
*       -1.856403628E-01               0
GRID*               6033               0-1.332267892E+002.7537340801E-01+
*       3.2700585985E-01               0
GRID*               6034               0-1.335766383E+001.9219420852E-01+
*       2.9623314330E-01               0
GRID*               6035               08.8631621654E-016.5041196827E-01+
*       -1.548941612E-01               0
GRID*               6036               08.5027311286E-016.8467972098E-01+
*       -6.064036279E-02               0
GRID*               6037               08.0388212097E-017.1821696239E-01+
*       -3.115424200E-02               0
GRID*               6038               0-1.210766392E+001.6647539661E-01+
*       3.4091674849E-01               0
GRID*               6039               0-1.217720534E+001.4760675931E-01+
*       1.5944974429E-01               0
GRID*               6040               0-1.209346213E+009.6562108702E-02+
*       2.2249319145E-01               0
GRID*               6041               0-1.278316740E+001.2356308387E-01+
*       1.9268349620E-01               0
GRID*               6042               0-1.602248016E+00-3.225967311E-01+
*       -9.546578926E-02               0
GRID*               6043               0-1.241319787E+00-2.713490407E-01+
*       9.3294427459E-01               0
GRID*               6044               0-1.170040222E+00-2.379839784E-01+
*       8.8028993629E-01               0
GRID*               6045               0-1.170788577E+00-2.487881728E-01+
*       8.5652104386E-01               0
GRID*               6046               07.8088147185E-015.5294833059E-01+
*       -6.753289972E-02               0
GRID*               6047               01.3208593831E+005.0343104012E-01+
*       6.8844527013E-01               0
GRID*               6048               01.2685705247E+004.3130607907E-01+
*       6.7230148210E-01               0
GRID*               6049               01.3464610892E+004.4085149830E-01+
*       7.0681103147E-01               0
GRID*               6050               01.3231631736E+004.9847670445E-01+
*       7.3901399145E-01               0
GRID*               6051               01.2452726091E+004.8893128521E-01+
*       7.0450444207E-01               0
GRID*               6052               01.2708743152E+004.2635174340E-01+
*       7.2287020341E-01               0
GRID*               6053               0-1.377711500E+00-2.061676171E-01+
*       9.2083297736E-01               0
GRID*               6054               0-1.377711500E+00-2.271565909E-01+
*       8.9004667873E-01               0
GRID*               6055               0-1.323393941E+00-2.710025973E-01+
*       9.2666057185E-01               0
GRID*               6056               0-1.730695545E+00-3.362384205E-01+
*       -1.356213921E-01               0
GRID*               6057               0-1.700766354E+00-3.640556469E-01+
*       -1.865591836E-01               0
GRID*               6058               0-1.343199057E+003.5908962506E-01+
*       7.6204637313E-01               0
GRID*               6059               0-1.343199057E+004.0687898752E-01+
*       7.8901610836E-01               0
GRID*               6060               0-1.343199057E+003.5945196181E-01+
*       8.0946104747E-01               0
GRID*               6061               01.2879303199E+00-3.273268474E-01+
*       1.1116265031E+00               0
GRID*               6062               01.2195402116E+00-3.614439722E-01+
*       1.1249756563E+00               0
GRID*               6063               01.3103214495E+00-5.134191401E-01+
*       1.1044883354E+00               0
GRID*               6064               01.2167410579E+00-5.025609772E-01+
*       1.1012004935E+00               0
GRID*               6065               01.2167410579E+00-4.623731400E-01+
*       1.0638369072E+00               0
GRID*               6066               01.2195402116E+00-4.230175688E-01+
*       1.1124594408E+00               0
GRID*               6067               01.2320096491E+00-3.791890387E-01+
*       1.0561458065E+00               0
GRID*               6068               0-1.254207694E+002.9797343722E-01+
*       6.2593760229E-01               0
GRID*               6069               0-1.327994998E+001.6120019915E-01+
*       4.5400538467E-01               0
GRID*               6070               0-1.334407820E+002.1763358391E-01+
*       4.8424461279E-01               0
GRID*               6071               01.7740167767E+002.6080787294E-01+
*       -8.712475789E-02               0
GRID*               6072               01.8325277010E+001.5097519460E-01+
*       -1.852354823E-01               0
GRID*               6073               01.7770737255E+001.8936393233E-01+
*       -1.852354823E-01               0
GRID*               6074               01.8697193790E+001.8864853216E-01+
*       -2.193924441E-01               0
GRID*               6075               01.8142654035E+002.2703726989E-01+
*       -2.193924441E-01               0
GRID*               6076               01.8034971325E+001.8962372675E-01+
*       -1.546279263E-01               0
GRID*               6077               0-5.706240164E-01-3.816912137E-01+
*       -6.059151562E-02               0
GRID*               6078               0-1.169104976E+002.6834744669E-01+
*       7.3853892728E-01               0
GRID*               6079               0-1.170707250E+002.6763092448E-01+
*       7.6085107820E-01               0
GRID*               6080               0-6.414056809E-01-2.554370385E-01+
*       -1.727410022E-01               0
GRID*               6081               0-6.650806964E-01-3.755456833E-01+
*       -1.872050124E-01               0
GRID*               6082               0-1.271636412E+00-3.940316446E-01+
*       9.2450854051E-01               0
GRID*               6083               0-1.305381947E+00-6.205086084E-01+
*       1.1170271140E+00               0
GRID*               6084               0-1.312917266E+00-5.106199722E-01+
*       1.1336610426E+00               0
GRID*               6085               0-1.281282398E+00-5.515472595E-01+
*       1.1201889042E+00               0
GRID*               6086               0-1.304839631E+00-6.313087940E-01+
*       1.0910865326E+00               0
GRID*               6087               0-1.336474499E+00-5.903815067E-01+
*       1.1045586710E+00               0
GRID*               6088               0-1.312374949E+00-5.214201578E-01+
*       1.1077204612E+00               0
GRID*               6089               0-1.367883381E+00-6.015917345E-01+
*       1.1485884491E+00               0
GRID*               6090               0-1.305384774E+00-5.796719312E-01+
*       1.1781434213E+00               0
GRID*               6091               0-1.343783832E+00-4.859941676E-01+
*       1.2085762649E+00               0
GRID*               6092               0-1.281285225E+00-5.107105823E-01+
*       1.1813052114E+00               0
GRID*               6093               0-1.368225049E+00-5.356806466E-01+
*       1.2343313874E+00               0
GRID*               6094               0-1.313258934E+00-4.913451023E-01+
*       1.1625779552E+00               0
GRID*               6095               0-1.305726442E+00-5.603970613E-01+
*       1.2070603339E+00               0
GRID*               6096               0-1.368211699E+00-4.808561581E-01+
*       1.2683015357E+00               0
GRID*               6097               0-1.305711970E+00-4.535893704E-01+
*       1.2930150149E+00               0
GRID*               6098               0-1.313245583E+00-4.365206138E-01+
*       1.1965481035E+00               0
GRID*               6099               0-1.028256722E+00-1.946890934E-01+
*       -1.266934550E-01               0
GRID*               6100               0-6.077201475E-01-3.200279646E-01+
*       -4.774100225E-02               0
GRID*               6101               0-4.546168601E-013.1670058877E-01+
*       -6.042428194E-02               0
GRID*               6102               0-4.172751240E-013.6675719548E-01+
*       -5.928370981E-02               0
GRID*               6103               0-1.180727994E+00-7.153388809E-01+
*       1.2127411543E-01               0
GRID*               6104               0-1.180182483E+00-7.152020219E-01+
*       1.5586361093E-01               0
GRID*               6105               0-1.180182477E+00-6.465416698E-01+
*       1.2992619193E-01               0
GRID*               6106               0-1.212160410E+00-6.805409027E-01+
*       1.2713772636E-01               0
GRID*               6107               0-4.926146992E-013.7420966076E-01+
*       -1.780562806E-01               0
GRID*               6108               0-4.548368049E-013.2003100796E-01+
*       -1.854242819E-01               0
GRID*               6109               0-4.545979175E-013.6958471717E-01+
*       -1.123399904E-01               0
GRID*               6110               0-1.346910236E+00-6.137911258E-01+
*       1.9899606181E-01               0
GRID*               6111               0-1.253342711E+00-6.257428151E-01+
*       1.6135089645E-01               0
GRID*               6112               0-2.283462396E-014.3620198166E-01+
*       -6.246286503E-02               0
GRID*               6113               0-2.662783829E-013.7317206871E-01+
*       -6.246286503E-02               0
GRID*               6114               0-3.044809771E-014.3874109400E-01+
*       -5.939431365E-02               0
GRID*               6115               0-2.278860527E-014.3700280087E-01+
*       -1.874628650E-01               0
GRID*               6116               0-2.282020785E-011.8565385564E-01+
*       -6.243393317E-02               0
GRID*               6117               0-2.658434123E-011.2260861753E-01+
*       -6.243393317E-02               0
GRID*               6118               0-2.662255998E-012.5141119961E-01+
*       -5.932752346E-02               0
GRID*               6119               0-3.038669336E-011.8836596151E-01+
*       -5.932752346E-02               0
GRID*               6120               0-2.278519295E-011.8657448288E-01+
*       -1.874339332E-01               0
GRID*               6121               0-1.483543211E+00-1.563889719E-01+
*       -6.744632710E-02               0
GRID*               6122               0-1.451609357E+00-8.713119459E-02+
*       -7.400411496E-02               0
GRID*               6123               0-1.558381960E+00-4.102328165E-02+
*       -1.935502618E-01               0
GRID*               6124               0-1.596098793E+002.3040075004E-02+
*       -1.935502618E-01               0
GRID*               6125               0-1.902352919E-012.4861913870E-01+
*       -6.248470325E-02               0
GRID*               6126               0-1.899522929E-011.8632761744E-01+
*       -1.249186364E-01               0
GRID*               6127               0-2.279758142E-012.5208496141E-01+
*       -1.218122267E-01               0
GRID*               6128               0-1.488320131E+00-4.345850628E-01+
*       -2.076962065E-02               0
GRID*               6129               0-1.455543872E+00-4.317313239E-01+
*       -2.076962065E-02               0
GRID*               6130               0-1.431795652E+00-4.535669248E-01+
*       -2.284280186E-02               0
GRID*               6131               0-1.464571911E+00-4.564206637E-01+
*       -2.284280186E-02               0
GRID*               6132               0-1.488589577E+00-4.352982487E-01+
*       -4.361242251E-02               0
GRID*               6133               0-1.563602405E+00-1.181390967E-01+
*       -1.924463271E-01               0
GRID*               6134               0-1.142336156E-011.2434788834E-01+
*       -6.246931545E-02               0
GRID*               6135               0-1.519454275E-011.2409127691E-01+
*       -1.249032486E-01               0
GRID*               6136               0-1.902072675E-011.2361894580E-01+
*       -6.243393317E-02               0
GRID*               6137               0-1.522404810E-011.8658422887E-01+
*       -6.248470325E-02               0
GRID*               6138               0-1.139786409E-011.8705655997E-01+
*       -1.249540187E-01               0
GRID*               6139               0-1.495024153E+005.7280840183E-01+
*       -2.081917134E-02               0
GRID*               6140               0-1.898992258E-011.2412613153E-01+
*       -1.874339332E-01               0
GRID*               6141               0-2.278310928E-016.1690348936E-02+
*       -1.874339332E-01               0
GRID*               6142               0-1.519961802E-016.2395197650E-02+
*       -1.875000983E-01               0
GRID*               6143               0-1.900160338E-016.1631400491E-02+
*       -1.249340315E-01               0
GRID*               6144               0-3.035258417E-016.1551533783E-02+
*       -1.874420539E-01               0
GRID*               6145               0-2.655682918E-01-8.793389484E-04+
*       -1.874420539E-01               0
GRID*               6146               0-1.699725802E+00-6.253126741E-01+
*       -1.864137343E-01               0
GRID*               6147               01.2046706183E+00-3.529744316E-01+
*       1.1884120276E+00               0
GRID*               6148               01.2046706183E+00-3.294039910E-01+
*       1.2475832950E+00               0
GRID*               6149               01.1796167403E+00-3.864263894E-01+
*       1.2818197863E+00               0
GRID*               6150               01.2355374111E+00-3.738921858E-01+
*       1.2228058647E+00               0
GRID*               6151               01.2969827461E+003.4741807128E-01+
*       1.2626354344E+00               0
GRID*               6152               01.2654812914E+003.6427222683E-01+
*       1.2925313668E+00               0
GRID*               6153               01.2962728514E+003.7570528763E-01+
*       1.2450122406E+00               0
GRID*               6154               0-2.281315828E-016.0875965643E-02+
*       -6.243393317E-02               0
GRID*               6155               0-1.523042220E-016.1888011921E-02+
*       -6.250009833E-02               0
GRID*               6156               0-4.555275463E-015.6115511426E-01+
*       -1.879641994E-01               0
GRID*               6157               0-4.943524949E-016.2595521116E-01+
*       -1.819327423E-01               0
GRID*               6158               01.3673706763E+006.2848852327E-01+
*       1.1017704205E+00               0
GRID*               6159               01.3043164484E+005.7373236413E-01+
*       1.0588266692E+00               0
GRID*               6160               01.3048692422E+006.4740539718E-01+
*       1.0702090854E+00               0
GRID*               6161               01.3351534128E+003.3848179863E-01+
*       5.0595133605E-01               0
GRID*               6162               01.3351534128E+003.3167824471E-01+
*       5.7983121859E-01               0
GRID*               6163               01.3774980846E+002.5750460799E-01+
*       6.5424368770E-01               0
GRID*               6164               01.3358318267E+002.5750394099E-01+
*       6.5424211134E-01               0
GRID*               6165               01.3772280242E+002.5952037295E-01+
*       6.8301674321E-01               0
GRID*               6166               01.3559761612E+002.7813245958E-01+
*       6.6094894966E-01               0
GRID*               6167               01.3355617663E+002.5951970595E-01+
*       6.8301516685E-01               0
GRID*               6168               0-1.277162550E+003.1453629529E-01+
*       2.3987712952E-01               0
GRID*               6169               0-1.275115813E+003.6467104472E-01+
*       1.8749477111E-01               0
GRID*               6170               01.3785737454E+002.6799245466E-01+
*       7.3831937120E-01               0
GRID*               6171               01.3369070986E+002.6799245466E-01+
*       7.3831937120E-01               0
GRID*               6172               01.3352038686E+002.6700518287E-01+
*       7.6096730460E-01               0
GRID*               6173               01.3768705154E+002.6700518287E-01+
*       7.6096730460E-01               0
GRID*               6174               01.3566943132E+002.8499763753E-01+
*       7.4928667579E-01               0
GRID*               6175               01.3464610892E+003.9181724360E-01+
*       6.6801247431E-01               0
GRID*               6176               01.3252092262E+003.2242161593E-01+
*       6.6142156879E-01               0
GRID*               6177               01.3047948313E+003.0380886231E-01+
*       6.8348778598E-01               0
GRID*               6178               01.3249391658E+003.2443738089E-01+
*       6.9019462430E-01               0
GRID*               6179               0-1.264416044E+003.0011199464E-01+
*       -1.804304672E-02               0
GRID*               6180               0-1.307153752E+00-2.823469411E-01+
*       6.8777269633E-01               0
GRID*               6181               0-1.294006674E+00-2.969026600E-01+
*       7.6227168721E-01               0
GRID*               6182               0-1.335319335E+00-2.648594431E-01+
*       7.2109523272E-01               0
GRID*               6183               0-1.327053045E+00-3.000035903E-01+
*       6.9614292795E-01               0
GRID*               6184               0-1.313905967E+00-3.145593092E-01+
*       7.7064191882E-01               0
GRID*               6185               01.2421346960E+001.1911828162E-01+
*       4.8177495770E-01               0
GRID*               6186               01.2117406639E+008.7446958020E-02+
*       4.9484337572E-01               0
GRID*               6187               01.2217961655E+001.1521475664E-01+
*       4.5932724970E-01               0
GRID*               6188               01.2333003188E+005.8170521889E-02+
*       4.4545234275E-01               0
GRID*               6189               01.2838051197E+001.1910319072E-01+
*       4.8176870515E-01               0
GRID*               6190               01.2119742281E+005.4165836192E-02+
*       4.2326466062E-01               0
GRID*               6191               01.3675901543E+00-7.114086198E-01+
*       7.8453007346E-01               0
GRID*               6192               01.3050901841E+00-7.114086198E-01+
*       7.8453007346E-01               0
GRID*               6193               01.3050891953E+00-7.087453615E-01+
*       8.2914047902E-01               0
GRID*               6194               01.3350217469E+008.2781660331E-02+
*       4.9800991826E-01               0
GRID*               6195               01.3149109781E+005.3520315102E-02+
*       4.4862513783E-01               0
GRID*               6196               01.3034068248E+001.1056454985E-01+
*       4.6250004478E-01               0
GRID*               6197               01.3369742259E+005.2934016001E-03+
*       4.2764181160E-01               0
GRID*               6198               01.3492368977E+00-5.903604571E-02+
*       4.3457246348E-01               0
GRID*               6199               01.2122917181E+00-4.769075201E-02+
*       4.8314815488E-01               0
GRID*               6200               01.2338497396E+00-3.478575338E-03+
*       4.3926851190E-01               0
GRID*               6201               01.2461124115E+00-6.780802264E-02+
*       4.4619916377E-01               0
GRID*               6202               0-1.775521412E+00-1.964024939E-03+
*       -9.183727892E-02               0
GRID*               6203               0-1.727789434E+00-1.761181517E-01+
*       -1.133786518E-01               0
GRID*               6204               0-1.752807861E+00-2.539354093E-01+
*       -5.228768191E-02               0
GRID*               6205               0-1.784405496E+00-2.497158435E-01+
*       -8.274843845E-02               0
GRID*               6206               0-1.785204074E+00-2.260542959E-01+
*       -1.454922037E-01               0
GRID*               6207               01.2450920189E+008.9334634339E-02+
*       1.0488969608E+00               0
GRID*               6208               01.2670916191E+001.5598465038E-01+
*       1.0740374958E+00               0
GRID*               6209               01.2251112918E+001.0445370882E-01+
*       1.0585242505E+00               0
GRID*               6210               01.2250321442E+008.6171453220E-02+
*       1.0702975408E+00               0
GRID*               6211               01.3779889315E+002.0745414485E-01+
*       9.2965958438E-01               0
GRID*               6212               01.3363239786E+001.8211636050E-01+
*       9.5696839645E-01               0
GRID*               6213               01.3779889315E+001.8211044315E-01+
*       9.5697297001E-01               0
GRID*               6214               01.2540798708E+002.1558579468E-01+
*       9.6192004247E-01               0
GRID*               6215               0-1.289013082E+00-1.653976854E-01+
*       5.1028550289E-01               0
GRID*               6216               0-1.289012151E+00-1.945312925E-01+
*       5.3352047673E-01               0
GRID*               6217               0-1.334921878E+00-1.937438514E-01+
*       5.5317978372E-01               0
GRID*               6218               0-1.334922809E+00-1.646102443E-01+
*       5.2994480987E-01               0
GRID*               6219               0-1.308519277E+00-2.050079299E-01+
*       5.0673667051E-01               0
GRID*               6220               01.1802454577E+00-7.135957407E-01+
*       7.8671525456E-01               0
GRID*               6221               01.2427454279E+00-7.135957407E-01+
*       7.8671525456E-01               0
GRID*               6222               01.1798115799E+00-7.150567407E-01+
*       7.6387206661E-01               0
GRID*               6223               01.2113069708E+00-6.786524814E-01+
*       8.0058732117E-01               0
GRID*               6224               01.2423115501E+00-7.150567407E-01+
*       7.6387206661E-01               0
GRID*               6225               0-1.675563845E+00-1.284433018E-01+
*       -1.860909698E-01               0
GRID*               6226               0-1.681418880E+00-1.136065836E-01+
*       -6.109096985E-02               0
GRID*               6227               01.3320929017E+00-2.273177434E-01+
*       1.3168281008E+00               0
GRID*               6228               01.2577678966E+00-1.980281567E-01+
*       1.3232409898E+00               0
GRID*               6229               04.9428829270E-01-6.249163308E-01+
*       -1.875199469E-01               0
GRID*               6230               01.9011934191E-01-4.369178740E-01+
*       -1.250269283E-01               0
GRID*               6231               02.2825251174E-01-4.994403820E-01+
*       -1.250609880E-01               0
GRID*               6232               01.3296706183E+00-2.872291696E-01+
*       1.1224833892E+00               0
GRID*               6233               01.3320929017E+00-2.457693129E-01+
*       1.2445769441E+00               0
GRID*               6234               01.3320929017E+00-2.925813229E-01+
*       1.2956769120E+00               0
GRID*               6235               04.5700896624E-01-5.627122777E-01+
*       -5.949757965E-02               0
GRID*               6236               01.2070929017E+00-3.044777159E-01+
*       1.3100154055E+00               0
GRID*               6237               01.2070929017E+00-2.770148617E-01+
*       1.3781715268E+00               0
GRID*               6238               01.1793562647E+00-3.170204402E-01+
*       1.4012787843E+00               0
GRID*               6239               01.1793562647E+00-3.444832944E-01+
*       1.3331226630E+00               0
GRID*               6240               01.2376992189E+00-3.070228156E-01+
*       1.3365408519E+00               0
GRID*               6241               01.3439202666E+005.4176614024E-01+
*       9.5835223939E-01               0
GRID*               6242               01.1958594126E+005.0192591797E-01+
*       6.2533759463E-01               0
GRID*               6243               01.1958594164E+005.0512583231E-01+
*       6.8387509119E-01               0
GRID*               6244               01.1958593978E+004.5366918474E-01+
*       6.5618794907E-01               0
GRID*               6245               04.9317469217E-01-4.321914913E-01+
*       -1.218076839E-01               0
GRID*               6246               0-1.609677073E+002.8443244105E-01+
*       -1.919670689E-01               0
GRID*               6247               0-1.504555772E+002.4993010770E-01+
*       -1.914925422E-01               0
GRID*               6248               0-1.170662029E+00-1.719407360E-01+
*       9.5055101169E-01               0
GRID*               6249               01.3773140342E+00-1.868734059E-01+
*       9.3751906039E-01               0
GRID*               6250               01.3775921824E+00-2.060292297E-01+
*       9.2631404327E-01               0
GRID*               6251               0-1.466669981E+004.1748505443E-01+
*       -6.094217660E-02               0
GRID*               6252               0-1.444891238E+004.3738071710E-01+
*       -1.254680401E-01               0
GRID*               6253               0-1.442531543E+004.7557906584E-01+
*       -6.452586354E-02               0
GRID*               6254               01.1958594329E+005.6021890924E-01+
*       6.5805573066E-01               0
GRID*               6255               01.2031781911E+005.7715319509E-01+
*       5.9549164152E-01               0
GRID*               6256               01.2031782114E+006.3544618636E-01+
*       6.2820977756E-01               0
GRID*               6257               0-1.485316903E+003.8367083258E-01+
*       -1.859421766E-01               0
GRID*               6258               0-1.526947751E+003.4218169102E-01+
*       -1.859421766E-01               0
GRID*               6259               0-1.462159291E+003.3122629538E-01+
*       -1.859421766E-01               0
GRID*               6260               01.3208593831E+005.0969748151E-01+
*       6.1922514220E-01               0
GRID*               6261               0-1.471602995E+004.2221481460E-01+
*       -1.859421766E-01               0
GRID*               6262               0-1.426032621E+003.9173334790E-01+
*       -1.859421766E-01               0
GRID*               6263               0-1.401894182E+004.4982735931E-01+
*       -1.895258635E-01               0
GRID*               6264               0-1.447464556E+004.8030882602E-01+
*       -1.895258635E-01               0
GRID*               6265               01.2275674137E+006.5311555378E-01+
*       8.4834221386E-01               0
GRID*               6266               0-1.480081474E+002.1599057362E-01+
*       -6.649254222E-02               0
GRID*               6267               0-1.573426877E+001.8484034784E-01+
*       -7.032635775E-02               0
GRID*               6268               0-1.547999034E+008.7981460009E-02+
*       -1.953263578E-01               0
GRID*               6269               01.2083798208E+005.8408332272E-01+
*       7.2159753706E-01               0
GRID*               6270               01.1737426529E+007.2417772959E-01+
*       7.7164365696E-01               0
GRID*               6271               01.1737426309E+006.5929526535E-01+
*       7.9137528145E-01               0
GRID*               6272               01.3333797875E+005.8238853052E-01+
*       7.2616771600E-01               0
GRID*               6273               01.1981632069E+005.0017149664E-01+
*       7.3444381251E-01               0
GRID*               6274               01.1981631883E+004.4871484907E-01+
*       7.0675667039E-01               0
GRID*               6275               01.2319193989E+006.5215967666E-01+
*       8.2555141265E-01               0
GRID*               6276               0-1.202748458E+00-4.433218241E-02+
*       3.8258546809E-01               0
GRID*               6277               0-1.202748461E+00-2.493710791E-02+
*       3.5180878087E-01               0
GRID*               6278               0-1.202748463E+00-6.680743363E-02+
*       3.4318750885E-01               0
GRID*               6279               01.8741284652E+007.2704695748E-01+
*       -1.886462702E-01               0
GRID*               6280               01.8741284652E+007.2704695748E-01+
*       -1.261462702E-01               0
GRID*               6281               01.8256826203E+007.2704695748E-01+
*       -1.262297542E-01               0
GRID*               6282               01.7422714074E+006.3748664975E-01+
*       -1.561557424E-01               0
GRID*               6283               01.7392527672E+006.5690515398E-01+
*       -1.757447213E-01               0
GRID*               6284               01.7267564680E+006.7493314378E-01+
*       -1.457825325E-01               0
GRID*               6285               01.3367698515E+002.0762601722E-01+
*       1.3369898540E+00               0
GRID*               6286               01.3680657248E+002.4636736740E-01+
*       1.4302864197E+00               0
GRID*               6287               01.3378410268E+002.1976093723E-01+
*       1.1626242889E+00               0
GRID*               6288               01.2758609308E+002.0189683007E-01+
*       1.2418536477E+00               0
GRID*               6289               01.1050381414E+001.6488345921E-01+
*       -1.915235999E-01               0
GRID*               6290               01.0965694020E+002.7622202532E-01+
*       -1.851398466E-01               0
GRID*               6291               01.0381723871E+001.6725250330E-01+
*       -2.023240225E-01               0
GRID*               6292               0-1.170375829E+00-1.172048059E-01+
*       1.4632389438E+00               0
GRID*               6293               0-1.232876482E+00-8.080437959E-02+
*       1.4686384891E+00               0
GRID*               6294               0-1.170375829E+00-4.404596473E-02+
*       1.4704441675E+00               0
GRID*               6295               01.0687226636E+001.0696221079E-01+
*       -1.915235999E-01               0
GRID*               6296               01.0018569093E+001.0933125488E-01+
*       -2.023240225E-01               0
GRID*               6297               0-1.777152675E+007.3347354960E-02+
*       -1.020090725E-01               0
GRID*               6298               09.0067434307E-014.0588678374E-01+
*       -1.137004159E-01               0
GRID*               6299               01.2128410268E+001.5806783324E-01+
*       1.2409569808E+00               0
GRID*               6300               01.2128410268E+002.0548203402E-01+
*       1.1949685878E+00               0
GRID*               6301               01.3279823701E+003.1599487073E-01+
*       1.1607083682E+00               0
GRID*               6302               01.2670734494E+002.7876921198E-01+
*       1.1755351890E+00               0
GRID*               6303               01.3301220594E+003.6349000825E-01+
*       3.3894997013E-02               0
GRID*               6304               01.2995146917E+003.5526454545E-01+
*       -3.720215773E-02               0
GRID*               6305               0-1.179159403E+003.9034663104E-02+
*       1.4639616461E+00               0
GRID*               6306               0-1.179159403E+001.1219350426E-01+
*       1.4567564223E+00               0
GRID*               6307               09.6844816923E-011.7132905279E-01+
*       -2.023240225E-01               0
GRID*               6308               0-1.264599269E+00-3.865747054E-01+
*       3.3158901511E-01               0
GRID*               6309               0-7.446004975E-012.9461250743E-01+
*       -6.486400110E-02               0
GRID*               6310               0-9.206296676E-011.8732796807E-01+
*       -5.443349743E-02               0
GRID*               6311               01.3199178302E+002.9512634499E-02+
*       -7.741141755E-02               0
GRID*               6312               01.3250690443E+005.2096464842E-02+
*       -1.400432026E-01               0
GRID*               6313               01.3829135846E+001.0139643448E-01+
*       -1.298044991E-01               0
GRID*               6314               0-1.344431236E+001.8753268825E-01+
*       -1.090225418E-02               0
GRID*               6315               0-5.703553894E-01-6.563790063E-01+
*       -1.563006681E-01               0
GRID*               6316               0-3.051620726E-01-3.119234813E-01+
*       -6.207494128E-02               0
GRID*               6317               01.3681669377E+00-1.364931527E-01+
*       -1.269864246E-01               0
GRID*               6318               01.3470596896E+00-1.059010357E-01+
*       -6.570173966E-02               0
GRID*               6319               01.4393356583E+00-1.505314464E-01+
*       -1.223305657E-01               0
GRID*               6320               01.3665381523E+00-7.584036509E-02+
*       -1.267476204E-01               0
GRID*               6321               0-3.832495296E-02-4.995599802E-01+
*       -6.258836599E-02               0
GRID*               6322               0-2.113337482E-05-5.621223430E-01+
*       -6.258836599E-02               0
GRID*               6323               0-7.645700307E-02-5.627245730E-01+
*       -6.251700600E-02               0
GRID*               6324               0-3.805225639E-02-5.626900030E-01+
*       -1.251053720E-01               0
GRID*               6325               01.0717738356E+00-1.159895342E-01+
*       -1.948423664E-01               0
GRID*               6326               09.4507165623E-01-1.232378885E-01+
*       -7.822037167E-02               0
GRID*               6327               01.0571657037E+00-7.837236833E-02+
*       -6.984236644E-02               0
GRID*               6328               01.3339678721E+00-5.706915327E-01+
*       3.3912451067E-02               0
GRID*               6329               01.3676140611E+00-6.374352115E-01+
*       -9.319510559E-03               0
GRID*               6330               01.3028319856E+00-6.081267442E-01+
*       2.4592940508E-02               0
GRID*               6331               01.3139928556E+00-6.477866745E-01+
*       -8.021857241E-02               0
GRID*               6332               0-1.906797694E-01-6.255873857E-01+
*       -6.252628474E-02               0
GRID*               6333               0-2.671947983E-01-6.256747408E-01+
*       -6.252628474E-02               0
GRID*               6334               01.1695455299E+00-5.929734913E-01+
*       -1.895866634E-01               0
GRID*               6335               01.1333292681E+00-5.307174258E-01+
*       -1.895866634E-01               0
GRID*               6336               01.2913287505E+00-6.853514630E-01+
*       -1.958990618E-01               0
GRID*               6337               01.2514011384E+00-6.853514630E-01+
*       -1.369776672E-01               0
GRID*               6338               01.2846446377E+00-6.853514630E-01+
*       -8.937035663E-02               0
GRID*               6339               01.3226665688E+00-6.853514630E-01+
*       -1.372934883E-01               0
GRID*               6340               01.0956760220E+00-4.653651622E-01+
*       -1.895866634E-01               0
GRID*               6341               01.1751416970E+00-4.694462875E-01+
*       -1.895866634E-01               0
GRID*               6342               01.1367761781E+00-5.033462482E-01+
*       -6.458666342E-02               0
GRID*               6343               01.0793452254E+00-5.627895349E-01+
*       -6.458666342E-02               0
GRID*               6344               02.6601644410E-016.2528539614E-01+
*       -1.875958258E-01               0
GRID*               6345               01.9012976352E-016.2532367701E-01+
*       -1.875958258E-01               0
GRID*               6346               02.2802627229E-015.6274766729E-01+
*       -1.875958258E-01               0
GRID*               6347               01.3356957196E+005.6060084024E-01+
*       1.0221960974E+00               0
GRID*               6348               01.2189202666E+005.3142661244E-01+
*       9.3021390606E-01               0
GRID*               6349               0-1.355629096E+005.0484034187E-01+
*       -1.895258635E-01               0
GRID*               6350               0-1.420322777E+005.1265771938E-01+
*       -1.895258635E-01               0
GRID*               6351               01.1922821582E+005.7934521775E-01+
*       1.0306071130E+00               0
GRID*               6352               01.2624524772E+005.5358508787E-01+
*       9.9463313849E-01               0
GRID*               6353               01.1739766725E+005.8349157983E-01+
*       1.0189478995E+00               0
GRID*               6354               01.2175088831E+006.3489610825E-01+
*       1.0245046361E+00               0
GRID*               6355               01.2666469233E+002.9981174133E-01+
*       1.1033108791E+00               0
GRID*               6356               0-1.205679757E+00-1.900626465E-01+
*       4.3223098593E-01               0
GRID*               6357               0-1.257919712E+00-1.589509169E-01+
*       4.6478770746E-01               0
GRID*               6358               0-1.200989919E+00-1.432181924E-01+
*       4.0994132987E-01               0
GRID*               6359               0-1.271430704E+00-1.991995477E-01+
*       4.2355388429E-01               0
GRID*               6360               0-1.266740866E+00-1.523550935E-01+
*       4.0126422823E-01               0
GRID*               6361               0-1.815740733E+004.3911185623E-01+
*       -1.769948472E-01               0
GRID*               6362               0-1.864730327E+004.5118680782E-01+
*       -1.871775550E-01               0
GRID*               6363               0-1.816622167E+004.7344958502E-01+
*       -1.768494079E-01               0
GRID*               6364               0-1.784449407E+004.5928113277E-01+
*       -1.881592114E-01               0
GRID*               6365               0-1.832557566E+004.3701835557E-01+
*       -1.984873584E-01               0
GRID*               6366               0-1.833439001E+004.7135608435E-01+
*       -1.983419191E-01               0
GRID*               6367               01.3666493405E+005.7621517578E-01+
*       1.1794778764E+00               0
GRID*               6368               0-5.703665192E-01-4.474026173E-01+
*       -1.225407238E-01               0
GRID*               6369               0-6.060369895E-01-4.397644259E-01+
*       -1.869492082E-01               0
GRID*               6370               0-1.212538993E+00-5.517290595E-01+
*       3.0628557337E-01               0
GRID*               6371               0-1.337538961E+00-5.700665489E-01+
*       2.7489417419E-01               0
GRID*               6372               0-1.221645338E+00-4.832910119E-01+
*       2.1269726478E-01               0
GRID*               6373               01.1820470342E+00-7.120417295E-01+
*       -8.808456357E-03               0
GRID*               6374               01.1787216378E+00-7.125058768E-01+
*       2.1525293960E-02               0
GRID*               6375               0-1.208877938E+004.2634030997E-01+
*       1.0174477207E+00               0
GRID*               6376               0-1.211426529E+004.5305218468E-01+
*       1.0776285043E+00               0
GRID*               6377               01.3676305039E+00-6.368875795E-01+
*       2.0298427962E-02               0
GRID*               6378               01.3028484285E+00-6.075791121E-01+
*       5.4210879029E-02               0
GRID*               6379               01.3364946174E+00-6.743227910E-01+
*       1.0978917403E-02               0
GRID*               6380               01.3676140611E+00-7.124352115E-01+
*       -9.319510559E-03               0
GRID*               6381               01.3676305039E+00-7.118875795E-01+
*       2.0298427962E-02               0
GRID*               6382               0-1.267057011E+004.1786793545E-01+
*       1.0582360639E+00               0
GRID*               6383               0-1.331929021E+003.6405965366E-01+
*       1.2039416118E+00               0
GRID*               6384               0-1.302923083E+005.0941793512E-01+
*       -1.370720022E-01               0
GRID*               6385               0-1.367370368E+004.5702533064E-01+
*       -1.245365289E-01               0
GRID*               6386               0-1.356305514E+005.4786733299E-01+
*       -1.415872004E-01               0
GRID*               6387               0-1.206326222E+002.5428058827E-01+
*       1.3050237028E+00               0
GRID*               6388               0-1.206929021E+003.2367239092E-01+
*       1.2329176467E+00               0
GRID*               6389               0-1.209589258E+003.4985695200E-01+
*       9.9611689049E-01               0
GRID*               6390               0-1.206871554E+002.9971870755E-01+
*       1.0572784502E+00               0
GRID*               6391               0-1.206929021E+003.7027260733E-01+
*       1.1237276632E+00               0
GRID*               6392               0-1.179919040E+007.1223292580E-01+
*       2.0129151229E-02               0
GRID*               6393               0-1.206871554E+002.3883951461E-01+
*       1.0897075243E+00               0
GRID*               6394               0-1.161327571E+00-5.399953089E-02+
*       1.0532634174E+00               0
GRID*               6395               0-1.175735561E+00-2.950044135E-02+
*       1.0589143166E+00               0
GRID*               6396               0-1.188313184E+00-5.659628731E-02+
*       1.0241934876E+00               0
GRID*               6397               0-1.175735561E+00-8.614259611E-02+
*       1.0483211856E+00               0
GRID*               6398               0-1.341070359E+00-2.195176384E-01+
*       1.0802878261E+00               0
GRID*               6399               0-1.279858902E+00-1.917746554E-01+
*       1.0657101653E+00               0
GRID*               6400               0-1.337538491E+00-1.495110971E-01+
*       1.1130782524E+00               0
GRID*               6401               0-1.348075126E+00-1.853736554E-01+
*       1.1583396911E+00               0
GRID*               6402               0-1.290395537E+00-2.276372137E-01+
*       1.1109716039E+00               0
GRID*               6403               0-1.335086418E+00-2.826393350E-02+
*       1.0138666693E+00               0
GRID*               6404               0-1.315542560E+00-6.133686880E-02+
*       1.0662508227E+00               0
GRID*               6405               03.4198297902E-01-4.995010846E-01+
*       -1.875724064E-01               0
GRID*               6406               03.0398842931E-01-4.369847220E-01+
*       -1.875724064E-01               0
GRID*               6407               0-1.339131170E+00-4.621985700E-01+
*       8.0977396211E-01               0
GRID*               6408               0-1.266335193E+00-4.565234851E-01+
*       8.3923235243E-01               0
GRID*               6409               0-1.214732837E+00-3.388691380E-01+
*       1.0963347793E+00               0
GRID*               6410               0-1.214732837E+00-3.296821110E-01+
*       1.1545138630E+00               0
GRID*               6411               01.5188612557E-01-6.237647143E-02+
*       -1.875372097E-01               0
GRID*               6412               01.1382274175E-01-1.247519707E-01+
*       -1.875399966E-01               0
GRID*               6413               01.5192155891E-01-1.244047541E-01+
*       -1.250294398E-01               0
GRID*               6414               01.1402125427E-01-6.228728491E-02+
*       -1.250772063E-01               0
GRID*               6415               01.5237124445E-01-4.368076275E-01+
*       -6.248858164E-02               0
GRID*               6416               01.9041535796E-01-3.741267698E-01+
*       -6.253834670E-02               0
GRID*               6417               01.1428091743E-01-3.742718692E-01+
*       -6.255145146E-02               0
GRID*               6418               07.6067485071E-02-3.119138802E-01+
*       -6.255145146E-02               0
GRID*               6419               01.5233635419E-01-3.118014437E-01+
*       -6.252913611E-02               0
GRID*               6420               01.5189764725E-01-4.371424875E-01+
*       -1.874885816E-01               0
GRID*               6421               02.2792318795E-01-4.369766629E-01+
*       -1.875383467E-01               0
GRID*               6422               0-1.169112526E+002.5330257589E-01+
*       8.3869187267E-01               0
GRID*               6423               0-1.169112526E+002.3713534732E-01+
*       8.7226200697E-01               0
GRID*               6424               0-1.198122220E+003.4803108486E-01+
*       7.0154831567E-01               0
GRID*               6425               02.2019514582E-05-3.121363786E-01+
*       -1.875869280E-01               0
GRID*               6426               0-3.807919459E-02-3.746852508E-01+
*       -1.875655329E-01               0
GRID*               6427               0-1.211798484E+003.5845565759E-01+
*       4.3931017368E-01               0
GRID*               6428               0-1.337541439E+003.4963845257E-01+
*       5.3149331149E-01               0
GRID*               6429               0-1.275589966E+003.7681778731E-01+
*       5.0851214711E-01               0
GRID*               6430               0-1.251072444E+002.1452440207E-01+
*       5.2794179709E-01               0
GRID*               6431               0-1.305599919E+006.5194490915E-02+
*       1.4661255477E+00               0
GRID*               6432               0-1.335941273E+007.9603792405E-02+
*       1.4189691559E+00               0
GRID*               6433               0-1.255509942E+002.8942110637E-02+
*       1.4686777157E+00               0
GRID*               6434               0-1.287361220E+002.0619771831E-02+
*       1.4384155762E+00               0
GRID*               6435               0-1.285851296E+004.3351412128E-02+
*       1.4215213239E+00               0
GRID*               6436               0-1.171003102E+001.7280323098E-01+
*       5.4180076700E-01               0
GRID*               6437               0-1.212668472E+001.9814352815E-01+
*       5.6910974682E-01               0
GRID*               6438               03.0390145893E-01-6.042015901E-02+
*       -6.251879871E-02               0
GRID*               6439               03.0441440120E-016.3611974508E-02+
*       -6.251879871E-02               0
GRID*               6440               02.2822294716E-016.3276248145E-02+
*       -6.245780787E-02               0
GRID*               6441               0-1.782639469E+003.8174131454E-01+
*       -7.289070942E-02               0
GRID*               6442               0-1.798544710E+003.1873630112E-01+
*       -9.788330683E-02               0
GRID*               6443               0-1.739599832E+003.8743344414E-01+
*       -6.277447655E-02               0
GRID*               6444               0-1.800009550E+003.7029549590E-01+
*       -5.233261824E-02               0
GRID*               6445               0-1.755505073E+003.2442843072E-01+
*       -8.776707395E-02               0
GRID*               6446               0-1.641644384E+003.1939410799E-01+
*       -1.503004022E-01               0
GRID*               6447               0-1.712215874E+003.7276173218E-01+
*       -2.052232119E-02               0
GRID*               6448               0-1.712213451E+003.7275989058E-01+
*       -6.218860506E-02               0
GRID*               6449               0-1.675498800E+003.6082026429E-01+
*       -2.052232119E-02               0
GRID*               6450               04.5435363051E-01-5.546047619E-02+
*       -1.930328273E-01               0
GRID*               6451               01.7861256658E+00-4.594321008E-01+
*       -6.354057630E-02               0
GRID*               6452               01.8019329637E+00-4.787723251E-01+
*       -4.378152796E-02               0
GRID*               6453               01.7834511326E+00-4.807521986E-01+
*       -6.357388200E-02               0
GRID*               6454               01.8003530400E+00-4.746714614E-01+
*       -9.403896057E-02               0
GRID*               6455               01.8188348710E+00-4.726915879E-01+
*       -7.424660652E-02               0
GRID*               6456               01.8161603379E+00-4.940116857E-01+
*       -7.427991222E-02               0
GRID*               6457               01.8825741672E+00-4.676070188E-01+
*       -3.121991324E-02               0
GRID*               6458               01.8466632535E+00-5.110170433E-01+
*       -3.121991324E-02               0
GRID*               6459               01.8497979488E+00-4.704607249E-01+
*       -3.121991324E-02               0
GRID*               6460               02.2771420210E-01-6.206413895E-02+
*       -1.874894432E-01               0
GRID*               6461               01.8236560567E+00-4.113467842E-01+
*       -5.274731039E-02               0
GRID*               6462               01.8051742256E+00-4.133266577E-01+
*       -7.253966444E-02               0
GRID*               6463               01.7737018837E+00-4.347890955E-01+
*       -6.268790231E-02               0
GRID*               6464               01.7921837148E+00-4.328092220E-01+
*       -4.289554827E-02               0
GRID*               6465               01.8112322746E+00-3.867037789E-01+
*       -5.189463640E-02               0
GRID*               6466               01.2099157159E+00-5.857665319E-01+
*       2.1400514045E-01               0
GRID*               6467               01.7861262678E+00-4.594335344E-01+
*       -2.187411113E-02               0
GRID*               6468               01.7834517347E+00-4.807536322E-01+
*       -2.190741683E-02               0
GRID*               6469               01.3339678721E+00-5.167534244E-01+
*       1.2101280261E-01               0
GRID*               6470               01.2701643997E+00-5.165620475E-01+
*       1.6835289609E-01               0
GRID*               6471               01.3329216794E+00-4.467999445E-01+
*       1.1949708468E-01               0
GRID*               6472               01.2691182070E+00-4.466085676E-01+
*       1.6683717815E-01               0
GRID*               6473               01.2411528480E+00-6.667088174E-01+
*       2.4314695428E-01               0
GRID*               6474               01.4567251572E+004.7596063132E-01+
*       -1.450279004E-01               0
GRID*               6475               01.4339560102E+004.8582769451E-01+
*       -1.645804118E-01               0
GRID*               6476               01.5468919278E+003.3883212599E-01+
*       -1.091413468E-01               0
GRID*               6477               01.5184633318E+003.0288326735E-01+
*       -1.924752170E-01               0
GRID*               6478               01.2099157360E+00-6.896038559E-01+
*       1.6699701689E-01               0
GRID*               6479               01.1794072615E+00-7.268815602E-01+
*       1.9051546641E-01               0
GRID*               6480               01.2419534822E+00-7.268815602E-01+
*       2.2848348341E-01               0
GRID*               6481               01.2405729307E+00-6.664854161E-01+
*       2.0751248330E-01               0
GRID*               6482               01.3349156764E+00-6.896038559E-01+
*       1.6699701689E-01               0
GRID*               6483               01.3109957846E+00-6.652487640E-01+
*       1.9474033440E-01               0
GRID*               6484               01.5595823477E+002.8933171108E-01+
*       -1.924752170E-01               0
GRID*               6485               01.3439202666E+004.8372114153E-01+
*       9.9168280098E-01               0
GRID*               6486               01.5827832298E+002.7810170374E-01+
*       -6.747521703E-02               0
GRID*               6487               01.6173671948E+002.8574330298E-01+
*       -1.238825835E-01               0
GRID*               6488               01.6118865875E+002.3669476572E-01+
*       -6.110950634E-02               0
GRID*               6489               01.6464705526E+002.4433636496E-01+
*       -1.175168728E-01               0
GRID*               6490               0-1.750731978E+00-4.050440358E-01+
*       -2.014686908E-02               0
GRID*               6491               01.1981632111E+005.5210601052E-01+
*       7.7226820618E-01               0
GRID*               6492               01.6584244694E+002.9629881285E-01+
*       -1.814073665E-01               0
GRID*               6493               01.6824544721E+003.3385520745E-01+
*       -1.397406998E-01               0
GRID*               6494               01.5836123505E+003.2688810568E-01+
*       -1.508085504E-01               0
GRID*               6495               01.6703139528E+003.1458837847E-01+
*       -1.595519893E-01               0
GRID*               6496               01.5714718311E+003.0762127671E-01+
*       -1.706198398E-01               0
GRID*               6497               01.6308887653E+003.6379689960E-01+
*       -6.277052494E-02               0
GRID*               6498               01.5658014879E+003.1568499514E-01+
*       -8.857907530E-02               0
GRID*               6499               01.5836123505E+003.2688810568E-01+
*       -1.091418837E-01               0
GRID*               6500               01.6482947129E+003.4991973148E-01+
*       -6.373971250E-02               0
GRID*               6501               01.6304838502E+003.3871662094E-01+
*       -4.317690411E-02               0
GRID*               6502               01.5832074355E+003.0180782702E-01+
*       -8.954826286E-02               0
GRID*               6503               01.3419791477E+00-3.519167469E-01+
*       5.0678248455E-01               0
GRID*               6504               01.3332314033E+00-3.450822815E-01+
*       4.3158245008E-01               0
GRID*               6505               01.3265658566E+00-2.329689882E-01+
*       3.7730250537E-01               0
GRID*               6506               01.6824544722E+003.3385520744E-01+
*       -9.807403317E-02               0
GRID*               6507               01.0597092870E+00-4.493480342E-01+
*       -1.355986652E-01               0
GRID*               6508               01.1299011589E+00-4.306123316E-01+
*       -6.357924176E-02               0
GRID*               6509               01.1179272702E+00-4.839585798E-01+
*       -1.281659052E-01               0
GRID*               6510               01.0528342678E+00-3.766141175E-01+
*       -1.345912435E-01               0
GRID*               6511               01.5224469612E-01-6.181611233E-02+
*       -6.253720970E-02               0
GRID*               6512               01.1794667631E+00-6.573136786E-01+
*       1.0298409387E+00               0
GRID*               6513               01.1794667631E+00-5.834614332E-01+
*       1.0397340887E+00               0
GRID*               6514               01.3667227980E+00-6.929875385E-01+
*       9.2429119668E-01               0
GRID*               6515               01.3042218390E+00-6.975301594E-01+
*       8.9574281021E-01               0
GRID*               6516               01.2444270858E+00-6.261287330E-01+
*       7.7412335713E-01               0
GRID*               6517               01.2439932080E+00-6.275897330E-01+
*       7.5128016918E-01               0
GRID*               6518               01.1793891647E+00-6.482209930E-01+
*       1.0587734311E+00               0
GRID*               6519               01.1793891647E+00-5.743687476E-01+
*       1.0686665812E+00               0
GRID*               6520               01.1793891647E+00-6.135676462E-01+
*       1.1236061258E+00               0
GRID*               6521               01.2129316447E+00-5.935973998E-01+
*       7.6759446705E-01               0
GRID*               6522               01.1802454076E+00-6.446601481E-01+
*       8.1690161904E-01               0
GRID*               6523               01.2357447410E+00-6.088115316E-01+
*       8.5560149130E-01               0
GRID*               6524               01.0716831756E+00-3.210017860E-01+
*       -7.101200175E-02               0
GRID*               6525               01.1473573225E+00-2.820447797E-01+
*       -6.261724537E-02               0
GRID*               6526               01.1951643666E+00-2.746869847E-01+
*       -1.209110658E-01               0
GRID*               6527               01.1275966352E+00-3.001679927E-01+
*       -1.249805163E-01               0
GRID*               6528               01.0727547987E+00-2.860878149E-01+
*       -1.960120018E-01               0
GRID*               6529               0-3.794812137E-02-4.996360721E-01+
*       -1.875883660E-01               0
GRID*               6530               0-3.799473081E-02-4.371054898E-01+
*       -1.251538989E-01               0
GRID*               6531               01.3003137776E+00-2.695387610E-01+
*       5.7883461618E-01               0
GRID*               6532               01.3003128909E+00-2.485487086E-01+
*       5.4804453147E-01               0
GRID*               6533               01.2951399813E+00-1.951406472E-01+
*       5.3269724445E-01               0
GRID*               6534               01.3356998137E+00-2.067414061E-01+
*       5.7393301655E-01               0
GRID*               6535               01.3205952707E+00-2.720256617E-01+
*       5.4201755648E-01               0
GRID*               6536               01.3154223611E+00-2.186176004E-01+
*       5.2667026946E-01               0
GRID*               6537               01.2979356285E+00-2.802838609E-01+
*       6.4842861486E-01               0
GRID*               6538               0-8.183826303E-05-4.369737505E-01+
*       -6.258836599E-02               0
GRID*               6539               01.2534738362E+00-1.951420277E-01+
*       5.3269904365E-01               0
GRID*               6540               01.2116592269E+00-2.077238322E-01+
*       5.7613733577E-01               0
GRID*               6541               01.2330479195E+00-2.195986460E-01+
*       5.2887278948E-01               0
GRID*               6542               01.2382208290E+00-2.730067073E-01+
*       5.4422007649E-01               0
GRID*               6543               01.3767421157E+007.5187458891E-03+
*       1.0223769669E+00               0
GRID*               6544               01.3350758589E+00-2.963576067E-02+
*       1.0195933480E+00               0
GRID*               6545               01.3379559549E+00-1.773024905E-01+
*       1.0817621978E+00               0
GRID*               6546               01.3379559549E+00-1.186022118E-01+
*       1.0869624875E+00               0
GRID*               6547               01.3367009430E+00-2.291319617E-01+
*       1.0334495827E+00               0
GRID*               6548               01.3367009430E+00-1.704316830E-01+
*       1.0386498724E+00               0
GRID*               6549               01.3296706183E+00-2.706955881E-01+
*       1.1821448336E+00               0
GRID*               6550               01.3492368977E+00-8.151129692E-02+
*       3.9517450424E-01               0
GRID*               6551               01.3492368977E+00-1.006191203E-01+
*       4.4128733697E-01               0
GRID*               6552               01.0519224882E+00-3.391249990E-01+
*       -1.333752726E-01               0
GRID*               6553               01.0702904314E+00-3.030465657E-01+
*       -1.336292471E-01               0
GRID*               6554               01.2326486135E+002.1534170794E-01+
*       5.2249951591E-01               0
GRID*               6555               01.1777082029E+00-3.482545365E-01+
*       -1.218730621E-01               0
GRID*               6556               01.1687874052E+00-4.334552065E-01+
*       -6.232253132E-02               0
GRID*               6557               01.1499384974E+00-4.140675381E-01+
*       -1.259017731E-01               0
GRID*               6558               01.2165944493E+00-3.510974115E-01+
*       -1.206163517E-01               0
GRID*               6559               0-1.873541956E+007.0155162820E-01+
*       -2.189911155E-01               0
GRID*               6560               0-1.826397850E+006.4886502922E-01+
*       -2.189911155E-01               0
GRID*               6561               0-1.849367076E+007.2379251160E-01+
*       -2.177105748E-01               0
GRID*               6562               0-1.824159084E+006.7534413980E-01+
*       -1.867016903E-01               0
GRID*               6563               0-1.802222970E+006.7110591262E-01+
*       -2.177105748E-01               0
GRID*               6564               01.2555749569E+00-2.064284888E-01+
*       -1.832938204E-01               0
GRID*               6565               0-1.368412499E+006.7025460932E-01+
*       9.8867373295E-01               0
GRID*               6566               0-1.336893520E+006.3391053354E-01+
*       9.7123173927E-01               0
GRID*               6567               01.4219228492E+00-1.802950806E-01+
*       -1.862846850E-01               0
GRID*               6568               01.3538751014E+00-1.693784009E-01+
*       -1.862846850E-01               0
GRID*               6569               01.7042543616E+006.2545671346E-01+
*       -2.203135943E-02               0
GRID*               6570               01.6551971041E+006.3478261501E-01+
*       -2.211822894E-02               0
GRID*               6571               01.7107015181E+006.3523932847E-01+
*       -4.414958836E-02               0
GRID*               6572               01.6919475592E+006.2283608227E-01+
*       -6.378488950E-02               0
GRID*               6573               01.2284127534E+00-4.450770562E-01+
*       -6.391697058E-02               0
GRID*               6574               01.2875844256E+00-4.208151090E-01+
*       -3.152023745E-02               0
GRID*               6575               01.2220597492E+00-1.059010357E-01+
*       -6.570173966E-02               0
GRID*               6576               01.2170315639E+00-5.618810380E-02+
*       3.4352291458E-02               0
GRID*               6577               0-8.102362764E-01-3.448676309E-01+
*       -1.273142258E-01               0
GRID*               6578               0-9.305368624E-01-2.012708252E-01+
*       -1.307031242E-01               0
GRID*               6579               0-9.005223761E-01-4.005550000E-01+
*       -1.280566664E-01               0
GRID*               6580               0-9.469220480E-01-4.865408579E-01+
*       -1.240140859E-01               0
GRID*               6581               0-1.118952640E+00-2.990270285E-01+
*       -6.109954427E-02               0
GRID*               6582               01.3464610892E+003.8553038983E-01+
*       7.2748612647E-01               0
GRID*               6583               01.1981094529E+003.4956808409E-01+
*       8.0840990426E-01               0
GRID*               6584               01.2631286851E+003.0380799441E-01+
*       6.8348569086E-01               0
GRID*               6585               01.2828645545E+003.6267935344E-01+
*       6.3270349317E-01               0
GRID*               6586               01.2518210088E+002.9776081060E-01+
*       6.2552194060E-01               0
GRID*               6587               01.2117816679E+002.5796202593E-01+
*       6.5859764986E-01               0
GRID*               6588               01.2428252136E+003.2288056877E-01+
*       6.6577920243E-01               0
GRID*               6589               01.2315175372E+003.1683338496E-01+
*       6.0781545217E-01               0
GRID*               6590               01.2214611039E+003.9108964292E-01+
*       6.7455371041E-01               0
GRID*               6591               01.2214610918E+003.3963848034E-01+
*       6.4734816648E-01               0
GRID*               6592               01.2101534276E+003.8504245911E-01+
*       6.1658996015E-01               0
GRID*               6593               0-1.217720553E+001.8175294375E-01+
*       9.5979860805E-02               0
GRID*               6594               0-3.173136013E-01-7.286464306E-01+
*       -8.509883140E-02               0
GRID*               6595               0-2.796511395E-01-7.286464306E-01+
*       -2.259062502E-02               0
GRID*               6596               0-2.559645545E-01-7.254418266E-01+
*       -2.505560260E-02               0
GRID*               6597               0-3.058656806E-01-7.040882571E-01+
*       -4.764622761E-02               0
GRID*               6598               0-1.279580740E+001.8117496922E-01+
*       9.6804563373E-02               0
GRID*               6599               0-3.789310738E-021.1572591731E-04+
*       -1.875105599E-01               0
GRID*               6600               0-7.597797537E-026.2420420982E-02+
*       -1.874693155E-01               0
GRID*               6601               01.1386931141E+00-7.180099642E-01+
*       -2.214034681E-01               0
GRID*               6602               01.1747154999E+00-7.180099642E-01+
*       -1.624820734E-01               0
GRID*               6603               01.1760140376E+00-7.188998193E-01+
*       -2.207531319E-01               0
GRID*               6604               01.1754571831E+00-6.869097835E-01+
*       -1.921565999E-01               0
GRID*               6605               01.2120364234E+00-7.188998193E-01+
*       -1.618317372E-01               0
GRID*               6606               01.3991597700E+00-7.194101918E-01+
*       -2.212221308E-01               0
GRID*               6607               01.3232097721E+00-7.194101918E-01+
*       -2.212221308E-01               0
GRID*               6608               01.3545475904E+00-7.194101918E-01+
*       -1.626165573E-01               0
GRID*               6609               01.8974097144E-011.2496989548E-01+
*       -1.874578079E-01               0
GRID*               6610               01.9024994622E-011.2527918873E-01+
*       -6.245780787E-02               0
GRID*               6611               01.9014500076E-01-1.239335815E-01+
*       -6.248944325E-02               0
GRID*               6612               0-1.204705978E+001.1219444212E-01+
*       1.1923287076E+00               0
GRID*               6613               0-1.205364262E+003.8431953734E-02+
*       1.2579096524E+00               0
GRID*               6614               0-1.350458340E+001.1563479994E-01+
*       1.0605798022E+00               0
GRID*               6615               0-1.331871554E+001.8529691689E-01+
*       1.0242742293E+00               0
GRID*               6616               0-1.350458340E+003.1915670077E-02+
*       1.0846550713E+00               0
GRID*               6617               0-1.367099752E+002.9746248491E-01+
*       1.4098716201E+00               0
GRID*               6618               0-1.269427618E+004.7072632473E-01+
*       1.1952188771E+00               0
GRID*               6619               0-1.269428752E+004.1878706956E-01+
*       1.2471454531E+00               0
GRID*               6620               0-1.304602168E+005.2290583425E-01+
*       1.2302932891E+00               0
GRID*               6621               0-1.300282645E+004.1397974232E-01+
*       1.1995904184E+00               0
GRID*               6622               0-1.300806990E+004.3908908621E-01+
*       1.1727614539E+00               0
GRID*               6623               0-1.269430100E+003.5766867197E-01+
*       1.2879808574E+00               0
GRID*               6624               0-1.268827301E+002.8827686932E-01+
*       1.3600869135E+00               0
GRID*               6625               0-1.300886830E+003.5937159438E-01+
*       1.2448057979E+00               0
GRID*               6626               0-1.300284030E+002.8997979173E-01+
*       1.3169118541E+00               0
GRID*               6627               0-1.485994160E+00-4.282802939E-01+
*       -1.514746395E-01               0
GRID*               6628               0-1.463189784E+00-4.383817484E-01+
*       -1.718918288E-01               0
GRID*               6629               0-1.507052730E+00-4.715112404E-01+
*       -1.870831391E-01               0
GRID*               6630               0-1.518006934E+00-4.457671551E-01+
*       -1.871512865E-01               0
GRID*               6631               0-1.474143988E+00-4.126376631E-01+
*       -1.719599762E-01               0
GRID*               6632               0-1.495202558E+00-4.558686096E-01+
*       -2.075684757E-01               0
GRID*               6633               01.2713319212E+002.1810012537E-01+
*       4.0400035928E-01               0
GRID*               6634               0-1.181593630E+00-7.118355666E-01+
*       -1.039170003E-02               0
GRID*               6635               0-1.213103573E+00-6.739441263E-01+
*       9.4041634469E-03               0
GRID*               6636               0-1.181593630E+00-6.368355666E-01+
*       -1.039170003E-02               0
GRID*               6637               01.2163255979E+003.3909376443E-01+
*       2.9038461399E-01               0
GRID*               6638               0-1.126648662E+00-6.453752919E-01+
*       -1.379105497E-01               0
GRID*               6639               0-1.138205016E+00-7.167053860E-01+
*       -1.583801095E-01               0
GRID*               6640               0-1.290139400E+00-6.794433317E-01+
*       -1.959190498E-01               0
GRID*               6641               0-1.250577408E+00-7.167053860E-01+
*       -2.201581949E-01               0
GRID*               6642               0-1.179342894E+007.2033898931E-01+
*       1.9336450988E-01               0
GRID*               6643               0-1.180535767E+007.1786981508E-01+
*       5.1191928339E-02               0
GRID*               6644               0-1.180535767E+007.1786981508E-01+
*       1.2619192834E-01               0
GRID*               6645               01.3446117962E+003.0482279906E-01+
*       3.9945240804E-01               0
GRID*               6646               01.3413255794E+004.8376943602E-01+
*       3.1131447701E-01               0
GRID*               6647               01.2043752325E+003.4082346897E-01+
*       1.8272817100E-01               0
GRID*               6648               01.2212607332E+005.0665506047E-01+
*       3.4430140947E-01               0
GRID*               6649               01.2163256116E+004.5841978349E-01+
*       2.9196072621E-01               0
GRID*               6650               0-1.268825570E+002.2036686600E-01+
*       1.3882156112E+00               0
GRID*               6651               0-1.299999959E+001.9911314544E-01+
*       1.3461394129E+00               0
GRID*               6652               0-1.304923033E+001.9646338393E-01+
*       1.4256269054E+00               0
GRID*               6653               0-1.305120305E+002.2899306502E-01+
*       1.4358062582E+00               0
GRID*               6654               0-1.300197231E+002.3164282654E-01+
*       1.3563187657E+00               0
GRID*               6655               0-1.336294694E+002.0773934446E-01+
*       1.3937300599E+00               0
GRID*               6656               0-1.206326222E+002.5501455690E-01+
*       1.3758187889E+00               0
GRID*               6657               0-1.206326222E+002.0850514014E-01+
*       1.3382258205E+00               0
GRID*               6658               0-1.304599101E+002.6281479402E-01+
*       1.4222684423E+00               0
GRID*               6659               0-1.241934809E+004.2535201347E-01+
*       1.3229149222E+00               0
GRID*               6660               0-1.241936158E+003.6423361587E-01+
*       1.3637503265E+00               0
GRID*               6661               0-1.237614152E+003.6836517671E-01+
*       1.2402854755E+00               0
GRID*               6662               0-1.274997433E+005.6565346737E-01+
*       1.0092125423E-01               0
GRID*               6663               0-1.377688428E+00-2.373870755E-01+
*       8.7337920537E-01               0
GRID*               6664               0-1.339073077E+005.5134343384E-01+
*       1.5366860555E-01               0
GRID*               6665               0-1.333192004E+004.6378031352E-01+
*       2.1166757745E-01               0
GRID*               6666               0-1.343199057E+004.1346185828E-01+
*       8.5159069961E-01               0
GRID*               6667               0-1.294006257E+00-2.859235411E-01+
*       8.3513910789E-01               0
GRID*               6668               0-1.294007004E+00-2.969047920E-01+
*       7.9953049284E-01               0
GRID*               6669               0-1.252336580E+00-2.969026598E-01+
*       7.9954668799E-01               0
GRID*               6670               0-1.252339277E+00-2.859230204E-01+
*       8.3514036494E-01               0
GRID*               6671               0-1.232710256E+00-3.094692685E-01+
*       8.3319515771E-01               0
GRID*               6672               0-1.212453530E+00-2.597694021E-01+
*       8.2092347240E-01               0
GRID*               6673               0-1.377121305E+00-2.456033314E-01+
*       8.5252986572E-01               0
GRID*               6674               0-1.377121305E+00-2.565855626E-01+
*       8.1692488248E-01               0
GRID*               6675               01.2676216138E+00-2.587725795E-01+
*       1.0995355668E+00               0
GRID*               6676               01.3217521804E+00-2.235768436E-01+
*       1.1270121032E+00               0
GRID*               6677               01.2070929017E+00-2.355315712E-01+
*       1.3278386658E+00               0
GRID*               6678               01.1967521804E+00-1.273706543E-01+
*       1.1705842396E+00               0
GRID*               6679               01.1959248969E+00-5.874987274E-02+
*       1.1772407220E+00               0
GRID*               6680               01.2439271298E+00-1.209443537E-01+
*       1.2042832837E+00               0
GRID*               6681               0-1.309194588E+00-3.723903536E-01+
*       1.2120106905E+00               0
GRID*               6682               0-1.304592898E+00-4.410120822E-01+
*       1.3239884663E+00               0
GRID*               6683               0-1.308075517E+00-3.598130655E-01+
*       1.2429841419E+00               0
GRID*               6684               0-1.336554379E+00-4.188053163E-01+
*       1.2872468257E+00               0
GRID*               6685               0-1.169749740E+002.5712323090E-01+
*       6.5417917211E-01               0
GRID*               6686               0-1.336043561E+001.5503709284E-01+
*       9.6329655543E-01               0
GRID*               6687               0-1.310829791E+001.8745502058E-01+
*       1.0063721952E+00               0
GRID*               6688               0-1.356454898E+001.7590048571E-01+
*       9.7614242581E-01               0
GRID*               6689               0-1.231309843E+002.7837603049E-01+
*       9.2544536315E-01               0
GRID*               6690               0-1.211851489E+009.0928116725E-03+
*       4.8454430579E-01               0
GRID*               6691               0-1.238259093E+001.6061498520E-02+
*       4.3542264173E-01               0
GRID*               6692               0-1.258492851E+002.5659295144E-02+
*       4.5158054367E-01               0
GRID*               6693               0-1.211475714E+002.8300874972E-02+
*       4.8569645681E-01               0
GRID*               6694               0-1.191241955E+001.8703078348E-02+
*       4.6953855487E-01               0
GRID*               6695               0-1.237883318E+003.5269561820E-02+
*       4.3657479275E-01               0
GRID*               6696               0-1.210766398E+006.8711962480E-02+
*       2.8180870014E-01               0
GRID*               6697               0-1.343199057E+004.5429918250E-01+
*       8.1284423226E-01               0
GRID*               6698               0-1.279398909E+004.5317757899E-01+
*       7.9530014844E-01               0
GRID*               6699               0-1.334949800E+005.1434851326E-01+
*       7.9392752809E-01               0
GRID*               6700               0-1.333877938E+004.9470287743E-01+
*       8.8171386664E-01               0
GRID*               6701               0-1.270077790E+004.9358127392E-01+
*       8.6416978282E-01               0
GRID*               6702               0-1.341825201E+005.4081021820E-02+
*       4.1523959153E-01               0
GRID*               6703               0-1.327994998E+001.1792976061E-01+
*       4.3444586835E-01               0
GRID*               6704               0-1.334407820E+002.9187132626E-01+
*       5.5268948949E-01               0
GRID*               6705               0-1.271902771E+006.8552820736E-01+
*       6.8025382967E-01               0
GRID*               6706               0-1.304075684E+007.1779197064E-01+
*       7.2765376857E-01               0
GRID*               6707               0-1.304071605E+007.1779197064E-01+
*       6.8195436690E-01               0
GRID*               6708               0-1.302228448E+006.5332017801E-01+
*       6.5790759825E-01               0
GRID*               6709               0-1.203905038E+004.5720350627E-01+
*       5.2231895925E-01               0
GRID*               6710               0-1.212541453E+003.9061491942E-01+
*       5.4401084842E-01               0
GRID*               6711               01.8202056153E+00-5.848431301E-01+
*       -6.380526974E-02               0
GRID*               6712               01.8553253319E+00-6.011445138E-01+
*       -2.215913811E-02               0
GRID*               6713               01.8209207628E+00-5.858104109E-01+
*       -4.403025436E-02               0
GRID*               6714               01.8111855687E+00-6.013217467E-01+
*       -6.409329160E-02               0
GRID*               6715               0-1.211989499E+00-3.714584411E-01+
*       3.0285363705E-01               0
GRID*               6716               0-1.330679749E+00-1.627179245E-01+
*       4.5949097913E-01               0
GRID*               6717               0-1.330679749E+00-2.162210113E-01+
*       4.7892607108E-01               0
GRID*               6718               0-1.339500903E+00-2.096251880E-01+
*       4.1540259185E-01               0
GRID*               6719               01.7397361419E+003.8905243787E-01+
*       -2.101132454E-02               0
GRID*               6720               01.7193373824E+003.8190468287E-01+
*       -2.123578210E-02               0
GRID*               6721               0-1.209407835E+003.4868319043E-01+
*       5.0690235513E-01               0
GRID*               6722               01.8337311367E+004.3880927757E-01+
*       -5.404280143E-02               0
GRID*               6723               01.8163582749E+004.3945340996E-01+
*       -7.377129515E-02               0
GRID*               6724               01.8002216848E+004.7471966109E-01+
*       -9.382930943E-02               0
GRID*               6725               01.8175945466E+004.7407552871E-01+
*       -7.410081571E-02               0
GRID*               6726               01.8489526716E+004.5281138969E-01+
*       -8.426655115E-02               0
GRID*               6727               01.8664897663E+00-5.990254620E-01+
*       -1.983790530E-01               0
GRID*               6728               01.8333443107E+00-5.631543812E-01+
*       -1.473024180E-01               0
GRID*               6729               01.8656044920E+00-5.641289192E-01+
*       -1.989233650E-01               0
GRID*               6730               01.8654896290E+00-5.845036271E-01+
*       -2.279196438E-01               0
GRID*               6731               01.8332294477E+00-5.835290892E-01+
*       -1.762986967E-01               0
GRID*               6732               01.8323441735E+00-5.486325463E-01+
*       -1.768430088E-01               0
GRID*               6733               01.8543534563E+00-7.131388627E-01+
*       -1.145924302E-01               0
GRID*               6734               01.8059551696E+00-7.131388627E-01+
*       -1.146758644E-01               0
GRID*               6735               01.8287772082E+00-6.815081723E-01+
*       -8.340061317E-02               0
GRID*               6736               01.7413441069E+00-7.148178358E-01+
*       -2.287563886E-01               0
GRID*               6737               01.7688958182E+00-7.148178358E-01+
*       -1.663398227E-01               0
GRID*               6738               01.8172941049E+00-7.148178358E-01+
*       -2.287563886E-01               0
GRID*               6739               01.8000436315E+00-5.334469456E-01+
*       -1.572569025E-01               0
GRID*               6740               01.8000514356E+00-4.948349064E-01+
*       -1.155898302E-01               0
GRID*               6741               01.8000431603E+00-5.334480847E-01+
*       -1.155903917E-01               0
GRID*               6742               01.8000509612E+00-4.948337598E-01+
*       -1.572563399E-01               0
GRID*               6743               01.7546997718E+00-5.959867165E-01+
*       -2.295112680E-01               0
GRID*               6744               01.7774093443E+00-5.647350826E-01+
*       -2.295112680E-01               0
GRID*               6745               01.7774087342E+00-5.647365354E-01+
*       -1.878448054E-01               0
GRID*               6746               01.8656295572E+00-7.289784370E-01+
*       -2.283657533E-01               0
GRID*               6747               01.7841737145E+00-6.937962729E-01+
*       -2.071221419E-01               0
GRID*               6748               01.8172312706E+00-7.289784370E-01+
*       -1.659491875E-01               0
GRID*               6749               01.7848595735E+00-5.201385666E-01+
*       -1.879579208E-01               0
GRID*               6750               01.7848669032E+00-4.815253808E-01+
*       -1.879573582E-01               0
GRID*               6751               01.8172749785E+00-5.149494594E-01+
*       -1.785477483E-01               0
GRID*               6752               0-1.230162230E+002.4448158854E-01+
*       5.2922795206E-01               0
GRID*               6753               0-1.191166052E+002.3642797849E-01+
*       5.7603009863E-01               0
GRID*               6754               01.7848601836E+00-5.201371137E-01+
*       -2.296243833E-01               0
GRID*               6755               01.7946400811E+00-5.462390493E-01+
*       -2.091356513E-01               0
GRID*               6756               01.8115947041E+00-6.148425158E-01+
*       -1.130436707E-01               0
GRID*               6757               01.8557344673E+00-6.146652828E-01+
*       -7.110951725E-02               0
GRID*               6758               01.8123098516E+00-6.158097966E-01+
*       -9.326865536E-02               0
GRID*               6759               0-1.339073077E+005.4501530272E-01+
*       2.3432171559E-01               0
GRID*               6760               0-1.329369575E+005.6124359088E-01+
*       2.9816845560E-01               0
GRID*               6761               01.2597031759E+00-1.951202534E-01+
*       1.1040642808E+00               0
GRID*               6762               03.7961981660E-012.4350331069E-01+
*       -1.185894957E-01               0
GRID*               6763               01.3075702311E+00-1.104306419E-01+
*       4.8293198189E-01               0
GRID*               6764               01.8829338700E-05-1.872171513E-01+
*       -1.875869280E-01               0
GRID*               6765               02.2764215487E-011.8739053836E-01+
*       -1.874578079E-01               0
GRID*               6766               01.5183455728E-011.8732306639E-01+
*       -1.874522508E-01               0
GRID*               6767               01.8993607364E-011.8740746121E-01+
*       -1.249100586E-01               0
GRID*               6768               01.3045406996E+004.2610178303E-01+
*       1.3230809342E+00               0
GRID*               6769               02.6581976467E-012.4660837046E-01+
*       -1.843426600E-01               0
GRID*               6770               03.4142264070E-012.4645354720E-01+
*       -1.843426600E-01               0
GRID*               6771               01.1797657759E+001.9329264792E-01+
*       1.4447427884E+00               0
GRID*               6772               01.1797657759E+002.5225164136E-01+
*       1.3716254031E+00               0
GRID*               6773               01.1797657759E+002.6364004990E-01+
*       1.4234032198E+00               0
GRID*               6774               01.5234353206E-011.8763235964E-01+
*       -6.245225075E-02               0
GRID*               6775               0-1.755405440E+00-5.958779472E-01+
*       -6.263145140E-02               0
GRID*               6776               0-1.307151055E+00-2.713673023E-01+
*       6.5217901921E-01               0
GRID*               6777               0-1.327373620E+00-2.855245146E-01+
*       6.3492905064E-01               0
GRID*               6778               0-1.258203184E+00-2.546764470E-01+
*       5.2587567627E-01               0
GRID*               6779               0-1.304112912E+00-2.538890059E-01+
*       5.4553498325E-01               0
GRID*               6780               0-1.326273383E+00-2.651020874E-01+
*       5.1772438382E-01               0
GRID*               6781               0-1.343128408E+00-2.561398918E-01+
*       4.3106825282E-01               0
GRID*               6782               0-1.275058209E+00-2.457142515E-01+
*       4.3921954526E-01               0
GRID*               6783               0-1.270651844E+00-2.945953275E-01+
*       4.7801785800E-01               0
GRID*               6784               0-1.326273383E+00-3.462303325E-01+
*       5.7559507569E-01               0
GRID*               6785               01.2112959133E+002.6929498813E-01+
*       7.6373623391E-01               0
GRID*               6786               01.2189886988E+003.3097523451E-01+
*       7.9479351701E-01               0
GRID*               6787               01.2397761458E+003.1168024639E-01+
*       7.8105728310E-01               0
GRID*               6788               01.2128376592E+002.6957705777E-01+
*       7.4030052166E-01               0
GRID*               6789               01.1920502122E+002.8887204590E-01+
*       7.5403675558E-01               0
GRID*               6790               01.2205304447E+003.3125730416E-01+
*       7.7135780476E-01               0
GRID*               6791               01.2600105525E+002.7156760658E-01+
*       8.6417201748E-01               0
GRID*               6792               01.2397756942E+003.0612584007E-01+
*       8.1790311884E-01               0
GRID*               6793               01.2118058565E+002.5513994660E-01+
*       8.4280873921E-01               0
GRID*               6794               01.2397339520E+002.8781636582E-01+
*       8.8328908521E-01               0
GRID*               6795               01.2194990936E+003.2237459930E-01+
*       8.3702018657E-01               0
GRID*               6796               01.3319800033E+00-8.844255602E-02+
*       3.0009187037E-01               0
GRID*               6797               01.1700760405E+008.7438787454E-02+
*       4.9483996246E-01               0
GRID*               6798               01.1697943291E+001.0877754435E-01+
*       5.0454692316E-01               0
GRID*               6799               01.2114589525E+001.0878571492E-01+
*       5.0455033642E-01               0
GRID*               6800               01.1911204220E+001.0488218994E-01+
*       4.8210262843E-01               0
GRID*               6801               01.1694643147E+003.2109396871E-02+
*       4.8197768473E-01               0
GRID*               6802               01.2111296849E+003.2114914532E-02+
*       4.8197843203E-01               0
GRID*               6803               01.1698711851E+008.6459914791E-03+
*       4.8033227179E-01               0
GRID*               6804               01.1905855523E+002.2073117306E-02+
*       4.6160888855E-01               0
GRID*               6805               01.2115365553E+008.6515091404E-03+
*       4.8033301909E-01               0
GRID*               6806               0-1.348818705E+00-2.993740803E-01+
*       6.1665275869E-01               0
GRID*               6807               0-1.326273383E+00-2.924072977E-01+
*       5.6757955741E-01               0
GRID*               6808               01.3407213225E+00-3.278347763E-01+
*       9.3655574368E-01               0
GRID*               6809               01.3409487724E+00-3.579469453E-01+
*       8.7076708821E-01               0
GRID*               6810               01.3483582649E+00-3.975059525E-01+
*       9.4086700656E-01               0
GRID*               6811               01.2903296399E+00-3.503538627E-01+
*       9.4607945412E-01               0
GRID*               6812               01.2082790760E+001.6205470115E-01+
*       8.2415267933E-02               0
GRID*               6813               01.2103690985E+001.6749511275E-02+
*       3.0202083687E-02               0
GRID*               6814               0-1.205679756E+00-2.443182839E-01+
*       4.5726885294E-01               0
GRID*               6815               0-1.214500911E+00-2.377224606E-01+
*       3.9374537370E-01               0
GRID*               6816               0-1.218128416E+00-2.842371644E-01+
*       4.0941103467E-01               0
GRID*               6817               0-5.323639406E-016.8852789722E-01+
*       -1.819327423E-01               0
GRID*               6818               0-1.336989480E+00-3.357858824E-01+
*       2.9692034062E-01               0
GRID*               6819               0-1.141712585E-017.1851504982E-01+
*       -2.168743178E-01               0
GRID*               6820               0-1.140446578E-016.5673204124E-01+
*       -1.544038635E-01               0
GRID*               6821               01.3143814619E+009.5562115409E-02+
*       -3.697063031E-02               0
GRID*               6822               01.2565369216E+004.6262145774E-02+
*       -4.720933387E-02               0
GRID*               6823               01.2103690985E+009.1749511275E-02+
*       3.0202083687E-02               0
GRID*               6824               03.0391931027E-015.6224076498E-01+
*       -1.874948901E-01               0
GRID*               6825               01.6607108636E+00-6.345598897E-01+
*       -2.283518659E-01               0
GRID*               6826               01.6974662006E+00-6.226281022E-01+
*       -2.283518659E-01               0
GRID*               6827               01.6974661159E+00-6.226281580E-01+
*       -1.866852056E-01               0
GRID*               6828               01.2667782723E+00-4.111770954E-01+
*       -1.889169706E-01               0
GRID*               6829               01.4921838196E+00-4.205687178E-01+
*       -1.024297352E-01               0
GRID*               6830               01.4748123763E+00-4.184972996E-01+
*       -8.285852459E-02               0
GRID*               6831               01.4858501211E+00-3.960582325E-01+
*       -8.163848809E-02               0
GRID*               6832               01.5186657409E-011.2488800810E-01+
*       -1.249537453E-01               0
GRID*               6833               01.1396015993E-011.8724117901E-01+
*       -1.249481882E-01               0
GRID*               6834               07.4449767927E-01-8.432349753E-02+
*       -5.672958605E-02               0
GRID*               6835               07.4144046093E-01-1.817430051E-01+
*       -6.112015393E-02               0
GRID*               6836               07.0931141148E-01-2.985682854E-02+
*       -5.672958605E-02               0
GRID*               6837               06.7597564319E-01-5.579337670E-02+
*       -5.251898578E-02               0
GRID*               6838               06.8023614743E-01-9.611819484E-02+
*       -1.817295861E-01               0
GRID*               6839               06.1171411135E-01-6.758807400E-02+
*       -1.775189858E-01               0
GRID*               6840               03.4155119658E-01-3.731185834E-01+
*       -1.874634234E-01               0
GRID*               6841               0-1.872131359E+00-3.335487275E-01+
*       -3.065237919E-02               0
GRID*               6842               0-1.819303077E+00-3.650494958E-01+
*       -3.065237919E-02               0
GRID*               6843               0-1.872131359E+00-4.085487275E-01+
*       -3.065237919E-02               0
GRID*               6844               05.3115163032E-01-4.269573034E-01+
*       -6.231010422E-02               0
GRID*               6845               0-4.567463197E-016.2644343105E-01+
*       -1.192398708E-01               0
GRID*               6846               0-4.954323293E-016.2449300157E-01+
*       -5.693274233E-02               0
GRID*               6847               0-4.578076700E-016.5403203317E-01+
*       -3.114263751E-02               0
GRID*               6848               0-4.191216605E-016.5598246265E-01+
*       -9.344976601E-02               0
GRID*               6849               0-4.954532366E-016.5659482604E-01+
*       -8.807537984E-02               0
GRID*               6850               0-5.702346224E-017.1878667794E-01+
*       -2.185863890E-01               0
GRID*               6851               0-6.081550109E-016.5620291227E-01+
*       -2.185863890E-01               0
GRID*               6852               0-5.709485777E-016.5731457516E-01+
*       -1.505191313E-01               0
GRID*               6853               0-1.253253591E+006.3633155067E-01+
*       -8.693117367E-02               0
GRID*               6854               0-4.947817417E-016.5725666837E-01+
*       -1.505883701E-01               0
GRID*               6855               0-4.566073807E-015.5969290467E-01+
*       -6.296419942E-02               0
GRID*               6856               0-5.698311206E-01-7.184855296E-01+
*       -2.187480613E-01               0
GRID*               6857               0-7.219995842E-01-7.181890442E-01+
*       -2.190628516E-01               0
GRID*               6858               0-8.361967587E-01-3.946481583E-01+
*       -1.291608770E-01               0
GRID*               6859               0-5.736565017E-01-7.187832158E-01+
*       -3.125307032E-02               0
GRID*               6860               0-6.502398394E-01-7.187832158E-01+
*       -3.125307032E-02               0
GRID*               6861               01.2976044091E+001.8771907841E-01+
*       -1.921727140E-01               0
GRID*               6862               0-7.275022246E-01-7.180338891E-01+
*       -3.151801154E-02               0
GRID*               6863               0-8.040855624E-01-7.180338891E-01+
*       -3.151801154E-02               0
GRID*               6864               01.2497450590E+001.3977686737E-01+
*       -2.072729661E-01               0
GRID*               6865               0-1.818976085E+00-2.868136393E-01+
*       -5.228768191E-02               0
GRID*               6866               0-1.766147803E+00-3.183144076E-01+
*       -5.228768191E-02               0
GRID*               6867               0-1.792357497E+00-3.203623668E-01+
*       -8.294006110E-02               0
GRID*               6868               0-1.617915866E+00-3.606256525E-01+
*       -2.286382781E-01               0
GRID*               6869               0-1.581165337E+00-3.725722623E-01+
*       -2.286382781E-01               0
GRID*               6870               01.3522109036E+00-8.317205381E-03+
*       -1.283335247E-01               0
GRID*               6871               01.4726633329E+005.5754566077E-01+
*       -2.103888567E-02               0
GRID*               6872               01.4864860627E+005.9210644144E-01+
*       -1.182232493E-01               0
GRID*               6873               01.4567329312E+005.1461001035E-01+
*       -1.033612001E-01               0
GRID*               6874               01.5170677510E+005.5786285394E-01+
*       -6.388100430E-02               0
GRID*               6875               01.4736708273E+006.1129599072E-01+
*       -9.877095397E-02               0
GRID*               6876               01.4439176958E+005.3379955963E-01+
*       -8.390890476E-02               0
GRID*               6877               01.4756079439E+006.1363645691E-01+
*       -1.815520079E-01               0
GRID*               6878               01.5190050573E+005.6020392476E-01+
*       -1.883287589E-01               0
GRID*               6879               01.4953692269E+005.5202577953E-01+
*       -2.079589879E-01               0
GRID*               6880               01.4005798287E+007.1769840148E-01+
*       -2.209136588E-01               0
GRID*               6881               01.4005994181E+006.6546819059E-01+
*       -1.724702583E-01               0
GRID*               6882               01.5579241812E+006.3699647749E-01+
*       -1.562098336E-01               0
GRID*               6883               01.5596582274E+006.5753261777E-01+
*       -1.764414666E-01               0
GRID*               6884               01.5354498692E+006.4448210364E-01+
*       -1.756343611E-01               0
GRID*               6885               01.1272371864E+001.2519019917E-01+
*       -6.652359993E-02               0
GRID*               6886               01.1555472650E+001.4161615163E-01+
*       -1.487965661E-01               0
GRID*               6887               0-9.502336856E-01-7.177892010E-01+
*       -2.207037974E-01               0
GRID*               6888               0-9.870568618E-01-7.160432845E-01+
*       -2.179550602E-01               0
GRID*               6889               0-8.939387692E-01-6.163279251E-01+
*       -1.997755817E-01               0
GRID*               6890               0-1.174627410E+00-7.167053860E-01+
*       -2.201581949E-01               0
GRID*               6891               0-1.538981665E+006.4696823394E-01+
*       -7.380432996E-02               0
GRID*               6892               0-1.555981590E+006.3794957488E-01+
*       -9.474510914E-02               0
GRID*               6893               0-1.519714204E+006.8381092568E-01+
*       -8.521611797E-02               0
GRID*               6894               0-1.490590462E+006.6056157622E-01+
*       -1.182264572E-01               0
GRID*               6895               0-1.368162512E+006.2329541164E-01+
*       -1.422093455E-01               0
GRID*               6896               0-1.038112557E+00-6.030776946E-01+
*       -7.720864003E-02               0
GRID*               6897               0-1.091195257E+00-5.989128012E-01+
*       -7.877727552E-02               0
GRID*               6898               0-1.138767329E+00-7.154013578E-01+
*       -2.207830134E-01               0
GRID*               6899               0-1.102344935E+00-7.154013578E-01+
*       -1.590049281E-01               0
GRID*               6900               0-1.101042620E+00-7.153824869E-01+
*       -2.192930396E-01               0
GRID*               6901               0-1.100559981E+00-6.807838447E-01+
*       -1.900760529E-01               0
GRID*               6902               0-1.064620226E+00-7.153824869E-01+
*       -1.575149542E-01               0
GRID*               6903               0-1.343939392E+00-6.044433317E-01+
*       -7.091904985E-02               0
GRID*               6904               0-1.312947549E+00-6.426438098E-01+
*       -8.006739780E-02               0
GRID*               6905               0-1.387521183E+00-6.362287750E-01+
*       -3.307845310E-02               0
GRID*               6906               0-1.332710628E+00-6.406721067E-01+
*       -1.039975030E-01               0
GRID*               6907               0-1.356529341E+00-6.744292531E-01+
*       -4.222680105E-02               0
GRID*               6908               0-1.001613294E+00-5.703430843E-01+
*       -4.678510994E-02               0
GRID*               6909               0-5.709184672E-016.2269797479E-01+
*       -5.693274233E-02               0
GRID*               6910               0-5.713450246E-016.5587667671E-01+
*       -8.794401928E-02               0
GRID*               6911               0-6.472892769E-016.6018775212E-01+
*       -8.772531858E-02               0
GRID*               6912               0-1.458507855E+00-5.916366253E-01+
*       -7.229113716E-02               0
GRID*               6913               0-1.416702349E+00-5.823428451E-01+
*       -7.229113716E-02               0
GRID*               6914               0-1.429326689E+00-6.455225553E-01+
*       -3.307845310E-02               0
GRID*               6915               0-1.405473584E+00-6.185716201E-01+
*       -1.053695903E-01               0
GRID*               6916               0-1.432577840E+00-7.185838963E-01+
*       -2.207339127E-01               0
GRID*               6917               0-1.462338830E+00-7.185838963E-01+
*       -1.591238664E-01               0
GRID*               6918               0-1.387806329E+00-7.185838963E-01+
*       -1.620464039E-01               0
GRID*               6919               0-5.683685980E-013.7430670321E-01+
*       -1.780562806E-01               0
GRID*               6920               0-6.066495404E-014.3642299294E-01+
*       -1.856463409E-01               0
GRID*               6921               0-6.433116437E-013.7047976471E-01+
*       -1.862051445E-01               0
GRID*               6922               0-6.046605936E-013.6987982476E-01+
*       -1.142614251E-01               0
GRID*               6923               0-6.429415360E-014.3199611450E-01+
*       -1.218514855E-01               0
GRID*               6924               0-6.447243372E-014.9892964795E-01+
*       -1.856463409E-01               0
GRID*               6925               0-4.203726331E-017.1806692882E-01+
*       -3.114263751E-02               0
GRID*               6926               01.3374542127E+00-4.623667056E-01+
*       6.3815029450E-01               0
GRID*               6927               05.3232648686E-01-6.874990724E-01+
*       -1.875199469E-01               0
GRID*               6928               04.9410167413E-01-7.187072081E-01+
*       -2.187531567E-01               0
GRID*               6929               04.9477817567E-01-6.562062806E-01+
*       -1.562731036E-01               0
GRID*               6930               0-2.277532328E-01-9.382873933E-04+
*       -1.249421523E-01               0
GRID*               6931               05.7019110758E-01-7.187913782E-01+
*       -2.186750756E-01               0
GRID*               6932               05.7086760912E-01-6.562904506E-01+
*       -1.561950225E-01               0
GRID*               6933               06.0943122584E-01-7.187913782E-01+
*       -1.561847867E-01               0
GRID*               6934               06.4795930980E-01-6.926624755E-01+
*       -1.191587417E-01               0
GRID*               6935               06.4726031380E-01-6.614538536E-01+
*       -1.503241062E-01               0
GRID*               6936               01.2236548289E+001.3634650306E-01+
*       3.2971061560E-01               0
GRID*               6937               01.2196118047E+002.2442788495E-01+
*       3.6036248592E-01               0
GRID*               6938               01.3486548204E+001.0689373590E-01+
*       3.3070831907E-01               0
GRID*               6939               01.2753749454E+001.3001874347E-01+
*       3.7334848896E-01               0
GRID*               6940               0-1.330364262E+008.4672400537E-02+
*       1.3064186434E+00               0
GRID*               6941               0-1.329705978E+001.5843488892E-01+
*       1.2408376986E+00               0
GRID*               6942               0-1.331326222E+001.7830850776E-01+
*       1.3065954853E+00               0
GRID*               6943               01.3363471499E+002.7731531088E-01+
*       4.7175105811E-01               0
GRID*               6944               01.3363471499E+002.2855815584E-01+
*       5.0552119536E-01               0
GRID*               6945               01.3353892199E+001.5233865309E-01+
*       5.3110442291E-01               0
GRID*               6946               01.3146510456E+001.9155996264E-01+
*       5.0700716406E-01               0
GRID*               6947               01.2946825265E+001.9507788459E-01+
*       5.3043644587E-01               0
GRID*               6948               01.3353847181E+001.7251311106E-01+
*       5.4262335680E-01               0
GRID*               6949               01.3553532372E+001.6899518911E-01+
*       5.1919407499E-01               0
GRID*               6950               01.3146465438E+002.1173442061E-01+
*       5.1852609795E-01               0
GRID*               6951               0-1.222999627E+001.6702075513E-01+
*       1.0334842071E+00               0
GRID*               6952               0-1.206542644E+001.0234978240E-01+
*       1.0090298753E+00               0
GRID*               6953               0-1.205437967E+001.0498160618E-01+
*       9.9729537536E-01               0
GRID*               6954               0-1.221894950E+001.6965257891E-01+
*       1.0217497072E+00               0
GRID*               6955               0-1.179901417E+001.1598090079E-01+
*       1.0236163338E+00               0
GRID*               6956               0-1.403487544E+005.0785812036E-02+
*       -1.942131125E-01               0
GRID*               6957               0-1.706539544E+006.2017515438E-01+
*       -2.111871252E-02               0
GRID*               6958               0-1.743264724E+006.0824598711E-01+
*       -6.278484411E-02               0
GRID*               6959               0-1.743261390E+006.0824855914E-01+
*       -2.111871252E-02               0
GRID*               6960               0-1.326359736E+00-3.731868142E-01+
*       3.9002416606E-01               0
GRID*               6961               0-1.343128408E+00-3.040155616E-01+
*       3.7335860929E-01               0
GRID*               6962               0-1.343128408E+00-3.226009987E-01+
*       4.3291872541E-01               0
GRID*               6963               0-1.270738197E+00-3.548043846E-01+
*       4.0802728377E-01               0
GRID*               6964               0-1.661960620E+003.5853018079E-01+
*       -1.874417791E-01               0
GRID*               6965               0-1.661960620E+003.5853018078E-01+
*       -2.291084457E-01               0
GRID*               6966               0-1.633521073E+003.5723124218E-01+
*       -2.288790384E-01               0
GRID*               6967               0-1.633521073E+003.5723124219E-01+
*       -1.872123717E-01               0
GRID*               6968               0-1.646681245E+003.4076141275E-01+
*       -2.079874841E-01               0
GRID*               6969               0-6.413898584E-013.6340725694E-01+
*       -6.120514455E-02               0
GRID*               6970               07.5921747243E-022.4960248706E-01+
*       -1.249330192E-01               0
GRID*               6971               01.1390746855E-012.4977213205E-01+
*       -1.874522508E-01               0
GRID*               6972               07.5912104592E-023.1221542551E-01+
*       -1.875523629E-01               0
GRID*               6973               01.1403429552E-013.1220392558E-01+
*       -1.250046137E-01               0
GRID*               6974               0-1.350458340E+008.0903066566E-02+
*       1.0859643931E+00               0
GRID*               6975               0-1.265483328E+00-2.823490734E-01+
*       6.8778889148E-01               0
GRID*               6976               0-1.265484075E+00-2.713678231E-01+
*       6.5218027626E-01               0
GRID*               6977               0-1.211530540E+00-2.591528393E-01+
*       6.9831524112E-01               0
GRID*               6978               0-1.244934674E+00-2.942948542E-01+
*       6.7334674119E-01               0
GRID*               6979               0-1.211531286E+00-2.481715889E-01+
*       6.6270662589E-01               0
GRID*               6980               0-1.170379102E+00-2.429088583E-01+
*       6.4362624316E-01               0
GRID*               6981               0-1.212044473E+00-2.429109690E-01+
*       6.4363139472E-01               0
GRID*               6982               0-1.169792533E+00-2.378008304E-01+
*       6.2072142227E-01               0
GRID*               6983               0-1.191421688E+00-2.554693523E-01+
*       6.2281780759E-01               0
GRID*               6984               0-1.211457903E+00-2.378029411E-01+
*       6.2072657384E-01               0
GRID*               6985               02.2906074238E-015.6280238442E-01+
*       -6.259582575E-02               0
GRID*               6986               0-1.211016318E+00-1.851038126E-01+
*       5.5661987640E-01               0
GRID*               6987               0-1.169350062E+00-1.851027810E-01+
*       5.5661851061E-01               0
GRID*               6988               0-1.170618623E+00-2.068617074E-01+
*       5.7425134221E-01               0
GRID*               6989               0-1.212284879E+00-2.068627390E-01+
*       5.7425270800E-01               0
GRID*               6990               0-1.191218737E+00-2.087020986E-01+
*       5.5091259287E-01               0
GRID*               6991               01.7701539610E+00-6.621269062E-01+
*       -2.287563886E-01               0
GRID*               6992               01.6788315271E+00-6.835678333E-01+
*       -2.287563886E-01               0
GRID*               6993               01.9035057078E-015.6273104203E-01+
*       -1.250633896E-01               0
GRID*               6994               02.6592913846E-014.9970303612E-01+
*       -1.874948901E-01               0
GRID*               6995               02.2825343695E-014.9968641086E-01+
*       -1.249624540E-01               0
GRID*               6996               04.1815052256E-017.1838765191E-01+
*       -2.168607501E-01               0
GRID*               6997               04.1843232309E-016.5661061740E-01+
*       -1.543094379E-01               0
GRID*               6998               04.5577471497E-016.5565309591E-01+
*       -2.168607501E-01               0
GRID*               6999               0-1.205679750E+00-1.980569257E-01+
*       4.8681053513E-01               0
GRID*               7000               01.5568582979E+00-1.936475911E-02+
*       -6.020436546E-02               0
GRID*               7001               01.6270630656E+00-5.987170687E-02+
*       -6.064777857E-02               0
GRID*               7002               01.6319525706E+00-2.132503126E-01+
*       -6.508814605E-02               0
GRID*               7003               01.6928933200E+00-9.708292574E-02+
*       -6.064777857E-02               0
GRID*               7004               01.6411895251E+00-2.865967742E-01+
*       -6.508814605E-02               0
GRID*               7005               01.5973010867E+00-3.072732227E-01+
*       -6.508814605E-02               0
GRID*               7006               01.6267463121E+00-3.261977354E-01+
*       -1.484214794E-01               0
GRID*               7007               01.6777525308E+00-2.726979906E-01+
*       -1.188418066E-01               0
GRID*               7008               01.6619330337E+00-3.576370066E-01+
*       -1.870708893E-01               0
GRID*               7009               01.6399293983E+00-3.088347420E-01+
*       -1.688257020E-01               0
GRID*               7010               01.7129392524E+00-3.041372618E-01+
*       -1.574912165E-01               0
GRID*               7011               01.4883188527E+00-1.646483082E-01+
*       -1.244484049E-01               0
GRID*               7012               01.7001072196E+00-1.163607197E-01+
*       -1.856477786E-01               0
GRID*               7013               01.3262848870E+003.2735572329E-01+
*       7.0865299291E-01               0
GRID*               7014               01.3047944424E+003.0936326863E-01+
*       7.2033362172E-01               0
GRID*               7015               01.3245816570E+003.2636845149E-01+
*       7.3130092631E-01               0
GRID*               7016               0-1.334949800E+005.6673099063E-01+
*       7.8292334662E-01               0
GRID*               7017               01.7049624247E+00-2.085528323E-01+
*       -5.375366057E-02               0
GRID*               7018               01.3982977901E+006.9776978911E-01+
*       -1.428696772E-01               0
GRID*               7019               01.4728305102E+006.9776978911E-01+
*       -1.399466617E-01               0
GRID*               7020               01.7141993792E+00-2.818992940E-01+
*       -5.375366057E-02               0
GRID*               7021               01.1699916289E+00-2.287103934E-01+
*       6.0692046972E-01               0
GRID*               7022               01.1699916289E+00-2.077214201E-01+
*       5.7613417077E-01               0
GRID*               7023               0-1.343783832E+00-4.153688495E-01+
*       1.1625387572E+00               0
GRID*               7024               0-1.449748053E+00-5.109097699E-01+
*       -9.513393903E-02               0
GRID*               7025               0-1.416702349E+00-5.073428451E-01+
*       -7.229113716E-02               0
GRID*               7026               0-1.431019426E+00-4.741306164E-01+
*       -2.121538082E-02               0
GRID*               7027               0-1.464065131E+00-4.776975412E-01+
*       -4.405818269E-02               0
GRID*               7028               0-1.448971828E+00-5.314734614E-01+
*       -9.350651799E-02               0
GRID*               7029               0-1.341300507E+00-4.752292067E-01+
*       -1.405264437E-01               0
GRID*               7030               0-1.361891793E+00-5.867861768E-01+
*       -1.432101870E-01               0
GRID*               7031               0-1.358785258E+00-5.498036367E-01+
*       -5.761685722E-02               0
GRID*               7032               0-1.551542213E+006.0482529594E-01+
*       -2.285903185E-01               0
GRID*               7033               0-1.248676479E+00-6.042963582E-01+
*       4.2825799148E-03               0
GRID*               7034               0-1.251783014E+00-6.412788983E-01+
*       -8.131074988E-02               0
GRID*               7035               01.3773660705E+00-2.067403745E-01+
*       5.7393165076E-01               0
GRID*               7036               01.3771180719E+00-1.850843926E-01+
*       5.5678515300E-01               0
GRID*               7037               01.3557341949E+00-2.085623774E-01+
*       5.5075954380E-01               0
GRID*               7038               01.3354518151E+00-1.850854243E-01+
*       5.5678651879E-01               0
GRID*               7039               01.7877811773E+005.8340955584E-01+
*       -1.361482084E-01               0
GRID*               7040               01.7650850639E+006.1466792457E-01+
*       -1.361485534E-01               0
GRID*               7041               01.7650851652E+006.1466785759E-01+
*       -9.448189407E-02               0
GRID*               7042               01.2109585005E+001.7692440487E-01+
*       9.5830808650E-01               0
GRID*               7043               01.1692938771E+001.7693144640E-01+
*       9.5830271535E-01               0
GRID*               7044               01.1701569254E+001.5535783419E-01+
*       9.6326234559E-01               0
GRID*               7045               01.2118215488E+001.5535079267E-01+
*       9.6326771674E-01               0
GRID*               7046               01.1907008549E+001.7641861977E-01+
*       9.7610950230E-01               0
GRID*               7047               0-1.336029059E+001.0898416452E-01+
*       5.0481402380E-01               0
GRID*               7048               0-1.306938733E+001.4347165281E-01+
*       4.6660419856E-01               0
GRID*               7049               0-1.355834167E+001.0534679194E-01+
*       4.8210425631E-01               0
GRID*               7050               0-1.323348105E+00-4.178863616E-01+
*       -6.823530649E-02               0
GRID*               7051               0-1.324035104E+00-7.167812185E-01+
*       -2.212268924E-01               0
GRID*               7052               0-1.355213591E+00-7.167812185E-01+
*       -1.625393836E-01               0
GRID*               7053               0-1.323024540E+00-6.462245502E-01+
*       -1.671459423E-01               0
GRID*               7054               0-1.446790166E+00-2.125097905E-01+
*       -6.425771278E-02               0
GRID*               7055               0-1.409103978E+00-2.671667878E-01+
*       -1.368474863E-01               0
GRID*               7056               01.3292492904E+00-5.637004610E-01+
*       9.1085554552E-01               0
GRID*               7057               01.2167410579E+00-4.801184495E-01+
*       1.0100603930E+00               0
GRID*               7058               0-1.209407823E+002.8995827444E-01+
*       5.4313629187E-01               0
GRID*               7059               0-1.326359736E+00-4.555677036E-01+
*       4.5952305896E-01               0
GRID*               7060               0-1.337053776E+00-5.384334400E-01+
*       5.0006188270E-01               0
GRID*               7061               01.8825532030E+00-3.568011470E-01+
*       -2.205062940E-01               0
GRID*               7062               01.8825532030E+00-3.937748032E-01+
*       -1.580062940E-01               0
GRID*               7063               01.8779291826E+00-3.202957483E-01+
*       -2.253035217E-01               0
GRID*               7064               01.8617324381E+00-3.770968953E-01+
*       -1.958098157E-01               0
GRID*               7065               01.8779291826E+00-3.572694045E-01+
*       -1.628035217E-01               0
GRID*               7066               0-1.332979251E+005.6063863100E-01+
*       6.5323330366E-01               0
GRID*               7067               0-1.334402741E+005.6551131489E-01+
*       6.0362356392E-01               0
GRID*               7068               0-1.334402741E+006.2380430617E-01+
*       6.3634169995E-01               0
GRID*               7069               0-1.242201626E+00-7.161976356E-01+
*       7.2720773149E-01               0
GRID*               7070               0-1.243140186E+00-6.202504987E-01+
*       6.8731262635E-01               0
GRID*               7071               0-1.243778165E+00-7.138890491E-01+
*       7.6174824130E-01               0
GRID*               7072               0-1.212229784E+00-6.800866847E-01+
*       7.3895597279E-01               0
GRID*               7073               0-1.244716725E+00-6.179419122E-01+
*       7.2185313616E-01               0
GRID*               7074               01.2364858075E+00-5.955523420E-01+
*       9.2245238957E-01               0
GRID*               7075               01.3768705154E+002.6145144355E-01+
*       7.9781156397E-01               0
GRID*               7076               01.2344529577E+00-6.020888798E-01+
*       8.8795477169E-01               0
GRID*               7077               01.2980894972E+00-6.066244107E-01+
*       8.5341631020E-01               0
GRID*               7078               01.2667483315E+00-6.425525327E-01+
*       8.6349664230E-01               0
GRID*               7079               01.3051572758E+00-7.045499379E-01+
*       8.6287131979E-01               0
GRID*               7080               01.3364984416E+00-6.686218159E-01+
*       8.5279098769E-01               0
GRID*               7081               01.2981575777E+00-6.024289870E-01+
*       8.8714715097E-01               0
GRID*               7082               0-1.324827257E+00-4.442098851E-01+
*       9.8951356446E-01               0
GRID*               7083               0-1.169329773E+001.3585756403E-01+
*       5.2198147046E-01               0
GRID*               7084               0-1.339500903E+00-1.969425335E-01+
*       3.5158879215E-01               0
GRID*               7085               0-1.343128408E+00-2.434572373E-01+
*       3.6725445312E-01               0
GRID*               7086               0-1.214732837E+00-3.157717558E-01+
*       1.2228341182E+00               0
GRID*               7087               0-1.521808246E-013.1144190282E-01+
*       -6.248470325E-02               0
GRID*               7088               0-1.218128426E+00-3.396881202E-01+
*       3.7929190571E-01               0
GRID*               7089               0-1.218128429E+00-2.819927087E-01+
*       3.3551191969E-01               0
GRID*               7090               0-1.368590690E+007.1706036723E-01+
*       7.6097539738E-01               0
GRID*               7091               0-1.368590690E+007.0985448812E-01+
*       8.3413418941E-01               0
GRID*               7092               0-1.368590690E+006.5217790298E-01+
*       7.8070702187E-01               0
GRID*               7093               05.6878261852E-01-1.327063407E-01+
*       -1.971136469E-01               0
GRID*               7094               06.0520584701E-01-1.933487133E-01+
*       -1.842448470E-01               0
GRID*               7095               06.7717892909E-01-1.935377024E-01+
*       -1.861201539E-01               0
GRID*               7096               06.0503781096E-01-3.113447739E-01+
*       -5.924484699E-02               0
GRID*               7097               0-1.271683172E+005.4024968744E-01+
*       9.0601795400E-01               0
GRID*               7098               0-1.303540489E+005.6076800769E-01+
*       9.4614566536E-01               0
GRID*               7099               0-1.282053248E+00-2.875896498E-01+
*       1.1003338729E+00               0
GRID*               7100               0-1.216070359E+00-3.130606849E-01+
*       1.0289206454E+00               0
GRID*               7101               0-1.339732837E+00-3.054225398E-01+
*       1.1351942089E+00               0
GRID*               7102               0-1.339732837E+00-2.453260915E-01+
*       1.1477019600E+00               0
GRID*               7103               01.5083078136E+00-7.462735785E-02+
*       -1.881637200E-01               0
GRID*               7104               01.5609439509E+00-4.107959204E-02+
*       -1.233680854E-01               0
GRID*               7105               0-1.314235261E+003.4154938977E-01+
*       -1.850106653E-01               0
GRID*               7106               01.7780305197E+005.6512122888E-01+
*       -2.090745969E-02               0
GRID*               7107               01.7780299176E+005.6512266246E-01+
*       -6.257392487E-02               0
GRID*               7108               01.7553335126E+005.9638205705E-01+
*       -2.090745969E-02               0
GRID*               7109               0-1.024560788E+007.1932077942E-01+
*       -2.206221259E-01               0
GRID*               7110               0-1.062851745E+006.5769337882E-01+
*       -2.206221259E-01               0
GRID*               7111               0-9.867372086E-016.5699016853E-01+
*       -2.206221259E-01               0
GRID*               7112               0-1.256266060E+002.0865055257E-01+
*       -1.866405491E-01               0
GRID*               7113               01.8666438629E+001.1233459969E-01+
*       -3.122069362E-02               0
GRID*               7114               01.8666438629E+003.7334599690E-02+
*       -3.122069362E-02               0
GRID*               7115               0-1.118365650E+001.0711818214E-01+
*       -1.921292033E-01               0
GRID*               7116               0-1.180676645E+00-4.050460779E-01+
*       1.3392367199E+00               0
GRID*               7117               0-1.243176915E+00-4.346055653E-01+
*       1.3173143196E+00               0
GRID*               7118               0-1.243175566E+00-3.734781513E-01+
*       1.3581577245E+00               0
GRID*               7119               01.2099465147E+00-5.170331909E-01+
*       2.5644856859E-01               0
GRID*               7120               01.2099157206E+00-6.186574207E-01+
*       2.7959697908E-01               0
GRID*               7121               0-1.218783832E+00-3.938123712E-01+
*       1.1390512759E+00               0
GRID*               7122               0-1.218783832E+00-4.436878208E-01+
*       1.1792742874E+00               0
GRID*               7123               0-1.078914082E+002.7405536635E-01+
*       -1.933307292E-01               0
GRID*               7124               0-7.987489378E-01-6.251495630E-02+
*       -6.255580656E-02               0
GRID*               7125               0-8.571215217E-01-9.916293457E-02+
*       -6.255580656E-02               0
GRID*               7126               0-8.717284059E-014.7524689381E-01+
*       -1.853024599E-01               0
GRID*               7127               0-1.139255739E-011.2485507407E-01+
*       -1.874693155E-01               0
GRID*               7128               0-7.598145788E-021.8731227219E-01+
*       -1.874693155E-01               0
GRID*               7129               0-1.519324392E-011.8709141460E-01+
*       -1.874847033E-01               0
GRID*               7130               0-1.241378786E+00-5.511029438E-01+
*       1.1927811084E+00               0
GRID*               7131               0-1.248911278E+00-4.820509848E-01+
*       1.1482987297E+00               0
GRID*               7132               0-1.242500783E+00-5.465323120E-01+
*       1.2244387042E+00               0
GRID*               7133               0-1.210126836E+00-5.178727145E-01+
*       1.1914322225E+00               0
GRID*               7134               0-1.250033275E+00-4.774803530E-01+
*       1.1799563255E+00               0
GRID*               7135               0-3.042809795E-013.1350289991E-01+
*       -5.932752346E-02               0
GRID*               7136               0-2.282230032E-013.1108036841E-01+
*       -6.246286503E-02               0
GRID*               7137               0-9.876432169E-017.2054453733E-01+
*       -2.176658838E-01               0
GRID*               7138               0-9.498196375E-016.5821392644E-01+
*       -2.176658838E-01               0
GRID*               7139               0-9.510006773E-017.1782546441E-01+
*       -2.171182598E-01               0
GRID*               7140               0-9.512939215E-016.8837000174E-01+
*       -1.847841436E-01               0
GRID*               7141               0-9.131770980E-016.5549485352E-01+
*       -2.171182598E-01               0
GRID*               7142               0-7.601148669E-021.8691758552E-01+
*       -6.246931545E-02               0
GRID*               7143               0-1.139768541E-01-1.248331797E-01+
*       -1.875660673E-01               0
GRID*               7144               07.8084949756E-011.0632366558E-01+
*       -6.833198962E-02               0
GRID*               7145               0-6.441143588E-011.1452866224E-01+
*       -7.141550805E-02               0
GRID*               7146               0-6.606293201E-019.0157735802E-02+
*       -1.336020414E-01               0
GRID*               7147               0-6.728481863E-011.6847610556E-01+
*       -5.027006326E-02               0
GRID*               7148               0-5.831672575E-011.8033963746E-01+
*       -1.216855713E-01               0
GRID*               7149               0-6.893631476E-011.4410517912E-01+
*       -1.124565966E-01               0
GRID*               7150               0-1.280185753E+00-2.901769621E-01+
*       1.2425786235E+00               0
GRID*               7151               0-1.276703135E+00-3.713759788E-01+
*       1.3235829478E+00               0
GRID*               7152               0-1.246659534E+00-3.534065486E-01+
*       1.2363099953E+00               0
GRID*               7153               0-1.246129561E+00-3.301854079E-01+
*       1.3111406119E+00               0
GRID*               7154               04.1059825213E-05-6.226196966E-02+
*       -6.251055986E-02               0
GRID*               7155               07.6183987131E-02-6.218078835E-02+
*       -6.253999657E-02               0
GRID*               7156               01.3348743281E+00-4.092715058E-01+
*       4.6642776934E-01               0
GRID*               7157               01.2754306763E+00-6.598697341E-01+
*       7.8201850813E-01               0
GRID*               7158               01.3067718420E+00-6.239416121E-01+
*       7.7193817603E-01               0
GRID*               7159               06.8466918944E-01-6.926624755E-01+
*       -1.816490306E-01               0
GRID*               7160               06.4614110548E-01-7.187913782E-01+
*       -2.186750756E-01               0
GRID*               7161               07.2421448881E-01-6.926624755E-01+
*       -1.191792652E-01               0
GRID*               7162               06.8751921891E-01-6.926624755E-01+
*       -5.664903062E-02               0
GRID*               7163               0-8.899190362E-011.5559381208E-01+
*       -1.794334974E-01               0
GRID*               7164               06.4967750823E-01-7.175178594E-01+
*       -3.111960051E-02               0
GRID*               7165               06.4794668709E-01-6.601803348E-01+
*       -8.776863113E-02               0
GRID*               7166               06.1011759912E-01-7.175178594E-01+
*       -9.362931162E-02               0
GRID*               7167               0-1.302358958E+005.4707816394E-01+
*       9.7704219528E-01               0
GRID*               7168               0-1.521478564E+001.7466759465E-02+
*       -1.935502618E-01               0
GRID*               7169               01.2656743971E+006.9717008756E-01+
*       6.2642260437E-01               0
GRID*               7170               01.3048702402E+007.2076699979E-01+
*       6.6049020375E-01               0
GRID*               7171               01.3020038447E+006.7166730064E-01+
*       6.9587981291E-01               0
GRID*               7172               01.2968022187E+006.6793708735E-01+
*       6.2831141393E-01               0
GRID*               7173               06.4378035728E-01-1.031387124E-01+
*       -1.288432330E-01               0
GRID*               7174               02.2816112690E-016.8790161658E-01+
*       -1.875958258E-01               0
GRID*               7175               02.6677135988E-016.8790161658E-01+
*       -1.251005797E-01               0
GRID*               7176               01.9050262861E-016.8790161658E-01+
*       -1.251074861E-01               0
GRID*               7177               01.4864791504E+003.5081848195E-01+
*       -1.900406212E-01               0
GRID*               7178               01.4678997217E+003.8687099478E-01+
*       -1.900406212E-01               0
GRID*               7179               0-1.305497880E+00-2.684375377E-01+
*       5.6923161163E-01               0
GRID*               7180               0-1.336306846E+00-2.082923831E-01+
*       5.7687641210E-01               0
GRID*               7181               0-1.355813972E+00-2.187690206E-01+
*       5.5009260587E-01               0
GRID*               7182               01.3167811764E+001.9338727838E-01+
*       1.0142405804E+00               0
GRID*               7183               01.3364516703E+001.5901835755E-01+
*       9.7046254126E-01               0
GRID*               7184               01.3166534847E+002.1648528133E-01+
*       1.0007464356E+00               0
GRID*               7185               01.3573556072E+001.8525222253E-01+
*       9.8198452620E-01               0
GRID*               7186               01.1808416788E+007.2462897858E-01+
*       1.5639204761E-01               0
GRID*               7187               01.2435369057E+007.2462897858E-01+
*       1.2248098567E-01               0
GRID*               7188               01.2433979708E+007.2462897858E-01+
*       1.9435876147E-01               0
GRID*               7189               01.5229224802E+002.5667088904E-01+
*       -6.747521703E-02               0
GRID*               7190               01.2112194817E+00-6.834364055E-02+
*       1.0089551367E+00               0
GRID*               7191               01.2337578910E+00-8.904073337E-02+
*       1.0656524894E+00               0
GRID*               7192               01.2114091751E+00-4.684956825E-02+
*       1.0117723600E+00               0
GRID*               7193               01.1905435132E+00-5.957096538E-02+
*       1.0269952118E+00               0
GRID*               7194               01.2339475845E+00-6.754666108E-02+
*       1.0684697128E+00               0
GRID*               7195               0-1.221374055E+00-1.344612858E-01+
*       1.4080074253E+00               0
GRID*               7196               0-1.221374055E+00-8.696967691E-02+
*       1.3378437265E+00               0
GRID*               7197               0-1.216825205E+002.4603661733E-02+
*       3.8884005530E-01               0
GRID*               7198               0-1.216825216E+002.3174556753E-02+
*       3.3365230319E-01               0
GRID*               7199               0-1.270823711E+00-1.691278765E-02+
*       3.6542760517E-01               0
GRID*               7200               02.2911113673E-016.8790161658E-01+
*       -6.259582575E-02               0
GRID*               7201               02.6768232955E-017.1875096723E-01+
*       -3.125207473E-02               0
GRID*               7202               0-1.785501087E+004.5980332972E-01+
*       -2.151614902E-02               0
GRID*               7203               0-1.774117131E+004.3478557339E-01+
*       -2.110064669E-02               0
GRID*               7204               01.9082902316E-016.2530927436E-01+
*       -6.259582575E-02               0
GRID*               7205               01.9129606585E-017.1871679676E-01+
*       -3.125422229E-02               0
GRID*               7206               01.9065718923E-016.5661841334E-01+
*       -9.385004805E-02               0
GRID*               7207               01.5301395229E-016.5612445454E-01+
*       -3.125422229E-02               0
GRID*               7208               02.6607383138E-017.1870877961E-01+
*       -2.187573686E-01               0
GRID*               7209               02.6638496458E-016.5661039619E-01+
*       -1.563531944E-01               0
GRID*               7210               03.0392914858E-016.5609255918E-01+
*       -2.187573686E-01               0
GRID*               7211               01.1789536243E+00-6.379374963E-01+
*       8.4925489942E-01               0
GRID*               7212               01.5270733385E-015.6223708322E-01+
*       -6.246756387E-02               0
GRID*               7213               01.3407213225E+00-2.691356192E-01+
*       9.9908279814E-01               0
GRID*               7214               01.3407213225E+00-2.773466691E-01+
*       9.4442173683E-01               0
GRID*               7215               01.3570096491E+00-3.058972795E-01+
*       9.9087945767E-01               0
GRID*               7216               01.2989810240E+00-3.092332969E-01+
*       9.8822591207E-01               0
GRID*               7217               01.5200807420E-015.6225148587E-01+
*       -1.874675639E-01               0
GRID*               7218               0-1.458855273E+004.7696650990E-01+
*       -8.604238992E-02               0
GRID*               7219               0-1.438392982E+00-4.799182460E-01+
*       -1.404328018E-01               0
GRID*               7220               0-1.482255928E+00-5.130477380E-01+
*       -1.556241121E-01               0
GRID*               7221               0-1.459451552E+00-5.231491925E-01+
*       -1.760413014E-01               0
GRID*               7222               0-1.210610235E+001.1527584103E-01+
*       6.4294586048E-02               0
GRID*               7223               08.3727413241E-01-6.827816051E-01+
*       -6.276541606E-02               0
GRID*               7224               08.7356032471E-01-6.827816051E-01+
*       -1.254095408E-01               0
GRID*               7225               07.9738606453E-01-6.827816051E-01+
*       -1.252956507E-01               0
GRID*               7226               06.8020358576E-01-1.637810850E-01+
*       -1.159744330E-01               0
GRID*               7227               0-1.800469350E+004.9699572847E-01+
*       -9.291320931E-02               0
GRID*               7228               0-1.816541442E+005.1611851693E-01+
*       -7.296968610E-02               0
GRID*               7229               0-1.762301144E+004.1868083244E-01+
*       -2.110819269E-02               0
GRID*               7230               0-1.739602254E+003.8743528574E-01+
*       -2.110819269E-02               0
GRID*               7231               01.2096903851E+005.4718095077E-01+
*       2.9773238199E-01               0
GRID*               7232               01.2772659846E+005.0626307254E-01+
*       2.9284627065E-01               0
GRID*               7233               01.2096904124E+006.7251211991E-01+
*       2.9930896321E-01               0
GRID*               7234               01.2720878323E+006.7251211991E-01+
*       3.3641662854E-01               0
GRID*               7235               01.1798314406E+007.1820628711E-01+
*       3.3745343196E-01               0
GRID*               7236               01.2407717863E+006.4071840703E-01+
*       3.3676239517E-01               0
GRID*               7237               01.3346903528E+005.7253060330E-01+
*       3.1708613279E-01               0
GRID*               7238               01.3773660705E+00-2.277293478E-01+
*       6.0471794970E-01               0
GRID*               7239               01.3357007004E+00-2.277314585E-01+
*       6.0472310126E-01               0
GRID*               7240               0-1.367092627E+00-4.682788700E-01+
*       1.2992749871E+00               0
GRID*               7241               0-1.367092627E+00-4.114525948E-01+
*       1.3459108665E+00               0
GRID*               7242               01.2695922502E+00-2.423671708E-01+
*       1.3905683491E+00               0
GRID*               7243               01.3355382885E+002.3672514603E-01+
*       8.7227961895E-01               0
GRID*               7244               01.3355383396E+002.5289341747E-01+
*       8.3870983177E-01               0
GRID*               7245               01.3218002889E+002.8557070458E-01+
*       8.7918808266E-01               0
GRID*               7246               0-1.302775506E+005.9940542552E-01+
*       7.4084549071E-01               0
GRID*               7247               0-1.325989911E+00-6.700555736E-02+
*       4.2936932863E-01               0
GRID*               7248               0-1.325989911E+00-1.158734704E-01+
*       4.3720132307E-01               0
GRID*               7249               0-1.254988420E+00-8.928001002E-02+
*       3.8544719107E-01               0
GRID*               7250               0-1.334589258E+003.1133120902E-01+
*       9.0534612007E-01               0
GRID*               7251               0-1.193010595E+00-3.348353648E-02+
*       1.3931144715E+00               0
GRID*               7252               0-1.193010595E+00-7.816304223E-03+
*       1.4704833940E+00               0
GRID*               7253               0-1.171438749E+004.5602815250E-03+
*       1.4708365528E+00               0
GRID*               7254               0-1.171438749E+00-2.110695073E-02+
*       1.3934676302E+00               0
GRID*               7255               0-1.215699396E+00-3.256022698E-03+
*       1.4413209029E+00               0
GRID*               7256               0-1.211555182E+006.0683779386E-01+
*       9.1184091905E-01               0
GRID*               7257               0-1.334346194E+006.0319691675E-02+
*       1.6743725347E-01               0
GRID*               7258               0-1.231660975E+002.3146401661E-01+
*       5.1520348908E-01               0
GRID*               7259               0-1.200989916E+00-8.963388636E-02+
*       4.0023836918E-01               0
GRID*               7260               0-1.409820140E+006.6112481894E-01+
*       -1.003232203E-01               0
GRID*               7261               0-1.251779555E+007.2000020103E-01+
*       -2.206893797E-01               0
GRID*               7262               0-1.330086949E+00-6.342784878E-01+
*       1.0047638019E+00               0
GRID*               7263               0-1.330086949E+00-5.809359585E-01+
*       9.5533825083E-01               0
GRID*               7264               0-1.386961716E+007.1295937604E-01+
*       -3.517521164E-02               0
GRID*               7265               0-1.212053825E+00-6.039242390E-01+
*       5.8115515348E-01               0
GRID*               7266               0-1.212188586E+00-5.881235470E-01+
*       6.6337480433E-01               0
GRID*               7267               01.8429695947E+00-5.954185091E-01+
*       -2.295112680E-01               0
GRID*               7268               01.8107094134E+00-5.944439711E-01+
*       -1.778903209E-01               0
GRID*               7269               01.8097092762E+00-5.799221362E-01+
*       -2.074309118E-01               0
GRID*               7270               0-1.313868216E+007.2688240439E-01+
*       -2.258696868E-01               0
GRID*               7271               0-1.314222349E+006.5201237312E-01+
*       -1.779310236E-01               0
GRID*               7272               0-1.344718261E+007.2688240439E-01+
*       -1.670056351E-01               0
GRID*               7273               01.3407930430E+003.5872610972E-01+
*       4.4352761452E-01               0
GRID*               7274               0-1.432179775E+005.8808579803E-01+
*       -1.901480087E-01               0
GRID*               7275               01.5565693502E+003.8943669200E-01+
*       -2.132640548E-02               0
GRID*               7276               01.5565660067E+003.8943927290E-01+
*       -6.299253530E-02               0
GRID*               7277               01.5760251927E+003.8185388673E-01+
*       -2.158508088E-02               0
GRID*               7278               01.5573290735E+003.7240768977E-01+
*       -4.291148635E-02               0
GRID*               7279               01.5760218492E+003.8185646763E-01+
*       -6.325121070E-02               0
GRID*               7280               01.4535489638E+006.7581375918E-01+
*       -9.838864438E-02               0
GRID*               7281               01.3680533162E+007.1834823947E-01+
*       1.2550006460E-01               0
GRID*               7282               01.3056096679E+007.1834823947E-01+
*       1.6346677846E-01               0
GRID*               7283               01.3057486028E+007.1834823947E-01+
*       9.1589002658E-02               0
GRID*               7284               01.2951395715E+00-1.660084207E-01+
*       5.0946406981E-01               0
GRID*               7285               01.2233582649E+00-4.203096045E-01+
*       1.0139993485E+00               0
GRID*               7286               01.8188788683E+006.7740271613E-01+
*       -1.886462702E-01               0
GRID*               7287               01.8468667727E+007.2418746371E-01+
*       -2.190877628E-01               0
GRID*               7288               01.7916171757E+006.7454322236E-01+
*       -2.190877628E-01               0
GRID*               7289               01.8222452903E+007.0123442118E-01+
*       -1.577340331E-01               0
GRID*               7290               01.3673303391E+00-5.731441590E-01+
*       1.1627942411E+00               0
GRID*               7291               0-1.796308971E+002.4725397353E-01+
*       -9.844353835E-02               0
GRID*               7292               0-1.779108439E+001.4682622307E-01+
*       -1.030474205E-01               0
GRID*               7293               08.9350539752E-012.1976488615E-01+
*       -1.762419327E-01               0
GRID*               7294               09.3312384424E-012.1335487261E-01+
*       -1.285659551E-01               0
GRID*               7295               0-1.826395091E+002.8643461797E-01+
*       -6.665888127E-02               0
GRID*               7296               0-1.826395091E+002.4893461797E-01+
*       -1.291588813E-01               0
GRID*               7297               0-1.826395091E+003.2340827418E-01+
*       -1.291588813E-01               0
GRID*               7298               0-1.368171733E+00-7.177119421E-01+
*       4.9064372264E-01               0
GRID*               7299               0-1.305652346E+00-7.177119421E-01+
*       5.2696352204E-01               0
GRID*               7300               0-1.306475562E+00-6.375654971E-01+
*       5.1852896665E-01               0
GRID*               7301               0-1.491070651E+009.3118612730E-02+
*       -1.350428041E-01               0
GRID*               7302               0-1.765116755E+00-6.156412218E-01+
*       -1.559704364E-01               0
GRID*               7303               0-1.802098364E+00-6.647856898E-01+
*       -1.661607071E-01               0
GRID*               7304               0-1.784405052E+00-6.525561044E-01+
*       -1.454728750E-01               0
GRID*               7305               0-1.607030198E+00-6.205574646E-01+
*       -2.284499126E-01               0
GRID*               7306               0-1.576374524E+00-6.213498625E-01+
*       -2.281815265E-01               0
GRID*               7307               01.1465151198E-01-7.186500502E-01+
*       -3.124756984E-02               0
GRID*               7308               01.3673195889E+007.2212621384E-01+
*       4.8602457035E-01               0
GRID*               7309               01.3026610690E+006.6586468393E-01+
*       4.8616429219E-01               0
GRID*               7310               01.1187684470E+002.3652876528E-01+
*       -6.013984656E-02               0
GRID*               7311               0-1.301483229E+003.2946701607E-01+
*       6.9563082116E-01               0
GRID*               7312               01.1352446720E+001.0378094923E-01+
*       -1.915235999E-01               0
GRID*               7313               01.1548611003E+002.0611921250E-01+
*       -2.072729661E-01               0
GRID*               7314               01.1850676309E+001.4501670252E-01+
*       -2.072729661E-01               0
GRID*               7315               0-1.865077723E+00-1.264039845E-01+
*       -2.195823442E-01               0
GRID*               7316               0-1.865077723E+00-5.140398449E-02+
*       -2.195823442E-01               0
GRID*               7317               01.8496380288E+00-4.708921396E-01+
*       -2.182593720E-01               0
GRID*               7318               01.8824142472E+00-4.680384335E-01+
*       -2.182593720E-01               0
GRID*               7319               01.8825532030E+00-4.318011470E-01+
*       -2.205062940E-01               0
GRID*               7320               01.8497769846E+00-4.346548531E-01+
*       -2.205062940E-01               0
GRID*               7321               01.8662175027E+00-4.498395805E-01+
*       -1.887656660E-01               0
GRID*               7322               01.2128410268E+002.4572952187E-01+
*       1.1465063448E+00               0
GRID*               7323               01.3279823701E+003.3027384725E-01+
*       1.2374692776E+00               0
GRID*               7324               01.8504204340E+00-5.508205402E-01+
*       -2.296243833E-01               0
GRID*               7325               01.8171601155E+00-5.353241674E-01+
*       -2.075440271E-01               0
GRID*               7326               01.2765055800E+002.0357780783E-01+
*       1.1052267998E+00               0
GRID*               7327               01.7738188904E+00-3.133287356E-01+
*       -1.787536606E-01               0
GRID*               7328               0-1.872459855E+004.0946764071E-01+
*       -2.193183788E-01               0
GRID*               7329               0-1.839680461E+004.1231115066E-01+
*       -2.193183788E-01               0
GRID*               7330               01.8003525656E+00-4.746703148E-01+
*       -1.357054703E-01               0
GRID*               7331               01.7990777706E+00-4.399230163E-01+
*       -1.352870351E-01               0
GRID*               7332               01.7990782450E+00-4.399241629E-01+
*       -9.362052536E-02               0
GRID*               7333               01.8317874503E+00-4.531836499E-01+
*       -1.043265556E-01               0
GRID*               7334               0-4.552499797E-014.3275366026E-01+
*       -6.296419942E-02               0
GRID*               7335               0-1.275120834E+00-5.086533787E-01+
*       1.0546690900E+00               0
GRID*               7336               0-1.463795685E+00-4.769843552E-01+
*       -2.121538082E-02               0
GRID*               7337               01.5500365175E+003.0572011194E-01+
*       -6.747521703E-02               0
GRID*               7338               0-1.469717051E+00-7.183152902E-01+
*       -2.199882285E-01               0
GRID*               7339               0-1.545667049E+00-7.183152902E-01+
*       -2.199882285E-01               0
GRID*               7340               0-1.499478041E+00-7.183152902E-01+
*       -1.583781822E-01               0
GRID*               7341               01.8809037568E+00-4.887189192E-01+
*       -3.013175936E-02               0
GRID*               7342               01.8809037568E+00-5.637189192E-01+
*       -3.013175936E-02               0
GRID*               7343               01.8449928431E+00-5.321289437E-01+
*       -3.013175936E-02               0
GRID*               7344               0-1.368163519E+00-7.176306853E-01+
*       7.0850798088E-01               0
GRID*               7345               0-1.368163519E+00-7.176306853E-01+
*       6.3350798088E-01               0
GRID*               7346               0-1.472824932E+00-5.584243966E-01+
*       -2.121538082E-02               0
GRID*               7347               0-3.420370620E-013.6879572430E-01+
*       -5.928370981E-02               0
GRID*               7348               0-1.552870360E+00-6.056657654E-01+
*       -2.087412212E-02               0
GRID*               7349               0-1.530160777E+00-5.744141302E-01+
*       -2.087412212E-02               0
GRID*               7350               0-1.506405963E+00-6.143913104E-01+
*       -2.087412212E-02               0
GRID*               7351               0-6.882369646E-013.0521553421E-02+
*       -1.240000771E-01               0
GRID*               7352               01.8284344648E+00-5.530759216E-01+
*       -2.187111625E-02               0
GRID*               7353               01.8464991878E+00-5.483848163E-01+
*       -5.200287561E-02               0
GRID*               7354               0-1.589625707E+00-6.175975251E-01+
*       -2.087412212E-02               0
GRID*               7355               0-1.552870548E+00-6.056658891E-01+
*       -6.254080261E-02               0
GRID*               7356               01.2284127534E+00-5.200770562E-01+
*       -6.391697058E-02               0
GRID*               7357               01.2164388647E+00-4.984233044E-01+
*       -1.285036340E-01               0
GRID*               7358               0-1.514159667E+00-5.196276588E-01+
*       -1.990832631E-02               0
GRID*               7359               0-1.490404853E+00-5.596048391E-01+
*       -1.990832631E-02               0
GRID*               7360               0-1.514449856E+00-5.554085890E-01+
*       -4.078244843E-02               0
GRID*               7361               0-1.654804556E+003.0292427856E-01+
*       -1.710755146E-01               0
GRID*               7362               0-1.626365009E+003.0162533996E-01+
*       -1.708461073E-01               0
GRID*               7363               01.2099465224E+00-4.952177054E-01+
*       1.9596189709E-01               0
GRID*               7364               01.2099465187E+00-4.259204262E-01+
*       1.9586313008E-01               0
GRID*               7365               01.3339678721E+00-5.770311806E-01+
*       8.2975032073E-02               0
GRID*               7366               01.3349156764E+00-6.209435038E-01+
*       1.4105959789E-01               0
GRID*               7367               01.2123984313E+00-6.108812502E-01+
*       3.3976441413E-01               0
GRID*               7368               01.2735949147E+00-5.526982002E-01+
*       2.8660489696E-01               0
GRID*               7369               01.2115713179E+00-6.107440246E-01+
*       3.7498546660E-01               0
GRID*               7370               01.2752197132E+00-6.135181451E-01+
*       3.3954995635E-01               0
GRID*               7371               01.2727678013E+00-5.525609746E-01+
*       3.2182594943E-01               0
GRID*               7372               0-1.870899567E+004.0730168315E-01+
*       -3.122442556E-02               0
GRID*               7373               0-1.817348781E+003.5931469783E-01+
*       -3.122442556E-02               0
GRID*               7374               0-1.870899567E+003.3230168315E-01+
*       -3.122442556E-02               0
GRID*               7375               0-4.951488140E-01-6.878934767E-01+
*       -1.250613978E-01               0
GRID*               7376               0-1.741349500E+006.1438126752E-01+
*       -2.278400212E-01               0
GRID*               7377               0-1.741347115E+006.1438308056E-01+
*       -1.861737313E-01               0
GRID*               7378               0-1.707884926E+006.3783098513E-01+
*       -1.977232394E-01               0
GRID*               7379               0-1.727040786E+006.5106544313E-01+
*       -1.755632606E-01               0
GRID*               7380               0-1.707882541E+006.3783279817E-01+
*       -1.560569496E-01               0
GRID*               7381               0-1.502473453E+003.0824215694E-01+
*       -6.094217660E-02               0
GRID*               7382               0-1.486928590E+003.7105373474E-01+
*       -6.094217660E-02               0
GRID*               7383               0-4.576810276E-01-5.624239802E-01+
*       -6.257661683E-02               0
GRID*               7384               0-4.939796378E-01-7.186415891E-01+
*       -2.187566974E-01               0
GRID*               7385               0-4.945039066E-01-6.565350658E-01+
*       -1.563093043E-01               0
GRID*               7386               0-4.569541976E-01-7.186415891E-01+
*       -1.562654884E-01               0
GRID*               7387               0-1.868663828E+002.6081935556E-01+
*       -3.178465708E-02               0
GRID*               7388               0-1.523381068E+004.4268463815E-01+
*       -2.285817681E-01               0
GRID*               7389               0-6.871082203E-016.9283897263E-01+
*       -5.671404164E-02               0
GRID*               7390               0-7.248830035E-017.1581175119E-01+
*       -3.124871088E-02               0
GRID*               7391               0-7.227411837E-016.5865072382E-01+
*       -8.796275252E-02               0
GRID*               7392               0-5.345806302E-016.8852789722E-01+
*       -5.693274233E-02               0
GRID*               7393               0-5.716006677E-016.8852789722E-01+
*       -1.194445065E-01               0
GRID*               7394               0-4.953404082E-016.8852789722E-01+
*       -1.194375579E-01               0
GRID*               7395               0-1.515480847E+004.6185955121E-01+
*       -2.279743640E-01               0
GRID*               7396               0-7.919511317E-014.9123144676E-01+
*       -5.475799644E-02               0
GRID*               7397               0-8.261691657E-014.1993035525E-01+
*       -4.866319627E-02               0
GRID*               7398               0-8.320868218E-014.7982215639E-01+
*       -1.150604563E-01               0
GRID*               7399               0-6.842581908E-016.9283897263E-01+
*       -1.817140416E-01               0
GRID*               7400               0-6.475449200E-016.9283897263E-01+
*       -1.192258058E-01               0
GRID*               7401               0-7.237834770E-016.9283897263E-01+
*       -1.192408401E-01               0
GRID*               7402               0-6.461846203E-017.1878667794E-01+
*       -2.185863890E-01               0
GRID*               7403               0-6.468928300E-016.6162565057E-01+
*       -1.503004306E-01               0
GRID*               7404               0-1.772844304E+003.1344763265E-01+
*       -6.665888127E-02               0
GRID*               7405               0-1.715840394E+002.8433153423E-01+
*       -6.665888127E-02               0
GRID*               7406               0-1.614748081E+003.6349991984E-01+
*       -1.863026800E-01               0
GRID*               7407               0-1.772002189E+002.5649168663E-01+
*       -1.916588813E-01               0
GRID*               7408               0-1.784222044E+00-4.982678310E-01+
*       -2.002445326E-02               0
GRID*               7409               0-1.339732837E+00-2.842784637E-01+
*       1.1926841592E+00               0
GRID*               7410               0-1.339732837E+00-3.276681487E-01+
*       1.2371726117E+00               0
GRID*               7411               0-1.339732837E+00-3.512385893E-01+
*       1.1780013443E+00               0
GRID*               7412               0-1.514459262E+00-4.995335930E-01+
*       -2.056645215E-02               0
GRID*               7413               0-1.514452047E+00-4.609230325E-01+
*       -6.223291733E-02               0
GRID*               7414               0-1.514451444E+00-4.609244657E-01+
*       -2.056645215E-02               0
GRID*               7415               01.2079851992E+00-3.342350415E-01+
*       3.0730072486E-01               0
GRID*               7416               0-1.420440581E+00-4.225754010E-01+
*       -6.814166463E-02               0
GRID*               7417               01.2015658772E+00-1.783743402E-01+
*       2.8393520378E-01               0
GRID*               7418               01.2070076847E+00-1.545942417E-01+
*       2.2904222446E-01               0
GRID*               7419               01.3265658566E+00-1.251290447E-01+
*       3.4256167767E-01               0
GRID*               7420               0-1.530161859E+00-5.744167212E-01+
*       -6.254114884E-02               0
GRID*               7421               0-1.482263279E+00-5.516608971E-01+
*       -1.556246746E-01               0
GRID*               7422               0-1.471645541E+00-5.723874244E-01+
*       -1.768214707E-01               0
GRID*               7423               0-1.519254070E+00-5.593626315E-01+
*       -1.878638710E-01               0
GRID*               7424               0-1.507405814E+00-5.302603267E-01+
*       -1.873461840E-01               0
GRID*               7425               0-1.459797285E+00-5.432851197E-01+
*       -1.763037837E-01               0
GRID*               7426               0-1.496788076E+00-5.509868540E-01+
*       -2.085429800E-01               0
GRID*               7427               0-1.788594730E+00-5.469024209E-02+
*       -2.195823442E-01               0
GRID*               7428               01.1798033854E+00-5.623609997E-01+
*       1.0919783372E+00               0
GRID*               7429               0-1.492300854E+00-4.668131270E-02+
*       -1.935502618E-01               0
GRID*               7430               0-1.218128420E+00-3.378168308E-01+
*       4.4439881235E-01               0
GRID*               7431               01.3368062382E+00-1.986676610E-01+
*       4.8598910205E-01               0
GRID*               7432               01.3492368977E+00-1.430898822E-01+
*       4.5945701413E-01               0
GRID*               7433               0-1.431278708E+00-2.410991502E-01+
*       -1.892577128E-01               0
GRID*               7434               03.7894461552E-02-6.252489541E-01+
*       -6.249930457E-02               0
GRID*               7435               01.1441600722E-01-6.251566421E-01+
*       -6.249930457E-02               0
GRID*               7436               01.1386756028E-01-6.253016444E-01+
*       -1.874993046E-01               0
GRID*               7437               0-1.527364943E-01-5.622460049E-01+
*       -6.254857997E-02               0
GRID*               7438               0-1.142079042E-01-5.627947534E-01+
*       -1.250655860E-01               0
GRID*               7439               0-1.335322810E+00-1.470846380E-01+
*       9.7841625882E-01               0
GRID*               7440               0-1.319309888E+00-2.154752346E-01+
*       1.0116229440E+00               0
GRID*               7441               0-1.315778020E+00-1.454686933E-01+
*       1.0444133703E+00               0
GRID*               7442               0-4.159690780E-011.1444955920E-01+
*       -6.295261822E-02               0
GRID*               7443               0-1.376890432E+008.7704939850E-02+
*       4.9457790297E-01               0
GRID*               7444               0-1.377693683E+001.0897599395E-01+
*       5.0481061054E-01               0
GRID*               7445               0-1.316998852E+00-1.196872893E-01+
*       1.0543326984E+00               0
GRID*               7446               0-1.336543642E+00-1.213032340E-01+
*       9.8833558684E-01               0
GRID*               7447               0-1.356449838E+00-1.433878685E-01+
*       1.0002454771E+00               0
GRID*               7448               0-1.335891035E+00-4.746535239E-02+
*       1.0116489850E+00               0
GRID*               7449               0-1.356671669E+00-6.079366629E-02+
*       1.0260293935E+00               0
GRID*               7450               0-1.316347177E+00-8.053828770E-02+
*       1.0640331384E+00               0
GRID*               7451               0-6.094603665E-013.0459686196E-01+
*       -1.752700633E-01               0
GRID*               7452               0-5.714601802E-012.4211613634E-01+
*       -1.752700633E-01               0
GRID*               7453               0-5.303684116E-013.1182597758E-01+
*       -1.780562806E-01               0
GRID*               7454               0-6.457523622E-013.0016998352E-01+
*       -1.114752078E-01               0
GRID*               7455               0-1.376944207E+00-2.612013831E-01+
*       7.9847810498E-01               0
GRID*               7456               0-1.335279584E+00-2.612025134E-01+
*       7.9846932161E-01               0
GRID*               7457               0-1.335278837E+00-2.502212626E-01+
*       8.3407793666E-01               0
GRID*               7458               0-6.075385812E-012.9752435420E-01+
*       -5.027006326E-02               0
GRID*               7459               0-1.242197832E+00-7.161976356E-01+
*       6.8150842858E-01               0
GRID*               7460               01.3339678721E+00-4.956915327E-01+
*       3.3912451067E-02               0
GRID*               7461               01.2886306183E+00-4.907685889E-01+
*       -3.000451951E-02               0
GRID*               7462               01.2077623601E+00-5.350903606E-01+
*       -1.895866634E-01               0
GRID*               7463               0-1.336549649E+00-2.646156566E-01+
*       7.7795410475E-01               0
GRID*               7464               0-1.315135952E+00-3.143133908E-01+
*       7.9024198522E-01               0
GRID*               7465               0-1.356408532E+00-2.786111122E-01+
*       7.8918081398E-01               0
GRID*               7466               0-1.313865887E+00-3.109002476E-01+
*       8.1075720207E-01               0
GRID*               7467               0-1.376984288E+00-2.648604450E-01+
*       7.2110264451E-01               0
GRID*               7468               0-1.335319664E+00-2.648615750E-01+
*       7.5835403836E-01               0
GRID*               7469               01.2081549130E+00-5.886977112E-01+
*       -1.354857253E-01               0
GRID*               7470               01.1687901980E+00-6.222460676E-01+
*       -1.603397953E-01               0
GRID*               7471               01.2521428216E+00-6.542512823E-01+
*       -1.666521937E-01               0
GRID*               7472               0-1.378286291E+00-2.622872492E-01+
*       6.9924614853E-01               0
GRID*               7473               0-1.378286291E+00-2.513050185E-01+
*       6.6364116511E-01               0
GRID*               7474               0-1.336621338E+00-2.622862473E-01+
*       6.9923873674E-01               0
GRID*               7475               0-1.377304863E+00-2.393991386E-01+
*       6.2428378378E-01               0
GRID*               7476               0-1.377305240E+00-2.459932694E-01+
*       6.4609140694E-01               0
GRID*               7477               0-1.355860155E+00-2.601520717E-01+
*       6.2884533288E-01               0
GRID*               7478               0-1.335637590E+00-2.459948594E-01+
*       6.4609530145E-01               0
GRID*               7479               04.5504463465E-01-3.665775563E-01+
*       -1.247735276E-01               0
GRID*               7480               0-1.348818705E+00-3.130083275E-01+
*       6.6099380943E-01               0
GRID*               7481               0-1.252336251E+00-2.969047923E-01+
*       7.6228788236E-01               0
GRID*               7482               01.8185494252E+00-5.970449791E-01+
*       -2.187111625E-02               0
GRID*               7483               01.8095293785E+00-6.135235957E-01+
*       -2.215913811E-02               0
GRID*               7484               0-1.377974444E+00-2.082899710E-01+
*       5.7687324711E-01               0
GRID*               7485               0-1.376589476E+00-1.937414393E-01+
*       5.5317661872E-01               0
GRID*               7486               0-1.880771156E+005.6410798499E-01+
*       -2.940314418E-02               0
GRID*               7487               0-1.844859215E+005.3251945098E-01+
*       -2.940314418E-02               0
GRID*               7488               0-1.880771156E+004.8910798499E-01+
*       -2.940314418E-02               0
GRID*               7489               0-1.378109751E+003.2559647063E-02+
*       4.8260403093E-01               0
GRID*               7490               0-1.378109751E+006.8885582473E-02+
*       4.9089562555E-01               0
GRID*               7491               0-1.336444381E+003.2565164724E-02+
*       4.8260477823E-01               0
GRID*               7492               01.3415218616E+006.4614458493E-02+
*       1.3321440195E+00               0
GRID*               7493               01.3367698515E+001.5248754159E-01+
*       1.3325642552E+00               0
GRID*               7494               0-1.179483136E+001.4849225626E-01+
*       1.4479275194E+00               0
GRID*               7495               0-1.241982484E+001.8419196735E-01+
*       1.4389847731E+00               0
GRID*               7496               0-1.179320505E+001.7612903101E-01+
*       1.4516568049E+00               0
GRID*               7497               0-1.210053693E+001.7830360496E-01+
*       1.4139957280E+00               0
GRID*               7498               0-1.241819854E+002.1182874210E-01+
*       1.4427140586E+00               0
GRID*               7499               01.2034270660E+001.1862518206E-01+
*       1.0660016899E+00               0
GRID*               7500               0-1.169749740E+002.4095600233E-01+
*       6.2060903780E-01               0
GRID*               7501               0-1.339073077E+006.1106873972E-01+
*       1.9922658671E-01               0
GRID*               7502               0-1.140485817E-01-3.945543562E-05+
*       -1.875000983E-01               0
GRID*               7503               0-1.140423819E-016.2360343026E-02+
*       -1.249694138E-01               0
GRID*               7504               0-1.337538491E+00-1.145359418E-01+
*       1.0746313388E+00               0
GRID*               7505               01.5143911124E+004.9894484074E-01+
*       -2.014673848E-02               0
GRID*               7506               0-4.213969451E-051.8708164046E-01+
*       -6.248076842E-02               0
GRID*               7507               0-1.179320505E+002.4647643299E-01+
*       1.4303172363E+00               0
GRID*               7508               01.3329216794E+00-4.257380528E-01+
*       3.2396733129E-02               0
GRID*               7509               0-1.276703515E+00-2.423364629E-01+
*       1.3925561719E+00               0
GRID*               7510               0-1.242720968E+00-2.106490612E-01+
*       1.4307340006E+00               0
GRID*               7511               0-1.245673233E+00-2.352684197E-01+
*       1.3555870688E+00               0
GRID*               7512               0-1.252844424E+00-1.630929537E-01+
*       1.3620955759E+00               0
GRID*               7513               0-1.136970719E+00-3.223405224E-01+
*       -1.860995443E-01               0
GRID*               7514               0-1.417599104E+00-3.975562900E-01+
*       -1.931416646E-01               0
GRID*               7515               0-1.365946774E+00-4.327974324E-01+
*       -1.931416646E-01               0
GRID*               7516               0-1.394080844E+00-6.573428451E-01+
*       -1.386036284E-01               0
GRID*               7517               0-1.468613345E+00-6.573428451E-01+
*       -1.356810909E-01               0
GRID*               7518               0-1.386680559E+00-7.173822508E-01+
*       -1.003775727E-01               0
GRID*               7519               0-1.427254464E+00-6.247250958E-01+
*       -1.063562186E-01               0
GRID*               7520               0-1.461213060E+00-7.173822508E-01+
*       -9.745503518E-02               0
GRID*               7521               0-1.387521183E+00-7.112287750E-01+
*       -3.307845310E-02               0
GRID*               7522               0-1.362208542E+00-5.175648765E-01+
*       -1.972911372E-01               0
GRID*               7523               0-1.208877938E+004.2785944247E-01+
*       9.5171547531E-01               0
GRID*               7524               0-1.348075126E+00-2.243260276E-01+
*       1.2033218903E+00               0
GRID*               7525               0-1.337538491E+00-1.673257982E-01+
*       1.0547384218E+00               0
GRID*               7526               0-1.205086949E+00-5.222226790E-01+
*       9.7638521881E-01               0
GRID*               7527               0-1.205086949E+00-5.709564388E-01+
*       1.0068280096E+00               0
GRID*               7528               01.1797222742E+007.1952223685E-01+
*       7.0552809593E-01               0
GRID*               7529               01.2422184502E+007.1952223685E-01+
*       6.5982879303E-01               0
GRID*               7530               01.2393520546E+006.7042253770E-01+
*       6.9521840218E-01               0
GRID*               7531               01.2341504287E+006.6669232441E-01+
*       6.2765000321E-01               0
GRID*               7532               0-1.276701785E+00-3.102485648E-01+
*       1.3644263527E+00               0
GRID*               7533               0-1.214202864E+00-2.769841538E-01+
*       1.3801593496E+00               0
GRID*               7534               0-1.179463203E+00-3.115528617E-01+
*       1.3944940036E+00               0
GRID*               7535               0-1.241962125E+00-3.448172727E-01+
*       1.3787610067E+00               0
GRID*               7536               0-1.244916120E+00-3.015245292E-01+
*       1.3317438941E+00               0
GRID*               7537               01.1958593955E+004.5233196618E-01+
*       6.0819058058E-01               0
GRID*               7538               01.5092000950E+006.2334497287E-01+
*       -1.182228893E-01               0
GRID*               7539               01.4918189442E+006.5919546799E-01+
*       -1.494325647E-01               0
GRID*               7540               01.5579299003E+006.3700086264E-01+
*       -1.145422550E-01               0
GRID*               7541               0-1.872900468E+00-7.260050241E-01+
*       -6.107297187E-02               0
GRID*               7542               0-1.824454623E+00-7.260050241E-01+
*       -1.236564558E-01               0
GRID*               7543               0-1.872900468E+00-7.260050241E-01+
*       -1.235729719E-01               0
GRID*               7544               0-1.336555182E+005.6101692678E-01+
*       8.3577569927E-01               0
GRID*               7545               06.6946737885E-01-1.815540160E-01+
*       -5.924484699E-02               0
GRID*               7546               01.5531061827E+006.0644801110E-01+
*       -2.162570873E-02               0
GRID*               7547               01.5531085680E+006.0644982420E-01+
*       -6.329199856E-02               0
GRID*               7548               01.5303945357E+005.7521129277E-01+
*       -6.329235855E-02               0
GRID*               7549               07.5429390507E-01-9.660468074E-02+
*       -1.817295861E-01               0
GRID*               7550               07.5123668673E-01-1.940241883E-01+
*       -1.861201539E-01               0
GRID*               7551               0-1.267585515E+00-6.185420149E-01+
*       1.0380351614E+00               0
GRID*               7552               0-1.243628344E+00-6.363971332E-01+
*       1.0893507842E+00               0
GRID*               7553               0-1.237466779E+00-5.935032525E-01+
*       1.0238309700E+00               0
GRID*               7554               0-1.251163662E+00-5.265084970E-01+
*       1.1059847128E+00               0
GRID*               7555               0-1.243631171E+00-5.955604561E-01+
*       1.1504670915E+00               0
GRID*               7556               0-1.366687004E+00-7.165003437E-01+
*       5.9840602217E-01               0
GRID*               7557               0-1.336100576E+00-6.841310290E-01+
*       6.3191400305E-01               0
GRID*               7558               0-1.211064814E+00-2.660360875E-01+
*       8.0261809432E-01               0
GRID*               7559               0-1.231321541E+00-3.157359539E-01+
*       8.1488977963E-01               0
GRID*               7560               0-1.211444654E+00-2.712107107E-01+
*       7.7586958084E-01               0
GRID*               7561               0-1.190429615E+00-2.900440048E-01+
*       7.9121267248E-01               0
GRID*               7562               0-1.231701381E+00-3.209105771E-01+
*       7.8814126615E-01               0
GRID*               7563               0-1.180685895E+005.7610126363E-01+
*       1.1792921792E+00               0
GRID*               7564               0-1.243184491E+005.5412639805E-01+
*       1.2089142302E+00               0
GRID*               7565               0-1.243362476E+005.2797988348E-01+
*       1.1321122006E+00               0
GRID*               7566               0-1.310002941E+00-1.904629800E-01+
*       4.9443109323E-01               0
GRID*               7567               0-1.336406473E+00-1.500652944E-01+
*       5.1763923259E-01               0
GRID*               7568               0-1.335060202E+00-1.235496124E-01+
*       5.0875534650E-01               0
GRID*               7569               0-1.308656670E+00-1.639472980E-01+
*       4.8554720714E-01               0
GRID*               7570               0-1.356050061E+00-1.486149070E-01+
*       4.9290093684E-01               0
GRID*               7571               0-1.170788577E+00-2.597704040E-01+
*       8.2091606062E-01               0
GRID*               7572               0-3.562344772E-01-7.286464306E-01+
*       -2.259062502E-02               0
GRID*               7573               0-3.550436363E-01-6.668069796E-01+
*       -8.490411176E-02               0
GRID*               7574               0-3.179119050E-01-6.661123352E-01+
*       -2.259062502E-02               0
GRID*               7575               08.5121814608E-01-2.345846639E-01+
*       -1.875508013E-01               0
GRID*               7576               0-1.330364262E+007.3315088176E-02+
*       1.2429667391E+00               0
GRID*               7577               0-1.377693683E+001.4124425194E-01+
*       5.2344070459E-01               0
GRID*               7578               0-1.335225061E+005.1384522102E-02+
*       4.8628705565E-01               0
GRID*               7579               01.4995729830E+001.4303371609E-01+
*       -1.861095063E-01               0
GRID*               7580               01.5043144087E+006.3029152640E-02+
*       -1.852043655E-01               0
GRID*               7581               0-1.214732837E+00-3.795575605E-01+
*       1.1947368744E+00               0
GRID*               7582               0-1.339202864E+00-2.769841538E-01+
*       1.3801593496E+00               0
GRID*               7583               0-1.339202864E+00-3.044470080E-01+
*       1.3120032283E+00               0
GRID*               7584               0-1.304591549E+00-3.798846682E-01+
*       1.3648318712E+00               0
GRID*               7585               0-1.307545544E+00-3.365919248E-01+
*       1.3178147586E+00               0
GRID*               7586               0-1.346374055E+00-1.242504112E-01+
*       1.2855070627E+00               0
GRID*               7587               01.1471272807E-017.1871679676E-01+
*       -3.125422229E-02               0
GRID*               7588               0-1.777890060E+008.1946307979E-02+
*       -1.658278029E-01               0
GRID*               7589               0-1.649523508E+002.9925390495E-01+
*       -8.942288173E-02               0
GRID*               7590               0-1.180472053E+006.7544024328E-01+
*       1.0035576779E+00               0
GRID*               7591               0-1.180472053E+006.9677994348E-01+
*       9.3321034168E-01               0
GRID*               7592               0-1.728118693E+003.0975487716E-01+
*       -8.718120246E-02               0
GRID*               7593               0-1.729583532E+003.6131407193E-01+
*       -4.163051388E-02               0
GRID*               7594               0-1.652698101E+002.3205502421E-01+
*       -1.919670689E-01               0
GRID*               7595               0-1.668747381E+002.8894590160E-01+
*       -1.919670689E-01               0
GRID*               7596               0-1.728523338E+002.9348641669E-01+
*       -1.916588813E-01               0
GRID*               7597               0-1.460266008E+004.9890985879E-01+
*       -1.689410551E-01               0
GRID*               7598               0-1.487011890E+005.1945362328E-01+
*       -2.078257086E-01               0
GRID*               7599               0-1.368141693E+00-3.818337590E-01+
*       1.3666705688E+00               0
GRID*               7600               0-1.368141693E+00-3.170014214E-01+
*       1.4013245704E+00               0
GRID*               7601               0-1.305640614E+00-3.502658323E-01+
*       1.3855915735E+00               0
GRID*               7602               0-1.305915871E+00-6.895751047E-01+
*       9.3415887602E-01               0
GRID*               7603               0-1.368415888E+00-6.994191260E-01+
*       8.9552890658E-01               0
GRID*               7604               0-1.368075017E+00-6.940438995E-01+
*       9.2594293856E-01               0
GRID*               7605               0-1.305574999E+00-6.841998782E-01+
*       9.6457290801E-01               0
GRID*               7606               0-1.337740957E+00-6.578747837E-01+
*       9.2515426108E-01               0
GRID*               7607               07.3484809389E-014.4022508130E-02+
*       -6.658703120E-02               0
GRID*               7608               06.3304415037E-01-1.209116434E-01+
*       -7.211364694E-02               0
GRID*               7609               0-1.200989912E+00-6.715863514E-02+
*       4.3963632842E-01               0
GRID*               7610               0-1.216825202E+005.2085872283E-03+
*       4.1961674252E-01               0
GRID*               7611               0-1.201273395E+00-3.467790263E-01+
*       5.3105494336E-01               0
GRID*               7612               0-1.300159831E+002.5660644179E-02+
*       4.5158072109E-01               0
GRID*               7613               0-1.376726869E+00-1.235496124E-01+
*       5.0875534650E-01               0
GRID*               7614               0-1.376726869E+00-8.886468203E-02+
*       4.9514288750E-01               0
GRID*               7615               0-9.660890337E-01-1.644601482E-01+
*       -1.905939108E-01               0
GRID*               7616               0-9.030567319E-011.1210921335E-01+
*       -1.272226224E-01               0
GRID*               7617               0-1.210946465E+009.6049443229E-02+
*       3.0699507812E-02               0
GRID*               7618               0-1.274458476E+005.7836247572E-02+
*       2.9632606591E-02               0
GRID*               7619               0-1.242939640E+00-2.434109880E-01+
*       5.7231699027E-01               0
GRID*               7620               0-1.211851437E+00-2.806361538E-02+
*       4.8732705810E-01               0
GRID*               7621               0-1.212053824E+00-6.068785736E-01+
*       5.1046795700E-01               0
GRID*               7622               0-1.035718293E+00-1.603619831E-01+
*       -1.905939108E-01               0
GRID*               7623               0-1.368171733E+00-7.177119421E-01+
*       5.6564372264E-01               0
GRID*               7624               0-1.211554573E+00-6.044198540E-01+
*       8.0193506370E-01               0
GRID*               7625               0-1.263758578E+00-5.396338177E-01+
*       8.6131465718E-01               0
GRID*               7626               0-1.276935777E+00-5.210263612E-01+
*       7.8322786041E-01               0
GRID*               7627               0-1.200953971E+00-4.719640827E-01+
*       9.4878711979E-01               0
GRID*               7628               0-1.335671627E+00-3.250197505E-01+
*       8.2241141877E-01               0
GRID*               7629               0-1.339202864E+00-2.610573229E-01+
*       1.2675147759E+00               0
GRID*               7630               0-1.214202864E+00-2.925506150E-01+
*       1.2976647348E+00               0
GRID*               7631               01.2123807280E+00-2.729507332E-02+
*       1.0142458773E+00               0
GRID*               7632               0-1.214202864E+00-2.457386051E-01+
*       1.2465647669E+00               0
GRID*               7633               0-1.267891557E+00-5.898924140E-01+
*       8.8891275620E-01               0
GRID*               7634               01.3075478165E+00-6.252995655E-01+
*       7.4795569696E-01               0
GRID*               7635               01.3058661586E+00-7.127665732E-01+
*       7.6054759439E-01               0
GRID*               7636               01.3052526631E+00-7.163777942E-01+
*       7.2771769717E-01               0
GRID*               7637               01.3069343210E+00-6.289107865E-01+
*       7.1512579974E-01               0
GRID*               7638               01.3373688146E+00-6.791443673E-01+
*       7.3826529156E-01               0
GRID*               7639               0-1.367721777E+00-2.488442152E-01+
*       1.4236098541E+00               0
GRID*               7640               0-1.305222428E+00-2.141965243E-01+
*       1.4360066763E+00               0
GRID*               7641               0-1.308174693E+00-2.388158827E-01+
*       1.3608597445E+00               0
GRID*               7642               0-1.219432389E+00-2.934714996E-01+
*       9.3938660713E-01               0
GRID*               7643               0-1.208524402E+00-4.693683167E-02+
*       1.2706041658E+00               0
GRID*               7644               01.3683661288E+00-7.127665732E-01+
*       7.6054759439E-01               0
GRID*               7645               01.3677526333E+00-7.163777942E-01+
*       7.2771769717E-01               0
GRID*               7646               0-1.179928211E+00-4.378243824E-01+
*       1.3232016837E+00               0
GRID*               7647               0-1.211854908E+00-4.261932989E-01+
*       1.2888369476E+00               0
GRID*               7648               01.2119723984E+00-8.653582728E-02+
*       1.0015665907E+00               0
GRID*               7649               01.7192097245E+003.4578693908E-01+
*       -1.397407062E-01               0
GRID*               7650               01.6800770257E+003.6402773147E-01+
*       -1.874444884E-01               0
GRID*               7651               01.7138318700E+003.2288292877E-01+
*       -1.605185216E-01               0
GRID*               7652               01.1798771384E+00-6.812796675E-03+
*       1.4685223531E+00               0
GRID*               7653               01.1798771384E+001.4274679285E-02+
*       1.4088448533E+00               0
GRID*               7654               01.2116281604E+002.1275297529E-02+
*       1.4381059631E+00               0
GRID*               7655               01.6176509228E+003.6233698415E-01+
*       -1.869507874E-01               0
GRID*               7656               0-2.656562784E-016.0792646490E-02+
*       -1.248759871E-01               0
GRID*               7657               0-7.604252607E-02-6.239934775E-02+
*       -1.875660673E-01               0
GRID*               7658               0-1.255511249E+00-4.457471908E-02+
*       1.4686777157E+00               0
GRID*               7659               0-1.286296900E+00-1.469157357E-02+
*       1.4392812594E+00               0
GRID*               7660               0-1.212538491E+00-1.585915373E-01+
*       1.0442480807E+00               0
GRID*               7661               0-1.306089731E+007.1439710899E-01+
*       8.0558580294E-01               0
GRID*               7662               0-4.925905174E-012.5764732478E-01+
*       -1.854242819E-01               0
GRID*               7663               01.3374145007E+002.4080346658E-01+
*       1.0903999790E+00               0
GRID*               7664               01.2329584303E+002.1130628457E-01+
*       1.0020761810E+00               0
GRID*               7665               01.2338214785E+001.8973267237E-01+
*       1.0070358112E+00               0
GRID*               7666               0-1.199827257E+00-4.992998624E-01+
*       1.0250564247E+00               0
GRID*               7667               0-1.218783832E+00-5.039616834E-01+
*       1.0889817523E+00               0
GRID*               7668               0-1.267586932E+00-6.457741667E-01+
*       9.7304643509E-01               0
GRID*               7669               0-1.267587935E+00-6.601608089E-01+
*       9.0586807919E-01               0
GRID*               7670               0-1.302491445E+00-6.966405758E-01+
*       9.0037889347E-01               0
GRID*               7671               0-1.296328464E+00-6.265145433E-01+
*       8.9984780562E-01               0
GRID*               7672               0-1.259865763E+003.2156412411E-01+
*       7.8210842631E-01               0
GRID*               7673               0-1.212330557E+004.7190766240E-02+
*       4.8923364795E-01               0
GRID*               7674               0-1.334346194E+009.1810140117E-02+
*       9.6703635392E-02               0
GRID*               7675               0-1.216825203E+004.5025818292E-02+
*       4.2158641412E-01               0
GRID*               7676               0-1.205086949E+00-6.342784878E-01+
*       1.0047638019E+00               0
GRID*               7677               0-1.179732388E+00-6.740464206E-01+
*       9.9509324177E-01               0
GRID*               7678               0-1.242232371E+00-6.855420995E-01+
*       9.6337587496E-01               0
GRID*               7679               0-1.236069390E+00-6.154160670E-01+
*       9.6284478711E-01               0
GRID*               7680               0-1.367341065E+00-6.470452668E-01+
*       1.0578151731E+00               0
GRID*               7681               0-1.298678066E+00-5.884149132E-01+
*       1.0255667184E+00               0
GRID*               7682               0-1.202994999E+001.0887455708E-01+
*       4.4079269093E-01               0
GRID*               7683               0-1.376661892E+001.5840927520E-01+
*       5.3255218134E-01               0
GRID*               7684               0-1.377841541E+001.7660948385E-01+
*       5.4673975241E-01               0
GRID*               7685               0-1.240156300E+003.3919504859E-01+
*       7.9295950451E-01               0
GRID*               7686               01.8325277010E+001.8847519460E-01+
*       -1.227354823E-01               0
GRID*               7687               01.8325277010E+001.1347519460E-01+
*       -1.227354823E-01               0
GRID*               7688               0-1.243277288E+006.3226769100E-01+
*       9.1509144297E-01               0
GRID*               7689               0-6.874672194E-01-6.866949555E-01+
*       -6.212874998E-02               0
GRID*               7690               01.1703219861E+00-1.935248257E-01+
*       5.5303643943E-01               0
GRID*               7691               01.2119886527E+00-1.643936308E-01+
*       5.2980463058E-01               0
GRID*               7692               01.2119895841E+00-1.935272378E-01+
*       5.5303960442E-01               0
GRID*               7693               0-1.334949800E+005.6988955368E-01+
*       7.1927959242E-01               0
GRID*               7694               0-6.294102261E-01-3.831838747E-01+
*       -1.227965280E-01               0
GRID*               7695               0-7.266076930E-01-6.230582584E-01+
*       -6.212874998E-02               0
GRID*               7696               0-1.336416396E+006.8485233787E-01+
*       7.3862916596E-01               0
GRID*               7697               0-7.028605622E-01-4.378545765E-01+
*       -1.872050124E-01               0
GRID*               7698               0-7.647776669E-01-4.239260793E-01+
*       -1.890516636E-01               0
GRID*               7699               0-1.364991462E+00-7.064845971E-01+
*       8.6174892402E-01               0
GRID*               7700               0-4.535618008E-011.9200631204E-01+
*       -6.042428194E-02               0
GRID*               7701               0-1.306026826E+00-7.164796187E-01+
*       7.3239654928E-01               0
GRID*               7702               0-1.368526796E+00-7.164796187E-01+
*       7.3239654928E-01               0
GRID*               7703               0-1.365250951E+00-7.136666486E-01+
*       7.6406427452E-01               0
GRID*               7704               0-1.302750980E+00-7.136666486E-01+
*       7.6406427452E-01               0
GRID*               7705               0-1.335027800E+00-6.801462673E-01+
*       7.4646082380E-01               0
GRID*               7706               0-5.406281863E-011.8277791375E-01+
*       -7.141550805E-02               0
GRID*               7707               0-6.049204917E-011.7371354462E-01+
*       -5.027006326E-02               0
GRID*               7708               0-5.427263527E-011.8816869302E-01+
*       -1.964155081E-01               0
GRID*               7709               0-1.639255089E+00-6.354760750E-01+
*       -2.047297312E-02               0
GRID*               7710               0-1.639255089E+00-6.354760750E-01+
*       -6.213963978E-02               0
GRID*               7711               0-1.602499929E+00-6.235444390E-01+
*       -6.213965361E-02               0
GRID*               7712               0-1.332267892E+002.2480139591E-01+
*       3.5965009578E-01               0
GRID*               7713               0-1.274451256E+00-6.698535550E-01+
*       4.3999290934E-01               0
GRID*               7714               0-1.169865916E+00-2.591517089E-01+
*       6.9830645774E-01               0
GRID*               7715               0-1.171263263E+00-2.722027691E-01+
*       7.1985781551E-01               0
GRID*               7716               0-1.212927886E+00-2.722038995E-01+
*       7.1986659889E-01               0
GRID*               7717               0-1.192379231E+00-2.841496803E-01+
*       7.0542444859E-01               0
GRID*               7718               0-1.209407822E+002.4800467332E-01+
*       5.0302654658E-01               0
GRID*               7719               0-4.180296399E-01-7.186415891E-01+
*       -2.187566974E-01               0
GRID*               7720               0-1.180505253E+00-7.169068644E-01+
*       6.2697260161E-01               0
GRID*               7721               0-1.180505242E+00-6.509775483E-01+
*       6.5524251108E-01               0
GRID*               7722               0-1.179113530E+00-7.164974447E-01+
*       5.9343961111E-01               0
GRID*               7723               0-1.210868715E+00-6.834043091E-01+
*       6.2041221272E-01               0
GRID*               7724               0-1.179113519E+00-6.505681286E-01+
*       6.2170952057E-01               0
GRID*               7725               01.3570096491E+00-3.563853867E-01+
*       9.8301346452E-01               0
GRID*               7726               01.3407213225E+00-2.996013703E-01+
*       8.9700143584E-01               0
GRID*               7727               01.3409487724E+00-3.297135393E-01+
*       8.3121278037E-01               0
GRID*               7728               01.1802494059E+00-3.742938837E-01+
*       1.3125357913E+00               0
GRID*               7729               01.2361700767E+00-3.617596801E-01+
*       1.2535218697E+00               0
GRID*               7730               01.2385923600E+00-3.368334049E-01+
*       1.3159539803E+00               0
GRID*               7731               01.3153843514E+00-1.802685809E-01+
*       9.9467492796E-01               0
GRID*               7732               01.3407213225E+00-2.380488235E-01+
*       9.6588188047E-01               0
GRID*               7733               0-1.240730361E+006.5746963527E-01+
*       5.6648831203E-01               0
GRID*               7734               0-1.284323244E+00-1.185532313E-01+
*       4.8799584683E-01               0
GRID*               7735               0-1.303966832E+00-1.171028439E-01+
*       4.6325755108E-01               0
GRID*               7736               0-1.200989913E+00-1.087417098E-01+
*       4.4635120191E-01               0
GRID*               7737               01.3354344145E+001.9570896158E-01+
*       9.4313302723E-01               0
GRID*               7738               01.5035813059E+00-5.807984989E-01+
*       -1.555646864E-01               0
GRID*               7739               01.5035870734E+00-5.808029212E-01+
*       -1.138971001E-01               0
GRID*               7740               01.2099157282E+00-6.428541884E-01+
*       2.1050579317E-01               0
GRID*               7741               01.3551628345E+002.7195045394E-01+
*       8.3284564657E-01               0
GRID*               7742               01.1803121860E+002.9743597959E-01+
*       1.4098793702E+00               0
GRID*               7743               01.1803121860E+002.8604757104E-01+
*       1.3581015535E+00               0
GRID*               7744               01.1803121860E+003.6226831719E-01+
*       1.3752253686E+00               0
GRID*               7745               01.3433442978E+003.0043656564E-01+
*       8.9348440805E-01               0
GRID*               7746               01.2600096679E+002.5539763899E-01+
*       8.9774497926E-01               0
GRID*               7747               0-4.198865940E-01-6.257349928E-01+
*       -6.231348674E-02               0
GRID*               7748               07.6324188725E-023.1220315088E-01+
*       -6.255236295E-02               0
GRID*               7749               03.8211640450E-022.4960171236E-01+
*       -6.248076842E-02               0
GRID*               7750               01.1431955269E-012.4975985742E-01+
*       -6.245225075E-02               0
GRID*               7751               0-1.631101242E+00-6.506077537E-01+
*       -1.565921823E-01               0
GRID*               7752               0-1.594346083E+00-6.386761177E-01+
*       -1.149255294E-01               0
GRID*               7753               07.6250053138E-021.8724040431E-01+
*       -6.249593740E-02               0
GRID*               7754               01.4658101451E+00-5.111573026E-01+
*       -1.754963948E-01               0
GRID*               7755               0-1.247346005E+00-1.945299120E-01+
*       5.3351867753E-01               0
GRID*               7756               0-1.223142059E+00-2.670092740E-01+
*       5.6660970674E-01               0
GRID*               7757               0-1.227548424E+00-2.181281980E-01+
*       5.2781139400E-01               0
GRID*               7758               0-1.200989912E+00-1.512124716E-01+
*       4.6452087907E-01               0
GRID*               7759               0-1.205679751E+00-2.418439843E-01+
*       5.2288013671E-01               0
GRID*               7760               01.7745275629E+004.3531958259E-01+
*       -2.297368309E-01               0
GRID*               7761               01.7745269528E+004.3531812974E-01+
*       -1.880703684E-01               0
GRID*               7762               01.7518179884E+004.0406794256E-01+
*       -2.297368309E-01               0
GRID*               7763               01.2117414106E+005.1118369705E-02+
*       4.8654911514E-01               0
GRID*               7764               01.7464121522E+00-7.132926841E-01+
*       -5.079543621E-02               0
GRID*               7765               01.7092993864E+00-7.132926841E-01+
*       -1.133543555E-01               0
GRID*               7766               01.7284988134E+00-7.138550802E-01+
*       -2.195306932E-02               0
GRID*               7767               01.7428276847E+00-6.771477643E-01+
*       -7.274850553E-02               0
GRID*               7768               01.6913860476E+00-7.138550802E-01+
*       -8.451198865E-02               0
GRID*               7769               0-1.247346415E+00-1.653976854E-01+
*       5.1028550289E-01               0
GRID*               7770               01.4660885436E+00-7.159451228E-01+
*       -2.184144865E-01               0
GRID*               7771               01.4214763640E+00-7.159451228E-01+
*       -1.598089130E-01               0
GRID*               7772               01.4948760766E+00-7.159451228E-01+
*       -1.562955149E-01               0
GRID*               7773               0-1.273749988E+001.1585381556E-01+
*       6.3469883481E-02               0
GRID*               7774               01.1700760405E+005.1112852044E-02+
*       4.8654836785E-01               0
GRID*               7775               0-6.422034467E-012.3208796768E-01+
*       -5.027006326E-02               0
GRID*               7776               0-7.058968493E-012.3484616348E-01+
*       -6.486400110E-02               0
GRID*               7777               0-6.760547238E-012.9797087043E-01+
*       -6.120514455E-02               0
GRID*               7778               01.4635219722E+00-5.088344610E-01+
*       -9.432625536E-02               0
GRID*               7779               01.2129559549E+00-5.727664413E-02+
*       1.0861042034E+00               0
GRID*               7780               01.2129559549E+00-3.704040376E-02+
*       1.1229512284E+00               0
GRID*               7781               0-1.242938754E+00-2.644010404E-01+
*       6.0310707499E-01               0
GRID*               7782               0-1.222315969E+00-2.769594237E-01+
*       5.8229348785E-01               0
GRID*               7783               0-1.211458790E+00-2.168128887E-01+
*       5.8993648912E-01               0
GRID*               7784               0-1.201273391E+00-2.931993599E-01+
*       4.9606716568E-01               0
GRID*               7785               0-1.222902538E+00-2.820674516E-01+
*       6.0519830874E-01               0
GRID*               7786               01.7800549306E+003.3056464438E-01+
*       -8.776224967E-02               0
GRID*               7787               01.7830552356E+003.8364111057E-01+
*       -7.302156366E-02               0
GRID*               7788               01.8005812634E+003.7383008728E-01+
*       -5.236620770E-02               0
GRID*               7789               0-1.328355049E+00-2.974303945E-01+
*       6.7428643197E-01               0
GRID*               7790               0-1.356520631E+00-2.799428964E-01+
*       7.0760896836E-01               0
GRID*               7791               0-1.327373997E+00-2.921186454E-01+
*       6.5673667380E-01               0
GRID*               7792               01.1820321466E+006.3724887151E-01+
*       -9.557794289E-03               0
GRID*               7793               01.2483326677E+006.0260006883E-01+
*       -9.596502985E-03               0
GRID*               7794               01.2570318631E+006.5132192953E-01+
*       -7.798011268E-02               0
GRID*               7795               01.3396009986E+00-3.145845009E-01+
*       6.5526894098E-01               0
GRID*               7796               01.3396009986E+00-3.406603955E-01+
*       6.9769619397E-01               0
GRID*               7797               01.5148978469E+00-3.893301778E-01+
*       -1.440967956E-01               0
GRID*               7798               01.5148921288E+00-3.893345643E-01+
*       -1.024292170E-01               0
GRID*               7799               01.5900268646E+00-3.381225403E-01+
*       -1.484218562E-01               0
GRID*               7800               01.5296136590E+00-3.286031084E-01+
*       -1.258512315E-01               0
GRID*               7801               01.5900211466E+00-3.381269268E-01+
*       -1.067542776E-01               0
GRID*               7802               01.3181464837E+00-2.947296482E-01+
*       6.2801508565E-01               0
GRID*               7803               01.3356300626E+00-2.396903451E-01+
*       6.2112663176E-01               0
GRID*               7804               01.3358143611E+00-2.426140920E-01+
*       6.4548420446E-01               0
GRID*               7805               01.3183307823E+00-2.976533950E-01+
*       6.5237265834E-01               0
GRID*               7806               01.3560252163E+00-2.570598793E-01+
*       6.2507067524E-01               0
GRID*               7807               08.1240603976E-01-1.728098888E-01+
*       -1.875508013E-01               0
GRID*               7808               01.2362059199E+00-3.092786932E-01+
*       6.9207478920E-01               0
GRID*               7809               01.2360475377E+00-3.066973116E-01+
*       6.7051183902E-01               0
GRID*               7810               01.3672501512E+00-2.453628108E-01+
*       1.4183666202E+00               0
GRID*               7811               01.3005931053E+00-2.353651863E-01+
*       1.3536286878E+00               0
GRID*               7812               01.3047494997E+00-2.107151199E-01+
*       1.4307634424E+00               0
GRID*               7813               01.1797407510E+00-2.488803312E-01+
*       1.4236427074E+00               0
GRID*               7814               01.2380837051E+00-2.388827066E-01+
*       1.3589047751E+00               0
GRID*               7815               01.4266533290E+004.1232331521E-01+
*       -6.504062124E-02               0
GRID*               7816               01.2695926322E+00-3.713955717E-01+
*       1.3216042472E+00               0
GRID*               7817               01.2979142502E+00-3.553356393E-01+
*       1.2456648637E+00               0
GRID*               7818               01.3003365335E+00-3.304093642E-01+
*       1.3080969743E+00               0
GRID*               7819               01.3679396184E+007.1222436977E-01+
*       -9.629107548E-03               0
GRID*               7820               01.3677439386E+007.1101433699E-01+
*       2.0953155517E-02               0
GRID*               7821               01.3369336095E+006.7323870676E-01+
*       1.1324047969E-02               0
GRID*               7822               01.3677439386E+006.3601433699E-01+
*       2.0953155517E-02               0
GRID*               7823               01.3050390577E+00-4.069518469E-01+
*       1.3383160688E+00               0
GRID*               7824               0-1.784819841E+00-4.599230866E-01+
*       -1.871703850E-01               0
GRID*               7825               0-1.824591501E+00-4.124514409E-01+
*       -1.976193596E-01               0
GRID*               7826               0-1.807388218E+00-4.138537554E-01+
*       -1.771156756E-01               0
GRID*               7827               0-1.792806294E+00-4.336601915E-01+
*       -2.081677018E-01               0
GRID*               7828               0-1.815374670E+00-3.875908604E-01+
*       -1.981129924E-01               0
GRID*               7829               0-1.878641799E+00-2.654087910E-01+
*       -1.568827270E-01               0
GRID*               7830               0-1.804299489E+00-1.118764804E-01+
*       -3.149495993E-02               0
GRID*               7831               0-1.867473376E+00-1.489640757E-01+
*       -3.149495993E-02               0
GRID*               7832               0-1.867225238E+00-1.127487618E-01+
*       -3.052765173E-02               0
GRID*               7833               0-1.804051351E+00-7.566116657E-02+
*       -3.052765173E-02               0
GRID*               7834               0-1.835948667E+00-1.117128375E-01+
*       -6.202261166E-02               0
GRID*               7835               0-1.243943783E+00-6.209597275E-01+
*       6.6207749648E-01               0
GRID*               7836               0-1.243809022E+00-6.367604194E-01+
*       5.7985784563E-01               0
GRID*               7837               0-1.274936440E+00-6.739038728E-01+
*       3.3999371595E-01               0
GRID*               7838               0-1.864977937E+00-1.642406566E-01+
*       -2.182045218E-01               0
GRID*               7839               0-1.305750051E+00-6.340734850E-01+
*       4.4092766827E-01               0
GRID*               7840               0-1.306235235E+00-6.381238028E-01+
*       3.4092847488E-01               0
GRID*               7841               01.7648571673E+003.9275988404E-01+
*       -1.352568570E-01               0
GRID*               7842               01.7875657451E+004.2400898801E-01+
*       -9.359054401E-02               0
GRID*               7843               01.7648570643E+003.9275981590E-01+
*       -9.359019778E-02               0
GRID*               7844               0-1.511075291E+00-2.547937529E-01+
*       -6.425771278E-02               0
GRID*               7845               0-1.538192331E+00-3.038428005E-01+
*       -6.425771278E-02               0
GRID*               7846               0-1.580080347E+00-6.280736103E-01+
*       -4.134709523E-02               0
GRID*               7847               0-1.721535356E+00-6.925418376E-01+
*       -1.670169388E-01               0
GRID*               7848               0-1.702247058E+00-6.556269549E-01+
*       -1.775145002E-01               0
GRID*               7849               0-1.706111336E+00-6.380697483E-01+
*       -1.563024487E-01               0
GRID*               7850               0-1.725399634E+00-6.749846309E-01+
*       -1.458048873E-01               0
GRID*               7851               0-1.686117105E+00-6.925848127E-01+
*       -1.671492085E-01               0
GRID*               7852               01.1706254613E+00-4.769245023E-02+
*       4.8314836513E-01               0
GRID*               7853               01.1698245977E+00-7.135933638E-02+
*       4.8812586652E-01               0
GRID*               7854               01.1917001114E+00-6.342164756E-02+
*       4.6500550740E-01               0
GRID*               7855               01.2114908545E+00-7.135763816E-02+
*       4.8812565627E-01               0
GRID*               7856               0-1.507051653E+00-4.715138201E-01+
*       -2.287501642E-01               0
GRID*               7857               0-1.518005858E+00-4.457697348E-01+
*       -2.288183115E-01               0
GRID*               7858               01.1698711851E+00-2.851021356E-02+
*       4.8311609993E-01               0
GRID*               7859               01.2188436155E+005.0682868201E-01+
*       5.5974343378E-01               0
GRID*               7860               01.2188436339E+005.6335223520E-01+
*       5.2290633610E-01               0
GRID*               7861               01.2031782095E+006.3367674828E-01+
*       5.5865454384E-01               0
GRID*               7862               01.3032832922E+006.4529815536E-01+
*       3.3865977909E-01               0
GRID*               7863               0-1.179657187E+007.2165765487E-01+
*       7.0600707342E-01               0
GRID*               7864               01.2365362015E+00-2.643215630E-01+
*       9.1542594417E-01               0
GRID*               7865               01.1921550389E+00-2.565695001E-01+
*       8.6782100530E-01               0
GRID*               7866               01.2324656487E+00-1.988258001E-01+
*       9.8777988054E-01               0
GRID*               7867               0-1.366951369E+00-1.087294736E-01+
*       1.4577221350E+00               0
GRID*               7868               0-1.304452022E+00-7.232904726E-02+
*       1.4631216803E+00               0
GRID*               7869               0-1.314575477E+00-9.687307705E-02+
*       1.3801409639E+00               0
GRID*               7870               0-1.180220316E+00-1.749493502E-01+
*       1.4396767470E+00               0
GRID*               7871               0-1.330364262E+003.8959682493E-02+
*       1.3445092396E+00               0
GRID*               7872               02.6610497218E-01-7.187163754E-01+
*       -2.187568652E-01               0
GRID*               7873               01.1405652726E-01-7.187165250E-01+
*       -2.187543493E-01               0
GRID*               7874               0-1.334402741E+006.2203486808E-01+
*       5.6678646624E-01               0
GRID*               7875               0-1.315345885E+00-1.666404167E-01+
*       1.3673682516E+00               0
GRID*               7876               0-1.367721777E+00-1.784968132E-01+
*       1.4449494227E+00               0
GRID*               7877               0-1.368374979E+007.1996206896E-01+
*       7.0498824607E-01               0
GRID*               7878               0-1.368374979E+007.1996206896E-01+
*       6.2998824607E-01               0
GRID*               7879               0-1.305870930E+007.1996206896E-01+
*       6.5928884440E-01               0
GRID*               7880               01.5223448689E-016.2587210296E-01+
*       -1.251641815E-01               0
GRID*               7881               01.5196855896E-016.5614121215E-01+
*       -2.187595927E-01               0
GRID*               7882               01.1407328233E-016.5668963810E-01+
*       -1.563279484E-01               0
GRID*               7883               01.9031105554E-016.5662076830E-01+
*       -1.563554184E-01               0
GRID*               7884               01.1459124995E-016.2537814416E-01+
*       -6.256835574E-02               0
GRID*               7885               0-1.482255453E+00-5.130488845E-01+
*       -1.139576023E-01               0
GRID*               7886               0-1.482263750E+00-5.516620361E-01+
*       -1.139581639E-01               0
GRID*               7887               0-8.378095252E-01-4.218589128E-01+
*       -1.890516636E-01               0
GRID*               7888               0-4.184221486E-01-6.568021381E-01+
*       -1.560701842E-01               0
GRID*               7889               0-1.178677832E+004.8212703900E-01+
*       1.2777197145E+00               0
GRID*               7890               0-1.241177563E+004.5484913623E-01+
*       1.3024423159E+00               0
GRID*               7891               0-1.179936638E+005.0410815511E-01+
*       1.2609981458E+00               0
GRID*               7892               0-1.209864523E+004.5590548226E-01+
*       1.2583881632E+00               0
GRID*               7893               0-1.242436369E+004.7683025234E-01+
*       1.2857207472E+00               0
GRID*               7894               0-8.999471196E-01-1.629625844E-01+
*       -6.559391077E-02               0
GRID*               7895               01.3876196926E+00-6.366991011E-01+
*       -3.355743081E-02               0
GRID*               7896               01.4041966353E+00-6.169416353E-01+
*       -1.057882470E-01               0
GRID*               7897               01.4114399861E+00-6.747347042E-01+
*       -6.603704420E-02               0
GRID*               7898               01.4712753653E+00-5.749930968E-01+
*       -9.328028841E-02               0
GRID*               7899               01.5429586057E+00-5.953109494E-01+
*       -6.271575609E-02               0
GRID*               7900               08.8488823193E-014.8671165514E-01+
*       -1.925328997E-01               0
GRID*               7901               01.2484500919E+00-4.285322627E-01+
*       -1.262395019E-01               0
GRID*               7902               01.1568135166E+00-4.868014547E-01+
*       -1.269091947E-01               0
GRID*               7903               01.2349226297E+00-3.337422442E-01+
*       -1.832938204E-01               0
GRID*               7904               0-1.148091294E+00-6.070435671E-01+
*       -1.066808006E-01               0
GRID*               7905               0-1.164892486E+00-6.365505403E-01+
*       -3.355811361E-02               0
GRID*               7906               0-1.183963525E+00-6.069258322E-01+
*       -1.082467486E-01               0
GRID*               7907               0-1.145162675E+00-6.732188154E-01+
*       -6.555027919E-02               0
GRID*               7908               0-1.304907549E+005.7379003865E-01+
*       1.0372229789E+00               0
GRID*               7909               0-9.993542185E-01-7.158331686E-01+
*       -3.042353008E-02               0
GRID*               7910               0-1.034765113E+00-7.158331686E-01+
*       -9.364544476E-02               0
GRID*               7911               0-1.025092623E+00-7.153824869E-01+
*       -2.192930396E-01               0
GRID*               7912               01.2362948411E+00-6.476588094E-01+
*       -1.042883951E-01               0
GRID*               7913               0-1.502049754E+005.3757365410E-01+
*       -2.284105170E-01               0
GRID*               7914               0-1.516946942E+005.5843327525E-01+
*       -2.288370287E-01               0
GRID*               7915               0-1.335657511E+002.1614250279E-01+
*       9.1706342335E-01               0
GRID*               7916               0-1.313162191E+002.7335133777E-01+
*       9.2629185634E-01               0
GRID*               7917               0-1.336281336E+002.3026290268E-01+
*       8.9349510838E-01               0
GRID*               7918               0-1.356519639E+002.3985415328E-01+
*       9.1972093668E-01               0
GRID*               7919               0-1.313786016E+002.8747173766E-01+
*       9.0272354137E-01               0
GRID*               7920               0-1.881309548E+004.3332173114E-01+
*       -3.153255275E-02               0
GRID*               7921               0-1.848530155E+004.3616524109E-01+
*       -3.153255275E-02               0
GRID*               7922               0-1.827758762E+003.8533474582E-01+
*       -3.153255275E-02               0
GRID*               7923               0-1.206929021E+004.2187204486E-01+
*       1.1603545603E+00               0
GRID*               7924               0-1.333877938E+005.3018421670E-01+
*       9.2964075309E-01               0
GRID*               7925               01.3319800033E+00-1.682075810E-02+
*       3.0496542021E-01               0
GRID*               7926               04.5631122592E-016.2638623159E-01+
*       -1.246915069E-01               0
GRID*               7927               04.9442995844E-016.5655091801E-01+
*       -1.541035692E-01               0
GRID*               7928               01.2081510674E+00-3.207814404E-02+
*       2.5809576240E-01               0
GRID*               7929               0-3.798155328E-027.1872212691E-01+
*       -2.187587014E-01               0
GRID*               7930               0-3.785495260E-026.5693911832E-01+
*       -1.562882471E-01               0
GRID*               7931               0-2.066210345E-056.5614721233E-01+
*       -2.187587014E-01               0
GRID*               7932               03.8161513974E-016.8822296549E-01+
*       -6.244868776E-02               0
GRID*               7933               01.3056478866E+00-6.294207141E-01+
*       6.9019245117E-01               0
GRID*               7934               01.2092673166E+00-6.611666438E-01+
*       4.7194178522E-01               0
GRID*               7935               01.2720885831E+00-5.928571035E-01+
*       4.3432728962E-01               0
GRID*               7936               01.3024407231E+00-6.299910819E-01+
*       4.7041491925E-01               0
GRID*               7937               08.8656525852E-016.8467972098E-01+
*       -1.232865530E-01               0
GRID*               7938               08.1038389824E-016.8467972098E-01+
*       -1.231748814E-01               0
GRID*               7939               01.1793129157E+00-7.174927412E-01+
*       4.9032754085E-01               0
GRID*               7940               01.2417934694E+00-7.174927412E-01+
*       5.2664734025E-01               0
GRID*               7941               01.2398301655E+00-6.286593850E-01+
*       5.1226932607E-01               0
GRID*               7942               01.2029253754E+008.3103384565E-02+
*       -2.024114176E-01               0
GRID*               7943               01.2488198031E+00-5.229025964E-01+
*       1.1181278996E+00               0
GRID*               7944               01.2477944957E+00-5.418348794E-01+
*       1.0886119761E+00               0
GRID*               7945               01.1917156338E+003.6709866333E-01+
*       -6.690762315E-02               0
GRID*               7946               0-1.770418236E+00-3.148039305E-01+
*       -1.772876819E-01               0
GRID*               7947               04.9307082655E-01-3.650219545E-01+
*       -6.231010422E-02               0
GRID*               7948               0-1.730701264E+00-3.362428055E-01+
*       -9.395381350E-02               0
GRID*               7949               0-1.726449132E+00-3.027113285E-01+
*       -5.228768191E-02               0
GRID*               7950               0-1.197736049E+00-6.733861068E-01+
*       -4.394981364E-02               0
GRID*               7951               0-1.235081871E+00-6.409938720E-01+
*       -1.044771635E-01               0
GRID*               7952               0-1.247342859E+00-6.045693514E-01+
*       3.4470143425E-02               0
GRID*               7953               0-1.377322881E+002.1614590881E-01+
*       9.1705901950E-01               0
GRID*               7954               0-1.377946706E+002.3026630870E-01+
*       8.9349070453E-01               0
GRID*               7955               01.8999992234E-017.1871915172E-01+
*       -2.187595927E-01               0
GRID*               7956               01.1404992444E-017.1871915172E-01+
*       -2.187595927E-01               0
GRID*               7957               09.6591912255E-016.5010164928E-01+
*       -3.148834759E-02               0
GRID*               7958               01.0461456675E+006.1868998497E-01+
*       -9.534551013E-02               0
GRID*               7959               09.6427147240E-016.8321847699E-01+
*       -6.357944106E-02               0
GRID*               7960               0-1.436926681E+00-5.333200688E-01+
*       -1.972911372E-01               0
GRID*               7961               0-1.397506684E+00-5.920140161E-01+
*       -1.972911372E-01               0
GRID*               7962               0-1.324743728E+00-6.141145027E-01+
*       -1.959190498E-01               0
GRID*               7963               01.1695648266E+00-2.366003871E-01+
*       8.7377692136E-01               0
GRID*               7964               01.1793129157E+00-7.174927412E-01+
*       5.6532754085E-01               0
GRID*               7965               01.3038714435E+00-6.274717763E-01+
*       5.4023129903E-01               0
GRID*               7966               01.3036696622E+00-6.297857198E-01+
*       5.0613415074E-01               0
GRID*               7967               01.3353385008E+00-1.029429975E-02+
*       4.8555962290E-01               0
GRID*               7968               01.2122657633E+00-8.991627199E-02+
*       4.9461848680E-01               0
GRID*               7969               01.2838054492E+001.5137132764E-01+
*       5.0039626819E-01               0
GRID*               7970               0-1.529020734E+00-7.166286798E-01+
*       -3.150576506E-02               0
GRID*               7971               0-1.515916907E+00-6.786907242E-01+
*       -8.362100962E-02               0
GRID*               7972               0-1.552312787E+00-7.120620443E-01+
*       -5.211524456E-02               0
GRID*               7973               0-1.568138576E+00-7.129744334E-01+
*       -2.173865307E-02               0
GRID*               7974               0-1.531742696E+00-6.796031133E-01+
*       -5.324441813E-02               0
GRID*               7975               0-1.555034749E+00-6.750364778E-01+
*       -7.385389763E-02               0
GRID*               7976               0-1.140381787E-01-6.253483061E-01+
*       -1.875170060E-01               0
GRID*               7977               0-7.608017148E-02-5.628006650E-01+
*       -1.875170060E-01               0
GRID*               7978               0-7.607585409E-02-4.996301605E-01+
*       -1.251369460E-01               0
GRID*               7979               0-1.799883659E+00-4.758652109E-01+
*       -1.565954014E-01               0
GRID*               7980               0-1.799891665E+00-5.145151917E-01+
*       -1.565954010E-01               0
GRID*               7981               0-1.799891465E+00-5.145157918E-01+
*       -1.149287004E-01               0
GRID*               7982               01.4605154800E+00-6.211876570E-01+
*       -1.656453027E-01               0
GRID*               7983               01.5321929529E+00-6.415010874E-01+
*       -1.767483567E-01               0
GRID*               7984               01.5559681710E+00-6.369941023E-01+
*       -1.566607002E-01               0
GRID*               7985               01.4842906981E+00-6.166806719E-01+
*       -1.455576462E-01               0
GRID*               7986               01.5129023451E+00-6.773832604E-01+
*       -1.667413165E-01               0
GRID*               7987               0-9.015432536E-013.9143637572E-01+
*       -6.030245989E-02               0
GRID*               7988               0-1.607115020E+00-7.316337962E-01+
*       -2.185387180E-01               0
GRID*               7989               0-1.638260420E+00-7.316337962E-01+
*       -1.561076822E-01               0
GRID*               7990               0-1.560926013E+00-7.316337962E-01+
*       -1.569286717E-01               0
GRID*               7991               0-1.570638339E+00-7.309720025E-01+
*       -2.194169353E-01               0
GRID*               7992               0-1.524449331E+00-7.309720025E-01+
*       -1.578068890E-01               0
GRID*               7993               0-1.521355432E+00-6.992872927E-01+
*       -1.894051637E-01               0
GRID*               7994               0-1.541963043E+00-5.906128147E-01+
*       -2.295303335E-01               0
GRID*               7995               0-1.519253460E+00-5.593611794E-01+
*       -2.295303335E-01               0
GRID*               7996               01.3928647170E+00-6.552425343E-01+
*       -1.386252427E-01               0
GRID*               7997               01.4248823445E+00-6.212426296E-01+
*       -1.687676977E-01               0
GRID*               7998               01.3858432285E+00-7.160000954E-01+
*       -1.629313080E-01               0
GRID*               7999               01.3935867064E+00-6.246527261E-01+
*       -1.684529470E-01               0
GRID*               8000               01.3865652179E+00-6.854102872E-01+
*       -1.927590123E-01               0
GRID*               8001               09.0219478394E-011.6995147101E-01+
*       -7.732402246E-02               0
GRID*               8002               01.2698981077E+001.0380421242E-01+
*       1.1261735162E-01               0
GRID*               8003               0-9.691979389E-01-6.151082998E-01+
*       -1.997755817E-01               0
GRID*               8004               0-1.179346919E+00-7.188093242E-01+
*       4.8435914261E-01               0
GRID*               8005               0-1.179346919E+00-7.188093242E-01+
*       5.5935914261E-01               0
GRID*               8006               0-1.179346908E+00-6.558343429E-01+
*       5.1694185560E-01               0
GRID*               8007               07.5846904190E-02-3.121330110E-01+
*       -1.875514515E-01               0
GRID*               8008               0-1.445687401E+00-7.166286798E-01+
*       -3.150576506E-02               0
GRID*               8009               0-1.497598397E+00-7.166286798E-01+
*       -9.489571878E-02               0
GRID*               8010               0-3.169456878E-016.9685208278E-01+
*       -1.145041007E-01               0
GRID*               8011               0-3.311768324E-016.6315273687E-01+
*       -8.737572405E-02               0
GRID*               8012               0-2.932775677E-016.9370521059E-01+
*       -1.169545598E-01               0
GRID*               8013               0-3.056070413E-017.0362127827E-01+
*       -4.768673204E-02               0
GRID*               8014               0-1.181491617E+00-9.825902384E-02+
*       -8.123497144E-02               0
GRID*               8015               0-9.955608564E-016.6821126321E-01+
*       -1.441961614E-01               0
GRID*               8016               0-8.750176082E-016.4581733645E-01+
*       -1.609089826E-01               0
GRID*               8017               01.4855208357E+00-7.292769813E-01+
*       -2.198805095E-01               0
GRID*               8018               0-1.179587070E+007.1628383479E-01+
*       7.6550692366E-01               0
GRID*               8019               0-1.242086051E+007.1362057655E-01+
*       8.1011732922E-01               0
GRID*               8020               01.8675815620E+003.6606724952E-02+
*       -2.185978011E-01               0
GRID*               8021               01.8065385167E+007.2851813324E-02+
*       -2.185978011E-01               0
GRID*               8022               01.7815186759E+001.4076376328E-02+
*       -1.542455797E-01               0
GRID*               8023               0-1.266912758E+006.8657476002E-01+
*       2.6272026049E-01               0
GRID*               8024               0-1.528846317E+005.7356701241E-01+
*       -1.869232934E-01               0
GRID*               8025               0-1.179097904E+007.0983545578E-01+
*       8.6113195096E-01               0
GRID*               8026               0-1.241596945E+007.1437807666E-01+
*       8.3258356449E-01               0
GRID*               8027               0-1.179097964E+007.1704133490E-01+
*       7.8797315893E-01               0
GRID*               8028               01.8247561662E+00-2.840002552E-01+
*       -1.787536606E-01               0
GRID*               8029               01.8247561662E+00-3.209739114E-01+
*       -1.162536606E-01               0
GRID*               8030               01.8247561662E+00-2.465002552E-01+
*       -1.162536606E-01               0
GRID*               8031               0-1.242820481E+00-5.756099099E-01+
*       1.1798572081E+00               0
GRID*               8032               0-1.250352973E+00-5.065579509E-01+
*       1.1353748294E+00               0
GRID*               8033               0-1.210446534E+00-5.469503124E-01+
*       1.1468507264E+00               0
GRID*               8034               0-1.181129778E+00-6.174802593E-01+
*       1.1209121193E+00               0
GRID*               8035               0-1.249624909E+001.0055902310E-02+
*       1.3746710895E+00               0
GRID*               8036               0-1.233938095E+004.1318696386E-02+
*       1.4690308744E+00               0
GRID*               8037               0-1.228053063E+002.2432488058E-02+
*       1.3750242482E+00               0
GRID*               8038               0-1.308594609E+00-3.069730889E-01+
*       1.3385744609E+00               0
GRID*               8039               0-1.206871554E+002.4188008444E-01+
*       1.0115373615E+00               0
GRID*               8040               0-1.820982599E+00-4.136330491E-01+
*       -5.095105792E-02               0
GRID*               8041               0-1.765931088E+00-5.809822338E-01+
*       -2.111499618E-02               0
GRID*               8042               0-1.743229778E+00-6.122296229E-01+
*       -6.278128004E-02               0
GRID*               8043               0-1.743232201E+00-6.122277813E-01+
*       -2.111499618E-02               0
GRID*               8044               01.7773126060E+00-5.595712510E-01+
*       -1.975106367E-02               0
GRID*               8045               01.7773115247E+00-5.595738430E-01+
*       -6.141809039E-02               0
GRID*               8046               01.7824235120E+00-5.383530056E-01+
*       -2.100793326E-02               0
GRID*               8047               01.7921066712E+00-5.592911096E-01+
*       -4.075899693E-02               0
GRID*               8048               01.7824224307E+00-5.383555975E-01+
*       -6.267495998E-02               0
GRID*               8049               0-1.866757354E+00-5.657947642E-01+
*       -5.169916517E-02               0
GRID*               8050               0-1.819000444E+00-5.156977194E-01+
*       -7.303158496E-02               0
GRID*               8051               0-1.833539859E+00-5.502842862E-01+
*       -7.382655432E-02               0
GRID*               8052               0-1.755839154E+005.9216571061E-01+
*       -2.239717119E-02               0
GRID*               8053               0-1.755842488E+005.9216313858E-01+
*       -6.406330277E-02               0
GRID*               8054               0-1.507059470E+00-5.101229475E-01+
*       -2.287501642E-01               0
GRID*               8055               01.7834439387E+00-5.193627849E-01+
*       -2.190741683E-02               0
GRID*               8056               0-1.508690134E+00-3.970219569E-01+
*       -1.098083252E-01               0
GRID*               8057               0-1.485993686E+00-4.282814404E-01+
*       -1.098081298E-01               0
GRID*               8058               0-1.540703010E+00-4.145087510E-01+
*       -1.871516314E-01               0
GRID*               8059               0-1.540702827E+00-4.145088719E-01+
*       -2.288183115E-01               0
GRID*               8060               0-1.650845038E+00-6.542942322E-01+
*       -1.556349670E-01               0
GRID*               8061               0-1.614089878E+00-6.423625962E-01+
*       -1.139683141E-01               0
GRID*               8062               0-1.650845038E+00-6.542942322E-01+
*       -1.139683003E-01               0
GRID*               8063               0-1.687565458E+00-6.423501826E-01+
*       -1.556355038E-01               0
GRID*               8064               0-1.665049971E+00-6.665509662E-01+
*       -1.753814978E-01               0
GRID*               8065               01.1403702009E-01-6.566058411E-01+
*       -1.562536539E-01               0
GRID*               8066               01.8435656731E+003.3102187613E-01+
*       -6.182493144E-02               0
GRID*               8067               01.8713252462E+003.3420944201E-01+
*       -3.135488316E-02               0
GRID*               8068               01.8291994402E+00-6.341981144E-01+
*       -3.003955745E-02               0
GRID*               8069               01.8749953935E+00-6.218190324E-01+
*       -3.003955745E-02               0
GRID*               8070               01.5190049610E+005.6020361826E-01+
*       -2.299954084E-01               0
GRID*               8071               01.5062474392E+005.3049606218E-01+
*       -2.279635795E-01               0
GRID*               8072               02.6761052734E-01-7.185691417E-01+
*       -3.124981158E-02               0
GRID*               8073               01.5138357937E+005.1912297124E-01+
*       -6.156277691E-02               0
GRID*               8074               01.5138358871E+005.1912326936E-01+
*       -1.989612709E-02               0
GRID*               8075               01.5170678445E+005.5786315207E-01+
*       -2.221435448E-02               0
GRID*               8076               01.5010205583E+005.3831252052E-01+
*       -4.211048157E-02               0
GRID*               8077               01.4567253466E+004.7596002782E-01+
*       -1.033611998E-01               0
GRID*               8078               01.5071061588E+005.0989128695E-01+
*       -2.278858616E-01               0
GRID*               8079               04.5508245576E-01-3.035526034E-01+
*       -6.120606529E-02               0
GRID*               8080               01.5417165146E+005.9144003846E-01+
*       -2.299954084E-01               0
GRID*               8081               08.8461221496E-017.1622609881E-01+
*       -3.209109346E-02               0
GRID*               8082               01.5521901808E+007.1705095701E-01+
*       -2.471156708E-02               0
GRID*               8083               01.5207678144E+007.1705095701E-01+
*       -8.810162931E-02               0
GRID*               8084               01.5873059840E+007.3567394130E-01+
*       -2.343623428E-02               0
GRID*               8085               01.5740795505E+007.0272489831E-01+
*       -4.814780137E-02               0
GRID*               8086               01.5558836176E+007.3567394130E-01+
*       -8.682629651E-02               0
GRID*               8087               01.2168913670E+006.1440190704E-01+
*       1.1932489763E-01               0
GRID*               8088               01.4595749284E+004.1480730314E-01+
*       -8.715961413E-02               0
GRID*               8089               01.6315463652E+006.5130535348E-01+
*       -1.149637685E-01               0
GRID*               8090               01.5948211978E+006.3937615208E-01+
*       -1.566309702E-01               0
GRID*               8091               01.5946493485E+006.4892567888E-01+
*       -1.145426318E-01               0
GRID*               8092               01.5774457661E+006.7523103236E-01+
*       -1.461730670E-01               0
GRID*               8093               01.6197974544E+006.3553786920E-01+
*       -6.179667362E-02               0
GRID*               8094               01.5830780061E+006.2361305296E-01+
*       -6.179629678E-02               0
GRID*               8095               01.6197974544E+006.3553786920E-01+
*       -2.013000696E-02               0
GRID*               8096               03.7998637586E-026.8797048638E-01+
*       -1.250770551E-01               0
GRID*               8097               01.1426485540E-016.8797048638E-01+
*       -1.250800161E-01               0
GRID*               8098               01.6816275033E+00-3.643746905E-01+
*       -1.869869066E-01               0
GRID*               8099               01.7183780399E+00-3.763212769E-01+
*       -2.286535733E-01               0
GRID*               8100               01.7851316277E+00-4.590077448E-01+
*       -1.869280769E-01               0
GRID*               8101               01.7851327042E+00-4.590103249E-01+
*       -2.285951020E-01               0
GRID*               8102               01.7751309160E+00-4.363318274E-01+
*       -2.289790339E-01               0
GRID*               8103               01.7751298396E+00-4.363292473E-01+
*       -1.873120088E-01               0
GRID*               8104               01.7926185813E+00-4.339273109E-01+
*       -2.075741360E-01               0
GRID*               8105               01.3770993675E+002.2104674593E-01+
*       9.1582421515E-01               0
GRID*               8106               01.2934871550E+002.9776167850E-01+
*       6.2552403572E-01               0
GRID*               8107               01.3782360785E+009.0345461204E-03+
*       4.8449616555E-01               0
GRID*               8108               01.3770028427E+002.8258242292E-02+
*       4.8603082899E-01               0
GRID*               8109               01.3355613774E+002.6507411227E-01+
*       7.1986100259E-01               0
GRID*               8110               01.2795865989E+006.6493785644E-01+
*       1.0878577178E-01               0
GRID*               8111               01.2489829840E+006.3956683501E-01+
*       1.4908888132E-01               0
GRID*               8112               01.1805061846E+006.3603095388E-01+
*       2.0732266997E-02               0
GRID*               8113               01.2486474899E+006.2596881031E-01+
*       8.8429100711E-02               0
GRID*               8114               01.2468067057E+006.0138215119E-01+
*       2.0693558300E-02               0
GRID*               8115               01.2113471515E+002.3592225025E-01+
*       5.1470420233E-01               0
GRID*               8116               01.2090914509E+005.6017603887E-01+
*       4.5384272864E-01               0
GRID*               8117               01.1789569605E+007.2366208471E-01+
*       4.6283040634E-02               0
GRID*               8118               01.2416521874E+007.2366208471E-01+
*       8.7371978696E-02               0
GRID*               8119               01.1789569605E+007.2366208471E-01+
*       1.2128304063E-01               0
GRID*               8120               01.5941716860E+003.7573833901E-01+
*       -2.110385828E-02               0
GRID*               8121               01.5941683425E+003.7574091991E-01+
*       -6.276998810E-02               0
GRID*               8122               01.2333782767E+00-2.054020516E-01+
*       5.0577505813E-01               0
GRID*               8123               01.1915636674E+00-2.179838561E-01+
*       5.4921335025E-01               0
GRID*               8124               01.2112137008E+00-1.500558024E-01+
*       5.1836033387E-01               0
GRID*               8125               01.1913965930E+00-1.496587031E-01+
*       4.9309784767E-01               0
GRID*               8126               01.2326033247E+00-1.910642232E-01+
*       4.9433076142E-01               0
GRID*               8127               07.2177032034E-017.1816554297E-01+
*       -2.186561727E-01               0
GRID*               8128               01.3720251704E+005.5490455436E-01+
*       -1.866945503E-01               0
GRID*               8129               01.8207717986E+003.6113642008E-01+
*       -2.188628404E-01               0
GRID*               8130               01.7811388458E+003.2906067871E-01+
*       -1.502702069E-01               0
GRID*               8131               01.7558422693E+003.2478614612E-01+
*       -1.814073665E-01               0
GRID*               8132               01.8204412301E+003.2411541011E-01+
*       -2.186093059E-01               0
GRID*               8133               01.8457378066E+003.2838994271E-01+
*       -1.874721462E-01               0
GRID*               8134               01.7808082773E+002.9203966874E-01+
*       -1.500166724E-01               0
GRID*               8135               01.1705995064E+00-1.246029006E-01+
*       5.0823115606E-01               0
GRID*               8136               01.1698245977E+00-1.060442668E-01+
*       5.0173832552E-01               0
GRID*               8137               01.3866439759E+007.1294552869E-01+
*       -3.375839558E-02               0
GRID*               8138               09.9865931085E-017.1699237818E-01+
*       -3.148834759E-02               0
GRID*               8139               01.0752426486E+007.1699237818E-01+
*       -3.148834759E-02               0
GRID*               8140               01.1140465156E+006.1692275260E-01+
*       -1.558685979E-01               0
GRID*               8141               01.5578355639E+006.3750161175E-01+
*       -9.335923564E-02               0
GRID*               8142               01.4917246079E+006.5969621710E-01+
*       -1.282495453E-01               0
GRID*               8143               01.5356330809E+006.4280106843E-01+
*       -7.331865455E-02               0
GRID*               8144               01.4869976120E+006.2864442955E-01+
*       -9.818230822E-02               0
GRID*               8145               01.1789569605E+006.4866208471E-01+
*       4.6283040634E-02               0
GRID*               8146               01.2470982657E+006.3859994114E-01+
*       1.1397987435E-01               0
GRID*               8147               01.2107130784E+006.8469303858E-01+
*       6.7015307631E-02               0
GRID*               8148               01.1431434967E+006.4022514581E-01+
*       -9.201143541E-02               0
GRID*               8149               01.1591112958E+006.4261844107E-01+
*       -1.555538356E-01               0
GRID*               8150               01.2398500716E+006.5333766271E-01+
*       -1.024281596E-01               0
GRID*               8151               01.1981324350E+006.7651347620E-01+
*       -4.356363554E-02               0
GRID*               8152               01.1441941602E-016.5668728314E-01+
*       -9.382257803E-02               0
GRID*               8153               03.7968444618E-027.1872212691E-01+
*       -2.187587014E-01               0
GRID*               8154               0-1.614565006E+006.4067034595E-01+
*       -1.300645149E-01               0
GRID*               8155               0-1.780244782E+006.6260037436E-01+
*       -1.955505960E-01               0
GRID*               8156               0-1.761086537E+006.4936772940E-01+
*       -1.760442849E-01               0
GRID*               8157               0-1.746780208E+006.8605009197E-01+
*       -1.654338142E-01               0
GRID*               8158               0-1.558547098E+006.6556647926E-01+
*       -1.414762968E-01               0
GRID*               8159               0-1.619342950E+007.3279605021E-01+
*       -2.205133360E-01               0
GRID*               8160               0-1.695292948E+007.3279605021E-01+
*       -2.205133360E-01               0
GRID*               8161               0-1.632792948E+007.0154605021E-01+
*       -2.205133360E-01               0
GRID*               8162               01.0305830195E+00-3.580206999E-01+
*       -1.960120018E-01               0
GRID*               8163               0-9.594435233E-017.0038579879E-01+
*       -5.207790163E-02               0
GRID*               8164               0-9.956282341E-017.0038579879E-01+
*       -1.146801103E-01               0
GRID*               8165               01.8039354013E+00-3.042960035E-01+
*       -1.540571822E-01               0
GRID*               8166               01.8269919068E+00-3.496242287E-01+
*       -2.253035217E-01               0
GRID*               8167               0-1.305767075E+007.2263317790E-01+
*       8.7335720707E-02               0
GRID*               8168               0-1.368144699E+007.2263317790E-01+
*       1.2120771993E-01               0
GRID*               8169               0-1.843759614E+005.9602825115E-01+
*       -2.287030653E-01               0
GRID*               8170               0-1.810496719E+005.9452011233E-01+
*       -1.766883543E-01               0
GRID*               8171               0-1.865487053E+005.9849186118E-01+
*       -1.979852890E-01               0
GRID*               8172               0-1.866443897E+005.8409869772E-01+
*       -2.275493856E-01               0
GRID*               8173               0-1.811453563E+005.8012694886E-01+
*       -2.062524509E-01               0
GRID*               8174               0-1.833181003E+005.8259055889E-01+
*       -1.755346746E-01               0
GRID*               8175               0-1.337666516E+006.5285502021E-01+
*       -1.806611017E-01               0
GRID*               8176               0-1.346699410E+006.6743307822E-01+
*       -2.258696868E-01               0
GRID*               8177               0-1.360030635E+007.0460745587E-01+
*       -2.044694516E-01               0
GRID*               8178               01.7081469123E+001.6076235334E-01+
*       -1.852354823E-01               0
GRID*               8179               0-1.100510786E+007.1932077942E-01+
*       -2.206221259E-01               0
GRID*               8180               0-1.682964792E+006.5836945497E-01+
*       -2.205133360E-01               0
GRID*               8181               0-1.679143162E+006.2835273293E-01+
*       -2.291717379E-01               0
GRID*               8182               03.4426566733E-017.1875096723E-01+
*       -3.125207473E-02               0
GRID*               8183               0-1.785363654E+004.8128423896E-01+
*       -1.873259002E-01               0
GRID*               8184               0-1.800589355E+005.1331733079E-01+
*       -1.561650705E-01               0
GRID*               8185               0-1.818328446E+004.9457695580E-01+
*       -1.768242701E-01               0
GRID*               8186               0-1.800597364E+004.7466735028E-01+
*       -1.561650701E-01               0
GRID*               8187               0-2.291020129E-01-4.371835820E-01+
*       -6.249447347E-02               0
GRID*               8188               0-1.907862429E-01-3.747322754E-01+
*       -6.249447347E-02               0
GRID*               8189               03.0369128952E-013.0902486680E-01+
*       -1.843426600E-01               0
GRID*               8190               01.7737024858E+00-4.347905291E-01+
*       -2.102143714E-02               0
GRID*               8191               01.7510053953E+00-4.035296411E-01+
*       -6.268809770E-02               0
GRID*               8192               01.2120226759E+005.1842276418E-02+
*       1.0124101857E+00               0
GRID*               8193               0-4.972342371E-01-7.187865692E-01+
*       -3.125386494E-02               0
GRID*               8194               01.3446117962E+003.6486254771E-01+
*       3.6666881172E-01               0
GRID*               8195               01.3770538432E+001.2007743650E-01+
*       5.1247969915E-01               0
GRID*               8196               01.3353888903E+001.2007051617E-01+
*       5.1247685986E-01               0
GRID*               8197               0-1.664046894E+00-3.521308657E-01+
*       -2.282254735E-01               0
GRID*               8198               01.3673428869E+007.2278603545E-01+
*       3.3935081587E-01               0
GRID*               8199               01.7389738250E+003.3531153722E-01+
*       -1.584665293E-01               0
GRID*               8200               01.7652389219E+003.9265896741E-01+
*       -1.561425909E-01               0
GRID*               8201               01.7622385139E+003.3958243307E-01+
*       -1.292166178E-01               0
GRID*               8202               01.7850030224E+003.8218356555E-01+
*       -1.748684140E-01               0
GRID*               8203               0-1.784819942E+00-4.599233895E-01+
*       -2.288370345E-01               0
GRID*               8204               01.3363471499E+002.7051175696E-01+
*       5.4563094065E-01               0
GRID*               8205               0-1.784674372E+00-3.826158361E-01+
*       -1.771160352E-01               0
GRID*               8206               0-1.793181050E+00-3.200046942E-01+
*       -1.460700070E-01               0
GRID*               8207               0-1.742067744E+00-3.875129046E-01+
*       -1.864904715E-01               0
GRID*               8208               0-1.804553250E+00-3.712791783E-01+
*       -1.969390864E-01               0
GRID*               8209               0-1.750574422E+00-3.249017627E-01+
*       -1.554444432E-01               0
GRID*               8210               01.1708178744E+00-2.401541290E-01+
*       6.2389721217E-01               0
GRID*               8211               01.1701478611E+00-2.460429311E-01+
*       6.4643996924E-01               0
GRID*               8212               07.5873921531E-02-6.231796919E-02+
*       -1.875399966E-01               0
GRID*               8213               0-1.512385917E+005.1999139221E-01+
*       -2.081917134E-02               0
GRID*               8214               01.2129316845E+00-5.981636320E-01+
*       7.0106055743E-01               0
GRID*               8215               0-1.428380235E+00-6.259267413E-01+
*       -1.680250498E-01               0
GRID*               8216               01.2417435202E+00-7.166007968E-01+
*       7.3296069550E-01               0
GRID*               8217               01.1792435500E+00-7.166007968E-01+
*       7.3296069550E-01               0
GRID*               8218               01.2103050632E+00-6.816575375E-01+
*       7.4683276210E-01               0
GRID*               8219               01.2117152739E+00-6.913778075E-01+
*       3.3698954241E-01               0
GRID*               8220               01.1741229167E+00-7.253046804E-01+
*       1.3489366929E-01               0
GRID*               8221               01.1804049077E+005.2332642159E-01+
*       1.2323438179E+00               0
GRID*               8222               01.1791995683E+004.9706498781E-01+
*       1.2572120429E+00               0
GRID*               8223               0-1.173211387E+007.3103090370E-01+
*       3.2760683206E-01               0
GRID*               8224               0-1.228830954E+006.6760566371E-01+
*       3.2735186889E-01               0
GRID*               8225               0-1.173211377E+006.7757217460E-01+
*       3.6924571545E-01               0
GRID*               8226               0-1.305238635E+007.2012192805E-01+
*       2.2624068473E-01               0
GRID*               8227               0-1.308018581E+006.4046839991E-01+
*       1.9916375787E-01               0
GRID*               8228               0-1.298315078E+006.5669668807E-01+
*       2.6301049788E-01               0
GRID*               8229               0-1.162588416E+00-6.107766497E-01+
*       -1.704716484E-01               0
GRID*               8230               0-1.124863708E+00-6.107577789E-01+
*       -1.689816746E-01               0
GRID*               8231               01.7365066214E+00-3.334467879E-01+
*       -9.542032114E-02               0
GRID*               8232               01.2034270660E+003.4906052190E-02+
*       1.0900769591E+00               0
GRID*               8233               01.1692938771E+002.0227514810E-01+
*       9.3098932971E-01               0
GRID*               8234               0-1.169792533E+00-2.168118571E-01+
*       5.8993512333E-01               0
GRID*               8235               01.2492114542E+005.6214169848E-01+
*       9.4687949437E-01               0
GRID*               8236               0-1.170014548E+00-1.407496207E-01+
*       5.2101977945E-01               0
GRID*               8237               0-1.211681215E+00-1.407496207E-01+
*       5.2101977945E-01               0
GRID*               8238               0-1.169789454E+00-1.195727619E-01+
*       5.1274749730E-01               0
GRID*               8239               0-1.191054055E+00-1.353223828E-01+
*       5.0027363449E-01               0
GRID*               8240               0-1.211456121E+00-1.195727619E-01+
*       5.1274749730E-01               0
GRID*               8241               0-1.170183839E+009.0886430461E-03+
*       4.8454373591E-01               0
GRID*               8242               01.1701936867E+002.3018744375E-01+
*       8.9365960212E-01               0
GRID*               8243               01.1920683661E+002.3939141940E-01+
*       9.1986467039E-01               0
GRID*               8244               01.2118590568E+002.3018403773E-01+
*       8.9366400596E-01               0
GRID*               8245               0-1.309433691E+001.7114568680E-01+
*       1.0166355864E+00               0
GRID*               8246               0-1.236097450E+009.3205621636E-02+
*       1.3593204386E+00               0
GRID*               8247               0-1.237059410E+001.8684172886E-01+
*       1.3594972805E+00               0
GRID*               8248               0-1.378385590E+003.3975207198E-02+
*       1.0168614545E+00               0
GRID*               8249               0-1.704809166E+00-6.499708228E-01+
*       -1.145029755E-01               0
GRID*               8250               0-1.669390916E+00-6.500137979E-01+
*       -1.146352452E-01               0
GRID*               8251               01.7824777372E+00-3.820672033E-01+
*       -7.253985983E-02               0
GRID*               8252               01.7393608867E+00-3.867226361E-01+
*       -6.210965643E-02               0
GRID*               8253               01.7995877661E+00-3.698967739E-01+
*       -5.131619513E-02               0
GRID*               8254               01.7536166503E+00-3.212763585E-01+
*       -7.419665644E-02               0
GRID*               8255               0-1.205364262E+00-7.795025726E-03+
*       1.3268178168E+00               0
GRID*               8256               0-1.590099005E+00-7.140218372E-01+
*       -5.153770619E-02               0
GRID*               8257               0-1.642626366E+00-6.968826342E-01+
*       -8.251991675E-02               0
GRID*               8258               0-1.617943975E+00-7.328607970E-01+
*       -3.098221056E-02               0
GRID*               8259               0-1.592820967E+00-6.769962707E-01+
*       -7.327635926E-02               0
GRID*               8260               0-1.620665937E+00-6.958352304E-01+
*       -5.272086363E-02               0
GRID*               8261               0-1.622880733E+00-6.584291559E-01+
*       -7.264889106E-02               0
GRID*               8262               0-1.659635892E+00-6.703607919E-01+
*       -7.264887722E-02               0
GRID*               8263               0-1.631790922E+00-6.515218321E-01+
*       -9.320437285E-02               0
GRID*               8264               0-1.595035762E+00-6.395901961E-01+
*       -9.320438668E-02               0
GRID*               8265               01.8704581425E+00-1.865168017E-01+
*       -3.048881465E-02               0
GRID*               8266               01.8704581425E+00-2.615168017E-01+
*       -3.048881465E-02               0
GRID*               8267               01.8131417462E+00-2.221697454E-01+
*       -3.048881465E-02               0
GRID*               8268               0-1.653191843E+00-6.571689250E-01+
*       -9.413664042E-02               0
GRID*               8269               0-1.700438694E+00-7.032106264E-01+
*       -8.349453382E-02               0
GRID*               8270               0-1.696047300E+00-6.710416912E-01+
*       -7.269122673E-02               0
GRID*               8271               0-1.687604817E+00-6.557205192E-01+
*       -9.358958682E-02               0
GRID*               8272               0-1.691996211E+00-6.878894544E-01+
*       -1.043928939E-01               0
GRID*               8273               0-1.734851669E+00-7.017622206E-01+
*       -8.294748022E-02               0
GRID*               8274               01.1705616683E+002.3243846319E-01+
*       6.0682174077E-01               0
GRID*               8275               01.2122292643E+002.4860415687E-01+
*       6.4038820359E-01               0
GRID*               8276               0-1.872954912E+00-4.081910549E-01+
*       -2.187823251E-01               0
GRID*               8277               0-1.824397063E+00-3.611813461E-01+
*       -2.187823251E-01               0
GRID*               8278               0-1.872954912E+00-3.331910549E-01+
*       -2.187823251E-01               0
GRID*               8279               0-1.818976085E+00-3.237872955E-01+
*       -1.147876819E-01               0
GRID*               8280               0-1.818976085E+00-2.493136393E-01+
*       -1.147876819E-01               0
GRID*               8281               01.3232336760E+003.6105975843E-01+
*       9.7243828721E-01               0
GRID*               8282               0-1.742465154E+00-3.193924679E-01+
*       -6.941198879E-02               0
GRID*               8283               0-1.849389195E+00-4.705687172E-01+
*       -3.148819280E-02               0
GRID*               8284               0-1.882172493E+00-4.677372154E-01+
*       -3.148819280E-02               0
GRID*               8285               0-1.798867937E+00-2.897224303E-01+
*       -1.466704089E-01               0
GRID*               8286               0-1.835388435E+00-2.412345671E-01+
*       -2.183118146E-01               0
GRID*               8287               0-1.857047669E+00-2.709624816E-01+
*       -1.876945416E-01               0
GRID*               8288               0-1.797381955E+00-2.548673298E-01+
*       -1.455994965E-01               0
GRID*               8289               01.1695518836E+00-6.834758720E-02+
*       1.0089546307E+00               0
GRID*               8290               01.1697415771E+00-4.685351491E-02+
*       1.0117718540E+00               0
GRID*               8291               01.6332180545E+007.3567394130E-01+
*       -8.600519846E-02               0
GRID*               8292               01.6738853754E+006.6024615188E-01+
*       -7.253986361E-02               0
GRID*               8293               01.7964643612E+00-2.455170569E-01+
*       -8.424247522E-02               0
GRID*               8294               01.8412006493E+00-1.863156888E-01+
*       -6.253969526E-02               0
GRID*               8295               01.6986835703E+00-3.695835930E-01+
*       -2.287375559E-01               0
GRID*               8296               01.6619330337E+00-3.576370066E-01+
*       -2.287375559E-01               0
GRID*               8297               01.6139873827E+00-3.626432893E-01+
*       -1.866971199E-01               0
GRID*               8298               01.5772679352E+00-3.745680941E-01+
*       -1.866974968E-01               0
GRID*               8299               01.5919837473E+00-3.138410248E-01+
*       -1.684519326E-01               0
GRID*               8300               01.1701140719E+002.5796356082E-01+
*       6.5860132134E-01               0
GRID*               8301               01.1698616370E+002.6077532322E-01+
*       6.8440334664E-01               0
GRID*               8302               01.2115292329E+002.6077378833E-01+
*       6.8439967516E-01               0
GRID*               8303               01.1912257614E+002.7984636268E-01+
*       6.6669318674E-01               0
GRID*               8304               01.5025958481E+00-5.370710257E-01+
*       -2.300159298E-01               0
GRID*               8305               01.4609534046E+00-1.211632837E-01+
*       -1.862846850E-01               0
GRID*               8306               01.5757839443E+00-6.433831123E-01+
*       -1.557216860E-01               0
GRID*               8307               01.2342891801E+002.2479317635E-01+
*       9.8812070690E-01               0
GRID*               8308               01.5176791864E+00-5.572453156E-01+
*       -2.288805189E-01               0
GRID*               8309               01.5403747694E+00-5.884882597E-01+
*       -1.872143891E-01               0
GRID*               8310               01.5250273486E+00-6.588945501E-01+
*       -1.962120875E-01               0
GRID*               8311               01.5488025667E+00-6.543875650E-01+
*       -1.761244310E-01               0
GRID*               8312               01.5379248664E+00-6.474506304E-01+
*       -7.283491248E-02               0
GRID*               8313               01.5755710300E+00-6.446311816E-01+
*       -9.336733824E-02               0
GRID*               8314               01.3781576058E+002.4516768726E-01+
*       8.5541161199E-01               0
GRID*               8315               01.3364899556E+002.2899788093E-01+
*       8.8898507064E-01               0
GRID*               8316               01.3781576058E+002.2900045869E-01+
*       8.8898174629E-01               0
GRID*               8317               01.3781166232E+001.5901244020E-01+
*       9.7046711482E-01               0
GRID*               8318               01.2482728835E+005.0844201941E-02+
*       1.3722909891E+00               0
GRID*               8319               01.2476490525E+001.5943311063E-02+
*       1.3712306882E+00               0
GRID*               8320               01.2814427926E+003.1168024639E-01+
*       7.8105728310E-01               0
GRID*               8321               01.3012300073E+003.2868542925E-01+
*       7.9202458770E-01               0
GRID*               8322               01.2434251781E+00-6.291337891E-01+
*       7.2036879807E-01               0
GRID*               8323               01.1707131299E+009.8571848397E-03+
*       1.0170292005E+00               0
GRID*               8324               01.1694317183E+003.4364784668E-02+
*       1.0165742369E+00               0
GRID*               8325               01.1913949007E+002.5539696611E-02+
*       1.0343045060E+00               0
GRID*               8326               01.2110993685E+003.4368953208E-02+
*       1.0165736670E+00               0
GRID*               8327               01.1694317183E+007.0690720699E-02+
*       1.0082826426E+00               0
GRID*               8328               01.1697415771E+00-9.697310096E-03+
*       1.0145556832E+00               0
GRID*               8329               01.2241088368E+006.8698130010E-02+
*       1.0744610221E+00               0
GRID*               8330               01.1809864646E+00-6.717909718E-01+
*       9.9707228111E-01               0
GRID*               8331               01.1802453981E+00-7.063898616E-01+
*       8.5987404659E-01               0
GRID*               8332               01.3060811626E+00-6.773739523E-01+
*       9.9096784102E-01               0
GRID*               8333               01.3685811410E+00-6.658782734E-01+
*       1.0226852078E+00               0
GRID*               8334               01.3667227980E+00-6.716478383E-01+
*       9.9463853293E-01               0
GRID*               8335               01.3365539914E+00-6.446172703E-01+
*       9.8031148420E-01               0
GRID*               8336               01.2453115479E+00-9.147490880E-02+
*       4.5117666516E-01               0
GRID*               8337               01.7834428573E+00-5.193653769E-01+
*       -6.357444354E-02               0
GRID*               8338               01.7659167614E+00-3.902826943E-01+
*       -1.560714415E-01               0
GRID*               8339               01.7868780603E+00-3.802274413E-01+
*       -1.752893809E-01               0
GRID*               8340               01.7801726262E+00-3.248364837E-01+
*       -1.264917822E-01               0
GRID*               8341               01.3354514053E+00-1.559531977E-01+
*       5.3355334415E-01               0
GRID*               8342               01.3486548204E+006.4865374087E-02+
*       3.3782968862E-01               0
GRID*               8343               01.5447143558E+00-9.168483543E-03+
*       -1.217384395E-01               0
GRID*               8344               01.4509820096E+00-2.714508268E-02+
*       -6.153407406E-02               0
GRID*               8345               01.4715924659E+00-3.455679506E-02+
*       -1.250727035E-01               0
GRID*               8346               01.2433320900E+002.6455892728E-01+
*       1.3415527334E+00               0
GRID*               8347               01.2427856798E+002.3076299760E-01+
*       1.3550765831E+00               0
GRID*               8348               01.2113280143E+002.7406354321E-01+
*       1.3903731308E+00               0
GRID*               8349               01.3047313512E+001.1167026912E-01+
*       1.4542238941E+00               0
GRID*               8350               04.1951231598E-01-6.241099789E-01+
*       -6.248488691E-02               0
GRID*               8351               01.2167410579E+00-5.246782302E-01+
*       1.0534321955E+00               0
GRID*               8352               01.2619242910E+00-1.733780904E-01+
*       1.4003757444E+00               0
GRID*               8353               01.3672501512E+00-1.750154089E-01+
*       1.4397061888E+00               0
GRID*               8354               01.3675393272E+00-3.774034745E-01+
*       1.3602293469E+00               0
GRID*               8355               01.1804056727E+002.1902726644E-01+
*       1.3626564609E+00               0
GRID*               8356               01.8699353707E+00-2.306056804E-01+
*       -2.202190558E-01               0
GRID*               8357               01.8699353707E+00-1.931056804E-01+
*       -1.577190558E-01               0
GRID*               8358               01.3675901543E+00-7.042027406E-01+
*       8.5768886549E-01               0
GRID*               8359               01.3673740047E+007.2076699979E-01+
*       6.3118950666E-01               0
GRID*               8360               01.6877765804E+00-6.427789087E-01+
*       -1.567971557E-01               0
GRID*               8361               01.6607108635E+00-6.345598897E-01+
*       -1.866851992E-01               0
GRID*               8362               01.6630325638E+00-6.642705401E-01+
*       -1.768156819E-01               0
GRID*               8363               0-1.850150418E+007.1885991594E-01+
*       -3.032590672E-02               0
GRID*               8364               0-1.823916143E+006.9432038461E-01+
*       -9.180599066E-02               0
GRID*               8365               0-1.801750104E+007.1885991594E-01+
*       -9.291167622E-02               0
GRID*               8366               01.6421323011E+00-6.402894496E-01+
*       -2.289845348E-01               0
GRID*               8367               01.6421323010E+00-6.402894496E-01+
*       -1.873178682E-01               0
GRID*               8368               01.6177149073E+00-6.527566380E-01+
*       -2.066861095E-01               0
GRID*               8369               01.2542279303E+005.7241978786E-01+
*       1.0584769965E+00               0
GRID*               8370               01.2326966777E+006.3374270331E-01+
*       1.0983555046E+00               0
GRID*               8371               01.2137303225E+006.1839962858E-01+
*       1.0646599417E+00               0
GRID*               8372               01.2321438839E+005.6006967026E-01+
*       1.0869730884E+00               0
GRID*               8373               0-1.328905024E+005.5662309111E-01+
*       5.2762418543E-01               0
GRID*               8374               01.3673706763E+006.6314187004E-01+
*       1.0369377259E+00               0
GRID*               8375               01.3662150199E+006.7529898816E-01+
*       1.0041242229E+00               0
GRID*               8376               0-1.367614894E+007.1843643467E-01+
*       5.6155362157E-01               0
GRID*               8377               0-1.367614894E+007.1843643467E-01+
*       4.8655362157E-01               0
GRID*               8378               0-1.305094050E+007.1843643467E-01+
*       5.2287279510E-01               0
GRID*               8379               0-1.310950689E+006.6638063108E-01+
*       4.8621071813E-01               0
GRID*               8380               0-1.303267688E+006.5396464203E-01+
*       5.6680745124E-01               0
GRID*               8381               0-1.171470773E+007.2760398497E-01+
*       4.2586533033E-01               0
GRID*               8382               0-1.239806509E+006.7554818139E-01+
*       4.2552242689E-01               0
GRID*               8383               0-1.233860495E+007.2760398497E-01+
*       3.8796913964E-01               0
GRID*               8384               01.8707272820E+00-4.076206706E-01+
*       -3.087319926E-02               0
GRID*               8385               01.8379510636E+00-4.104743767E-01+
*       -3.087319926E-02               0
GRID*               8386               01.1790411352E+006.7038590438E-01+
*       9.8883440899E-01               0
GRID*               8387               01.2402189771E+002.6460502066E-01+
*       9.2394564370E-01               0
GRID*               8388               01.3673740047E+007.2076699979E-01+
*       7.0618950666E-01               0
GRID*               8389               01.8316159272E+00-3.861296274E-01+
*       -2.205062940E-01               0
GRID*               8390               01.8675815620E+001.1160672495E-01+
*       -2.185978011E-01               0
GRID*               8391               01.8822378273E+00-4.331157206E-01+
*       -3.049875939E-02               0
GRID*               8392               01.8660620470E+00-4.507227395E-01+
*       -6.171867263E-02               0
GRID*               8393               01.8494616088E+00-4.359694267E-01+
*       -3.049875939E-02               0
GRID*               8394               01.3774797312E+00-2.535942119E-01+
*       6.8108403631E-01               0
GRID*               8395               01.3358151078E+00-2.535953423E-01+
*       6.8109281968E-01               0
GRID*               8396               01.3773334492E+00-2.489659728E-01+
*       8.5798423315E-01               0
GRID*               8397               01.3776304310E+00-2.368470993E-01+
*       8.8065753650E-01               0
GRID*               8398               01.1787216309E+00-6.532937245E-01+
*       8.4952660700E-02               0
GRID*               8399               01.3349464752E+00-5.588732219E-01+
*       3.2148206499E-01               0
GRID*               8400               0-4.955418164E-01-6.566800459E-01+
*       -9.380647177E-02               0
GRID*               8401               0-1.784827847E+00-4.985730674E-01+
*       -1.871703846E-01               0
GRID*               8402               0-1.728446101E+00-3.076892387E-01+
*       -1.566844834E-01               0
GRID*               8403               0-1.739818300E+00-3.589637228E-01+
*       -2.075535628E-01               0
GRID*               8404               0-1.742070129E+00-3.875147176E-01+
*       -2.281567613E-01               0
GRID*               8405               01.3672441854E+00-7.146219352E-01+
*       1.2076855051E-01               0
GRID*               8406               0-1.784723680E+00-4.817470335E-01+
*       -2.297519064E-01               0
GRID*               8407               0-1.784731486E+00-5.203970084E-01+
*       -2.297519064E-01               0
GRID*               8408               0-1.784731585E+00-5.203967114E-01+
*       -1.880852565E-01               0
GRID*               8409               0-1.795038228E+00-5.764430724E-01+
*       -2.297519064E-01               0
GRID*               8410               0-1.850290274E+00-5.510840301E-01+
*       -2.297519064E-01               0
GRID*               8411               0-1.866438255E+00-5.854529534E-01+
*       -2.283724029E-01               0
GRID*               8412               0-1.811186209E+00-6.108119957E-01+
*       -2.283724029E-01               0
GRID*               8413               0-1.817978582E+00-5.365369834E-01+
*       -2.081243093E-01               0
GRID*               8414               0-1.773103780E+00-5.661335828E-01+
*       -2.289558990E-01               0
GRID*               8415               0-1.773103878E+00-5.661332857E-01+
*       -1.872892491E-01               0
GRID*               8416               0-1.790202894E+00-5.479046345E-01+
*       -2.087078054E-01               0
GRID*               8417               01.2631277956E+003.0936326863E-01+
*       7.2033362172E-01               0
GRID*               8418               0-1.817086942E+00-4.744628964E-01+
*       -1.770990854E-01               0
GRID*               8419               0-1.817274951E+00-4.411021549E-01+
*       -1.774636308E-01               0
GRID*               8420               0-1.834478235E+00-4.396998404E-01+
*       -1.979673148E-01               0
GRID*               8421               0-1.849542052E+00-4.556419647E-01+
*       -1.673923313E-01               0
GRID*               8422               01.2681713668E+001.9921185264E-01+
*       1.0057119980E-01               0
GRID*               8423               01.8175600761E+00-4.379442894E-01+
*       -7.382817131E-02               0
GRID*               8424               0-1.140747473E-01-7.187209908E-01+
*       -2.187557925E-01               0
GRID*               8425               01.3362450857E+002.1077912690E-01+
*       5.8318226667E-01               0
GRID*               8426               01.3155076582E+002.2465309788E-01+
*       5.3177065771E-01               0
GRID*               8427               01.3564283841E+002.3568671575E-01+
*       5.7650990442E-01               0
GRID*               8428               01.2438820944E+003.2894032640E-01+
*       7.1063414338E-01               0
GRID*               8429               01.3356016179E+002.4762880863E-01+
*       6.3606300449E-01               0
GRID*               8430               01.1981094394E+003.3752699433E-01+
*       8.5675617265E-01               0
GRID*               8431               0-1.377708185E+001.5504413437E-01+
*       9.6329118428E-01               0
GRID*               8432               0-1.377708185E+001.2277587643E-01+
*       9.8192127629E-01               0
GRID*               8433               01.3680533162E+007.1834823947E-01+
*       5.0500064596E-02               0
GRID*               8434               01.3680928416E+007.1990727307E-01+
*       1.9312603022E-01               0
GRID*               8435               01.3678489379E+007.1796709379E-01+
*       1.6058399984E-01               0
GRID*               8436               01.3371918320E+006.8787436686E-01+
*       2.0371003006E-01               0
GRID*               8437               01.3054052895E+007.1796709379E-01+
*       1.9855071370E-01               0
GRID*               8438               01.3090445193E+006.0136553430E-01+
*       2.0914446821E-02               0
GRID*               8439               0-1.067967671E+00-6.026270130E-01+
*       -1.410781495E-01               0
GRID*               8440               01.3464610892E+003.4460974065E-01+
*       6.9735023458E-01               0
GRID*               8441               01.3464610892E+003.4095914206E-01+
*       7.4324422332E-01               0
GRID*               8442               01.2108526557E+002.6085093745E-01+
*       8.1892748440E-01               0
GRID*               8443               01.1905760551E+002.7709969669E-01+
*       8.3804455213E-01               0
GRID*               8444               01.2185458928E+003.2808559016E-01+
*       8.1313893176E-01               0
GRID*               8445               01.6715186216E+001.7395635718E-01+
*       -1.213449886E-01               0
GRID*               8446               01.0264488132E+00-7.198861098E-01+
*       -2.179214298E-01               0
GRID*               8447               01.3664618531E+007.1630681895E-01+
*       7.8672075540E-01               0
GRID*               8448               01.6500148613E+006.5618071133E-01+
*       -9.368607198E-02               0
GRID*               8449               01.6143331501E+006.8813815139E-01+
*       -1.039872214E-01               0
GRID*               8450               01.6130682363E+006.5695744006E-01+
*       -9.363448276E-02               0
GRID*               8451               01.6371600845E+006.4135993379E-01+
*       -6.396638235E-02               0
GRID*               8452               01.6384249983E+006.7254064513E-01+
*       -7.431912100E-02               0
GRID*               8453               01.6014783732E+006.7331737385E-01+
*       -7.426753178E-02               0
GRID*               8454               01.6267463121E+00-3.261977354E-01+
*       -1.067548127E-01               0
GRID*               8455               01.3564838061E+00-6.741343126E-01+
*       -4.287694137E-02               0
GRID*               8456               01.3339984872E+00-6.470505640E-01+
*       -1.044564927E-01               0
GRID*               8457               01.4304554081E+00-7.160000954E-01+
*       -2.215368815E-01               0
GRID*               8458               01.8305989023E+00-6.599578951E-01+
*       -8.213198765E-02               0
GRID*               8459               01.7546030335E+00-5.908228849E-01+
*       -1.975106367E-02               0
GRID*               8460               0-1.179159403E+001.3367430845E-02+
*       1.3865927235E+00               0
GRID*               8461               0-1.201848204E+004.3594944629E-02+
*       1.4347991549E+00               0
GRID*               8462               0-1.299037999E+001.0547703822E-01+
*       1.3459625710E+00               0
GRID*               8463               01.8550129388E+00-7.123522926E-01+
*       -1.354164450E-01               0
GRID*               8464               01.8310093075E+00-6.633121743E-01+
*       -1.669303980E-01               0
GRID*               8465               01.8295706368E+00-6.855872027E-01+
*       -1.662460894E-01               0
GRID*               8466               0-1.206326222E+001.5336666451E-01+
*       1.3338002217E+00               0
GRID*               8467               01.5168547296E+00-3.650486623E-01+
*       -1.641268720E-01               0
GRID*               8468               01.5566589981E+00-3.956551123E-01+
*       -1.869656657E-01               0
GRID*               8469               01.4962457925E+00-3.861356804E-01+
*       -1.643950409E-01               0
GRID*               8470               01.5586158807E+00-3.713735968E-01+
*       -2.069957421E-01               0
GRID*               8471               0-1.236896780E+002.1447850361E-01+
*       1.3632265661E+00               0
GRID*               8472               01.6968480057E+00-7.148178358E-01+
*       -1.663153079E-01               0
GRID*               8473               01.6850009268E+00-6.517789774E-01+
*       -2.066610707E-02               0
GRID*               8474               01.7475135067E+00-6.830289799E-01+
*       -2.066610707E-02               0
GRID*               8475               01.6659862335E+00-6.826050777E-01+
*       -2.195306932E-02               0
GRID*               8476               01.7439290392E+00-6.468840601E-01+
*       -4.261917639E-02               0
GRID*               8477               0-1.366951369E+00-3.557063240E-02+
*       1.4649273587E+00               0
GRID*               8478               0-1.335237674E+00-4.244590175E-02+
*       1.4337252240E+00               0
GRID*               8479               0-1.367620957E+001.9329335393E-01+
*       1.4447490045E+00               0
GRID*               8480               0-1.367620957E+002.6364075592E-01+
*       1.4234094359E+00               0
GRID*               8481               0-1.179928211E+00-4.946506576E-01+
*       1.2765658042E+00               0
GRID*               8482               01.7998990379E+004.9536477542E-01+
*       -1.355875834E-01               0
GRID*               8483               01.7999068380E+005.3397681459E-01+
*       -9.392051111E-02               0
GRID*               8484               01.7998985667E+004.9536363632E-01+
*       -9.392107266E-02               0
GRID*               8485               0-1.211758696E+00-4.780772377E-02+
*       4.8810065351E-01               0
GRID*               8486               0-1.170091098E+00-4.781167039E-02+
*       4.8810115947E-01               0
GRID*               8487               0-1.169815993E+00-6.816762068E-02+
*       4.9234471746E-01               0
GRID*               8488               0-1.211483591E+00-6.816367406E-02+
*       4.9234421151E-01               0
GRID*               8489               0-1.191157144E+00-6.034915203E-02+
*       4.7417715268E-01               0
GRID*               8490               0-1.303689540E+00-6.177195117E-01+
*       7.2416916938E-01               0
GRID*               8491               0-1.272779138E+00-6.775556977E-01+
*       7.7581251582E-01               0
GRID*               8492               01.6825820455E+003.6997289535E-01+
*       -6.290244876E-02               0
GRID*               8493               01.6308887653E+003.6379689960E-01+
*       -2.110385828E-02               0
GRID*               8494               01.6482947129E+003.4991973148E-01+
*       -2.207304584E-02               0
GRID*               8495               0-1.376312085E+001.0646654266E-01+
*       9.9218466749E-01               0
GRID*               8496               0-1.334647461E+001.3872775906E-01+
*       9.7355994664E-01               0
GRID*               8497               0-1.180727994E+00-7.153388809E-01+
*       4.6274115435E-02               0
GRID*               8498               01.6674382189E+006.5046353688E-01+
*       -9.208830134E-02               0
GRID*               8499               01.6551971041E+006.3478261501E-01+
*       -6.378489560E-02               0
GRID*               8500               0-1.341825201E+005.3616650135E-03+
*       4.0934974273E-01               0
GRID*               8501               0-1.335603776E+00-7.148560816E-02+
*       4.8803689047E-01               0
GRID*               8502               0-1.355728586E+00-6.311272002E-02+
*       4.6533548352E-01               0
GRID*               8503               0-1.304509996E+00-9.972546823E-02+
*       4.5615176430E-01               0
GRID*               8504               0-1.377208500E+00-1.009934764E-02+
*       4.8078327891E-01               0
GRID*               8505               0-1.335543130E+00-1.009382998E-02+
*       4.8078402621E-01               0
GRID*               8506               0-1.222029418E+00-1.131259934E-01+
*       4.6724970187E-01               0
GRID*               8507               0-1.211457053E+00-8.488388490E-02+
*       4.9913453234E-01               0
GRID*               8508               0-1.882028740E+004.6795382919E-01+
*       -3.039734044E-02               0
GRID*               8509               0-1.849249347E+004.7079733914E-01+
*       -3.039734044E-02               0
GRID*               8510               0-1.864588341E+004.5127556033E-01+
*       -6.192989319E-02               0
GRID*               8511               01.8013593155E+001.1258191955E-01+
*       -1.538332834E-01               0
GRID*               8512               0-1.783704368E+004.8049652448E-01+
*       -2.172312627E-02               0
GRID*               8513               0-1.800041038E+004.4047710913E-01+
*       -1.353788812E-01               0
GRID*               8514               0-1.777339627E+004.0922942381E-01+
*       -9.371181494E-02               0
GRID*               8515               0-1.800040839E+004.4047650875E-01+
*       -9.371218056E-02               0
GRID*               8516               01.3780905258E+00-1.204884119E-02+
*       1.0199501304E+00               0
GRID*               8517               01.3780905258E+00-4.920504600E-02+
*       1.0171663012E+00               0
GRID*               8518               0-1.847991763E+004.9195149494E-01+
*       -2.940314418E-02               0
GRID*               8519               0-1.830768995E+005.9886377401E-01+
*       -3.123447328E-02               0
GRID*               8520               0-1.876567937E+005.8647926596E-01+
*       -3.123447328E-02               0
GRID*               8521               0-1.874850204E+006.2023342757E-01+
*       -3.128869477E-02               0
GRID*               8522               0-1.829051261E+006.3261793562E-01+
*       -3.128869477E-02               0
GRID*               8523               0-1.852668193E+006.0671269354E-01+
*       -6.252316804E-02               0
GRID*               8524               0-1.787800219E+004.2335594535E-01+
*       -1.568938665E-01               0
GRID*               8525               0-1.765098808E+003.9210826003E-01+
*       -1.152268002E-01               0
GRID*               8526               0-1.755479075E+005.9660346895E-01+
*       -1.870367754E-01               0
GRID*               8527               0-1.777206514E+005.9906707898E-01+
*       -1.563189992E-01               0
GRID*               8528               0-1.799920356E+005.6782915841E-01+
*       -1.563186395E-01               0
GRID*               8529               01.6139873827E+00-3.626432893E-01+
*       -2.283637866E-01               0
GRID*               8530               01.5772655494E+00-3.745699084E-01+
*       -2.283637866E-01               0
GRID*               8531               01.7996838424E+00-5.336943729E-01+
*       -9.262019662E-02               0
GRID*               8532               01.7996921178E+00-4.950811946E-01+
*       -9.261963508E-02               0
GRID*               8533               01.8154994157E+00-5.144214189E-01+
*       -7.286058673E-02               0
GRID*               8534               0-1.755481460E+005.9660165591E-01+
*       -2.287030653E-01               0
GRID*               8535               0-1.865487053E+005.5787750935E-01+
*       -1.354852890E-01               0
GRID*               8536               0-1.866443897E+005.4348434588E-01+
*       -1.650493856E-01               0
GRID*               8537               01.7289334058E+007.2518204902E-01+
*       -2.978641456E-02               0
GRID*               8538               01.6456000725E+007.2518204902E-01+
*       -2.978641456E-02               0
GRID*               8539               01.6915121430E+007.2518204902E-01+
*       -9.235537874E-02               0
GRID*               8540               0-1.677408494E+006.3525202326E-01+
*       -2.150702028E-02               0
GRID*               8541               0-1.714133674E+006.2332285599E-01+
*       -6.317315187E-02               0
GRID*               8542               0-1.735198090E+006.3042717763E-01+
*       -4.262573280E-02               0
GRID*               8543               0-1.766817085E+007.1885991594E-01+
*       -3.032590672E-02               0
GRID*               8544               0-1.738279065E+007.3344961666E-01+
*       -3.184321220E-02               0
GRID*               8545               0-1.773012869E+007.0230953260E-01+
*       -6.216911892E-02               0
GRID*               8546               0-1.773212085E+007.3344961666E-01+
*       -9.442898170E-02               0
GRID*               8547               0-1.787812395E+00-5.843979579E-01+
*       -1.559699163E-01               0
GRID*               8548               0-1.765110987E+00-6.156456441E-01+
*       -1.143028501E-01               0
GRID*               8549               01.5547886173E+00-3.201036929E-01+
*       -6.508814605E-02               0
GRID*               8550               01.5071062551E+005.0989159344E-01+
*       -1.862192121E-01               0
GRID*               8551               0-1.718464972E+00-6.196682810E-01+
*       -2.297467084E-01               0
GRID*               8552               0-1.718468317E+00-6.196657003E-01+
*       -1.880805786E-01               0
GRID*               8553               0-1.736727076E+00-6.322692767E-01+
*       -2.075769336E-01               0
GRID*               8554               01.5898280163E+006.1837464044E-01+
*       -2.162570873E-02               0
GRID*               8555               0-1.741523819E+00-6.380311954E-01+
*       -1.145025927E-01               0
GRID*               8556               01.6877764773E+00-6.427789768E-01+
*       -1.151304965E-01               0
GRID*               8557               01.5338704277E+004.2068222424E-01+
*       -2.132640548E-02               0
GRID*               8558               01.8720297252E+007.0242904936E-01+
*       -2.191552256E-01               0
GRID*               8559               01.8167801282E+006.5278480802E-01+
*       -2.191552256E-01               0
GRID*               8560               01.8720297252E+006.2742904936E-01+
*       -2.191552256E-01               0
GRID*               8561               01.6512228873E+006.5462789826E-01+
*       -1.152702236E-01               0
GRID*               8562               01.8741284652E+007.2704695748E-01+
*       -6.364627023E-02               0
GRID*               8563               01.3418913124E+006.0135314080E-01+
*       1.2727022258E-01               0
GRID*               8564               01.5656025190E+006.5996429719E-01+
*       -7.182295277E-02               0
GRID*               8565               01.5608755231E+006.2891250965E-01+
*       -4.175571569E-02               0
GRID*               8566               01.5288142668E+004.3055623010E-01+
*       -2.287290771E-01               0
GRID*               8567               01.6510213281E+00-6.547106403E-01+
*       -1.151304827E-01               0
GRID*               8568               01.5965552441E+006.5991229237E-01+
*       -1.768626033E-01               0
GRID*               8569               01.6332166064E+00-3.561965403E-01+
*       -1.871074340E-01               0
GRID*               8570               01.6112129710E+00-3.073942757E-01+
*       -1.688622467E-01               0
GRID*               8571               01.6463996926E+00-3.388335468E-01+
*       -2.075116566E-01               0
GRID*               8572               01.8724091613E+003.3270547634E-01+
*       -2.188628404E-01               0
GRID*               8573               01.8720785928E+002.9568446637E-01+
*       -2.186093059E-01               0
GRID*               8574               01.6562893577E+00-3.550625243E-01+
*       -6.311727010E-02               0
GRID*               8575               01.6930398129E+00-3.670090570E-01+
*       -6.311726400E-02               0
GRID*               8576               01.7072955764E+00-3.015627795E-01+
*       -7.520426401E-02               0
GRID*               8577               01.8778357737E+00-2.740699924E-01+
*       -2.262724875E-01               0
GRID*               8578               01.8038419923E+00-2.580702476E-01+
*       -1.550261480E-01               0
GRID*               8579               01.8778357737E+00-2.365699924E-01+
*       -1.637724875E-01               0
GRID*               8580               01.7763817566E+00-4.086647084E-01+
*       -9.362072075E-02               0
GRID*               8581               01.8709903745E+002.9681243412E-01+
*       -3.047004828E-02               0
GRID*               8582               01.3233885582E+00-6.547616548E-01+
*       -1.671211926E-01               0
GRID*               8583               01.4480014113E+00-5.640917314E-01+
*       -9.433766495E-02               0
GRID*               8584               01.7852482636E+004.5863749120E-01+
*       -2.281513312E-01               0
GRID*               8585               01.7852549792E+004.9724922409E-01+
*       -1.864843061E-01               0
GRID*               8586               01.7852476535E+004.5863603836E-01+
*       -1.864848687E-01               0
GRID*               8587               01.5561806008E+00-6.369071720E-01+
*       -1.358819728E-01               0
GRID*               8588               01.5561863683E+00-6.369115942E-01+
*       -9.421438651E-02               0
GRID*               8589               01.4845031279E+00-6.165937416E-01+
*       -1.247789188E-01               0
GRID*               8590               01.3767068434E+002.5794802294E-01+
*       8.1782800502E-01               0
GRID*               8591               01.3772059387E+002.5289495236E-01+
*       8.3870616029E-01               0
GRID*               8592               01.3350401966E+002.6350176226E-01+
*       7.8098374565E-01               0
GRID*               8593               01.8694924543E+00-1.497988872E-01+
*       -3.205088061E-02               0
GRID*               8594               01.3565070257E+002.4348914040E-01+
*       9.1397717408E-01               0
GRID*               8595               0-1.823210555E+00-2.124215332E-01+
*       -2.182045218E-01               0
GRID*               8596               01.2112954617E+002.6374058181E-01+
*       8.0058206965E-01               0
GRID*               8597               01.2790225131E+001.3161465998E-01+
*       1.3865594089E+00               0
GRID*               8598               01.3100026120E+009.7667961997E-02+
*       1.3587379076E+00               0
GRID*               8599               01.7659080695E+00-4.200960533E-01+
*       -1.858842341E-01               0
GRID*               8600               01.7994894732E+00-4.398695881E-01+
*       -1.568816761E-01               0
GRID*               8601               01.7977546567E+00-3.985559602E-01+
*       -1.760999604E-01               0
GRID*               8602               01.7767933578E+00-4.086112132E-01+
*       -1.568820210E-01               0
GRID*               8603               01.1791523546E+00-7.177594985E-01+
*       6.3414256134E-01               0
GRID*               8604               01.3115722513E+00-5.714999077E-01+
*       1.0292119967E+00               0
GRID*               8605               01.3360768560E+00-6.840975575E-02+
*       4.9276695683E-01               0
GRID*               8606               01.3282314042E+00-8.852927479E-02+
*       4.5581826143E-01               0
GRID*               8607               01.3560006575E+00-6.023823675E-02+
*       4.7484161970E-01               0
GRID*               8608               01.2119742344E+009.6169605076E-02+
*       3.8874605137E-01               0
GRID*               8609               01.2868790987E+007.2974508718E-02+
*       3.5947358201E-01               0
GRID*               8610               0-1.544069059E+005.9598834353E-01+
*       -2.161397232E-02               0
GRID*               8611               0-1.521372689E+005.6472891354E-01+
*       -6.328043750E-02               0
GRID*               8612               0-1.544069140E+005.9598839701E-01+
*       -6.328063288E-02               0
GRID*               8613               0-1.780760636E+001.0952280822E-01+
*       -1.030516691E-01               0
GRID*               8614               01.2330954635E+001.5703661325E-02+
*       4.3923624670E-01               0
GRID*               8615               01.2115374420E+00-2.850851535E-02+
*       4.8311588968E-01               0
GRID*               8616               0-1.714580513E+003.0746479365E-01+
*       -1.707673270E-01               0
GRID*               8617               0-1.867225238E+00-3.774876181E-02+
*       -3.052765173E-02               0
GRID*               8618               01.3360935389E+00-1.407286820E-01+
*       5.2117440666E-01               0
GRID*               8619               01.3158164962E+00-1.817371028E-01+
*       4.9714483421E-01               0
GRID*               8620               01.3282471558E+00-1.261593240E-01+
*       4.7061274630E-01               0
GRID*               8621               0-1.265894832E+00-6.548308801E-02+
*       9.0488295989E-02               0
GRID*               8622               0-1.776286725E+00-1.132685880E-01+
*       -9.258592977E-02               0
GRID*               8623               0-1.776038586E+00-7.705327419E-02+
*       -9.161862158E-02               0
GRID*               8624               0-1.243695381E+00-6.389627481E-01+
*       4.7651948573E-01               0
GRID*               8625               0-1.180391600E+00-6.561342117E-01+
*       4.8121695471E-01               0
GRID*               8626               0-1.242650688E+00-6.386628792E-01+
*       5.1224438662E-01               0
GRID*               8627               0-1.210988465E+00-6.879185174E-01+
*       4.8299338432E-01               0
GRID*               8628               0-1.811217095E+00-5.943323151E-01+
*       -7.217123756E-02               0
GRID*               8629               0-1.866301505E+00-5.990147355E-01+
*       -5.120607002E-02               0
GRID*               8630               0-1.833084010E+00-5.835042575E-01+
*       -7.333345918E-02               0
GRID*               8631               0-1.882841646E+00-5.104394543E-01+
*       -2.191302803E-01               0
GRID*               8632               0-1.850058349E+00-4.382709562E-01+
*       -2.191302803E-01               0
GRID*               8633               0-1.882841646E+00-4.354394543E-01+
*       -2.191302803E-01               0
GRID*               8634               01.1797222742E+007.1952223685E-01+
*       6.3052809593E-01               0
GRID*               8635               0-1.723938432E+00-6.179746889E-01+
*       -2.071556403E-02               0
GRID*               8636               0-1.687221357E+00-6.299161578E-01+
*       -6.238223070E-02               0
GRID*               8637               0-1.687221357E+00-6.299161578E-01+
*       -2.071556403E-02               0
GRID*               8638               0-1.770798569E+00-7.062458694E-01+
*       -6.221015406E-02               0
GRID*               8639               0-1.723551718E+00-6.602041680E-01+
*       -7.285226066E-02               0
GRID*               8640               0-1.762356087E+00-6.909246974E-01+
*       -8.310851415E-02               0
GRID*               8641               0-1.334997269E+001.2614918778E-01+
*       5.1392550056E-01               0
GRID*               8642               01.3464610892E+003.3772542852E-01+
*       6.3779496886E-01               0
GRID*               8643               01.3770538432E+001.5234569449E-01+
*       5.3110979320E-01               0
GRID*               8644               01.3770493415E+001.7252015246E-01+
*       5.4262872709E-01               0
GRID*               8645               0-1.180505253E+00-7.169068644E-01+
*       7.0197260161E-01               0
GRID*               8646               01.1241403426E+00-1.897194746E-01+
*       -1.324596118E-01               0
GRID*               8647               01.0494745586E+00-5.066131143E-01+
*       -6.458666342E-02               0
GRID*               8648               01.2137882645E+006.7327982539E-01+
*       1.1174472708E-02               0
GRID*               8649               0-1.377047410E+002.5442014720E-01+
*       8.4316918039E-01               0
GRID*               8650               0-1.377558633E+00-4.746929904E-02+
*       1.0116484790E+00               0
GRID*               8651               09.6119555274E-017.1622609881E-01+
*       -3.209109346E-02               0
GRID*               8652               01.2882916639E+006.8907305802E-01+
*       -8.690042135E-02               0
GRID*               8653               08.0757159234E-01-7.270499209E-01+
*       -2.270513018E-01               0
GRID*               8654               08.0591237848E-01-6.598315261E-01+
*       -1.648167179E-01               0
GRID*               8655               07.6953707806E-01-6.645310108E-01+
*       -2.270513018E-01               0
GRID*               8656               0-7.981283571E-017.1867457158E-01+
*       -2.187947011E-01               0
GRID*               8657               0-1.378210309E+00-1.213032340E-01+
*       9.8833558684E-01               0
GRID*               8658               0-1.376989477E+00-1.470846380E-01+
*       9.7841625882E-01               0
GRID*               8659               0-7.221783592E-017.1867457158E-01+
*       -2.187947011E-01               0
GRID*               8660               0-1.233184943E+00-3.219016333E-01+
*       7.6939708983E-01               0
GRID*               8661               0-1.246332020E+00-3.073459144E-01+
*       6.9489809896E-01               0
GRID*               8662               0-1.271088722E+00-6.753112282E-01+
*       8.2486056774E-01               0
GRID*               8663               0-1.236184209E+00-6.244448191E-01+
*       8.9752810936E-01               0
GRID*               8664               0-1.211707820E+00-2.169974167E-01+
*       9.1107306993E-01               0
GRID*               8665               0-9.610501454E-01-7.158025896E-01+
*       -3.169686224E-02               0
GRID*               8666               01.7709167748E+007.2418746371E-01+
*       -2.190877628E-01               0
GRID*               8667               01.7699818066E+006.8065093608E-01+
*       -2.196997430E-01               0
GRID*               8668               01.8655394090E+005.9913034922E-01+
*       -1.989705593E-01               0
GRID*               8669               01.8059797355E+005.9588818283E-01+
*       -1.780108872E-01               0
GRID*               8670               01.8391902741E+005.9675783361E-01+
*       -2.290403279E-01               0
GRID*               8671               01.8663429147E+005.8411545002E-01+
*       -2.275932935E-01               0
GRID*               8672               01.8331323761E+005.8324579924E-01+
*       -1.765638528E-01               0
GRID*               8673               01.8067832412E+005.8087328363E-01+
*       -2.066336214E-01               0
GRID*               8674               01.7784490635E+002.6000373453E-01+
*       -1.507998106E-01               0
GRID*               8675               0-1.377841541E+002.0195318704E-01+
*       5.7405313608E-01               0
GRID*               8676               01.8697193790E+002.6364853216E-01+
*       -2.193924441E-01               0
GRID*               8677               01.8180820164E+002.9207947590E-01+
*       -2.193924441E-01               0
GRID*               8678               0-1.169758828E+001.5211204772E-01+
*       5.3077310840E-01               0
GRID*               8679               01.5188409209E+00-6.832414509E-01+
*       -8.371673125E-02               0
GRID*               8680               01.4225702410E+00-7.130356032E-01+
*       -3.247961339E-02               0
GRID*               8681               01.3876196926E+00-7.116991011E-01+
*       -3.355743081E-02               0
GRID*               8682               0-1.366575654E+007.1779197064E-01+
*       7.2765376857E-01               0
GRID*               8683               0-1.366185097E+007.1819555663E-01+
*       4.1251594186E-01               0
GRID*               8684               01.2519640355E+00-7.188998193E-01+
*       -2.207531319E-01               0
GRID*               8685               03.4419386512E-01-7.185691417E-01+
*       -3.124981158E-02               0
GRID*               8686               0-1.367423685E+001.6076367284E-01+
*       1.4345696518E+00               0
GRID*               8687               0-1.242509057E+003.3588119386E-01+
*       1.3823610025E+00               0
GRID*               8688               0-1.237584252E+002.7062095205E-01+
*       1.3310022077E+00               0
GRID*               8689               0-1.238187051E+003.4001275470E-01+
*       1.2588961516E+00               0
GRID*               8690               0-1.368100573E+002.8436076054E-02+
*       1.4679312261E+00               0
GRID*               8691               0-1.368100573E+001.0159491721E-01+
*       1.4607260023E+00               0
GRID*               8692               0-1.241903139E+006.4532320330E-01+
*       8.4301305224E-01               0
GRID*               8693               0-1.180220316E+00-2.452967521E-01+
*       1.4183371783E+00               0
GRID*               8694               0-1.299676026E+002.6546455553E-01+
*       1.3427809498E+00               0
GRID*               8695               0-1.205364262E+005.9730557288E-02+
*       1.3336233798E+00               0
GRID*               8696               0-1.265634703E+00-6.911874887E-02+
*       1.3856969992E+00               0
GRID*               8697               0-1.286212017E+00-4.338693662E-02+
*       1.4354117089E+00               0
GRID*               8698               0-1.164892486E+00-7.115505403E-01+
*       -3.355811361E-02               0
GRID*               8699               0-1.180007978E+003.0261888143E-01+
*       1.3980928779E+00               0
GRID*               8700               0-1.245447860E+00-2.890342343E-01+
*       6.5427151001E-01               0
GRID*               8701               0-1.321227091E+001.6548548332E-02+
*       4.2997588620E-01               0
GRID*               8702               0-1.336486467E+009.5812105198E-03+
*       4.7909772768E-01               0
GRID*               8703               0-1.321185005E+003.9532502537E-02+
*       4.3348293675E-01               0
GRID*               8704               0-1.357511641E+002.3453068878E-02+
*       4.6099994334E-01               0
GRID*               8705               0-1.306965386E+00-6.205324818E-01+
*       6.9250144414E-01               0
GRID*               8706               0-1.170091098E+00-1.065546535E-02+
*       4.8531733133E-01               0
GRID*               8707               0-1.211423781E+001.1983686939E-01+
*       5.1214017507E-01               0
GRID*               8708               0-1.169789454E+00-8.488783152E-02+
*       4.9913503829E-01               0
GRID*               8709               0-6.717220032E-015.4892479862E-02+
*       -6.181354367E-02               0
GRID*               8710               0-1.206929021E+003.7710816560E-01+
*       1.1939830636E+00               0
GRID*               8711               0-1.178677832E+004.2530076382E-01+
*       1.3243555940E+00               0
GRID*               8712               0-1.301030067E+003.9162921094E-01+
*       1.2252382919E+00               0
GRID*               8713               0-1.305352073E+003.8749765010E-01+
*       1.3487031428E+00               0
GRID*               8714               0-1.226279863E+00-1.963692716E-01+
*       5.1017856239E-01               0
GRID*               8715               0-1.211016728E+00-1.559715860E-01+
*       5.3338670176E-01               0
GRID*               8716               0-1.222331061E+00-7.604983224E-02+
*       4.5621582304E-01               0
GRID*               8717               0-1.222055957E+00-9.640578254E-02+
*       4.6045938104E-01               0
GRID*               8718               0-1.337188537E+00-5.896835027E-01+
*       6.7375734973E-01               0
GRID*               8719               0-1.325953971E+00-5.436298783E-01+
*       8.6384593907E-01               0
GRID*               8720               0-1.330086949E+00-5.938884746E-01+
*       8.9144403810E-01               0
GRID*               8721               0-1.367627917E+005.2335382573E-01+
*       1.2306682992E+00               0
GRID*               8722               0-1.259866653E+003.1600884990E-01+
*       8.1895635717E-01               0
GRID*               8723               0-1.238864968E+004.4520030612E-01+
*       1.1782113595E+00               0
GRID*               8724               0-1.368098032E+006.0991861774E-01+
*       1.1159765162E+00               0
GRID*               8725               0-1.368098032E+006.4457196450E-01+
*       1.0511438216E+00               0
GRID*               8726               0-1.305599505E+006.2858892972E-01+
*       1.0848756592E+00               0
GRID*               8727               0-1.179463203E+00-3.763851993E-01+
*       1.3598400021E+00               0
GRID*               8728               0-1.305774613E+005.6179723758E-01+
*       1.0687965376E+00               0
GRID*               8729               0-1.179701656E+00-7.161976356E-01+
*       7.2720773149E-01               0
GRID*               8730               0-1.181278195E+00-7.138890491E-01+
*       7.6174824130E-01               0
GRID*               8731               0-1.242233374E+00-6.999287417E-01+
*       8.9619751906E-01               0
GRID*               8732               0-1.377322881E+001.9080220711E-01+
*       9.4437240514E-01               0
GRID*               8733               07.3274080276E-01-6.697123964E-01+
*       -1.587003325E-01               0
GRID*               8734               0-1.399985102E+00-7.167812185E-01+
*       -2.212268924E-01               0
GRID*               8735               0-1.389512982E+00-6.853651148E-01+
*       -1.919608051E-01               0
GRID*               8736               0-1.504972336E+00-5.829111360E-01+
*       -1.556244768E-01               0
GRID*               8737               0-1.504972439E+00-5.829112040E-01+
*       -1.139578177E-01               0
GRID*               8738               0-1.557249441E+00-6.376303353E-01+
*       -1.354485842E-01               0
GRID*               8739               0-1.486931855E+00-6.194048894E-01+
*       -1.244063817E-01               0
GRID*               8740               0-1.557249544E+00-6.376304032E-01+
*       -9.378192506E-02               0
GRID*               8741               07.9042392699E-01-7.280180918E-01+
*       -2.016451091E-02               0
GRID*               8742               07.5053585911E-01-7.280180918E-01+
*       -8.269474551E-02               0
GRID*               8743               07.1384058921E-01-7.280180918E-01+
*       -2.016451091E-02               0
GRID*               8744               01.3676582348E+00-7.000073170E-01+
*       8.9141970626E-01               0
GRID*               8745               0-1.541963128E+00-5.906128703E-01+
*       -1.878636732E-01               0
GRID*               8746               0-1.409302063E+00-7.173822508E-01+
*       -3.406508146E-02               0
GRID*               8747               01.7585609226E+00-7.262009494E-01+
*       -2.112721544E-02               0
GRID*               8748               01.7728897939E+00-6.894936335E-01+
*       -7.192265165E-02               0
GRID*               8749               01.7549764550E+00-6.900560296E-01+
*       -4.308028476E-02               0
GRID*               8750               01.6826655986E+00-7.339679599E-01+
*       -3.088117982E-02               0
GRID*               8751               01.6790811311E+00-6.978230401E-01+
*       -5.283424914E-02               0
GRID*               8752               01.6455528329E+00-7.339679599E-01+
*       -9.344009914E-02               0
GRID*               8753               0-1.597868845E+003.7688475935E-01+
*       -2.114925648E-02               0
GRID*               8754               01.8499164166E+004.3669633225E-01+
*       -2.185598262E-01               0
GRID*               8755               01.8826965320E+004.3385462025E-01+
*       -2.185598262E-01               0
GRID*               8756               01.8823870354E+004.6885994310E-01+
*       -2.193598783E-01               0
GRID*               8757               01.8496069200E+004.7170165510E-01+
*       -2.193598783E-01               0
GRID*               8758               01.8663336198E+004.5271456336E-01+
*       -1.879197045E-01               0
GRID*               8759               01.7898403662E+00-7.183693096E-01+
*       -3.130818297E-02               0
GRID*               8760               01.8273777461E+00-6.557483915E-01+
*       -3.130818297E-02               0
GRID*               8761               01.6744513494E+00-6.294281888E-01+
*       -6.345281193E-02               0
GRID*               8762               01.6690977492E+00-6.504017068E-01+
*       -9.249518468E-02               0
GRID*               8763               01.7058528984E+00-6.384700433E-01+
*       -9.249519851E-02               0
GRID*               8764               01.6580943214E+00-6.667615692E-01+
*       -7.261464945E-02               0
GRID*               8765               0-1.687649412E+006.4361395690E-01+
*       -1.345116866E-01               0
GRID*               8766               0-1.687655130E+006.4360957183E-01+
*       -9.284410798E-02               0
GRID*               8767               01.8824142472E+00-5.430384335E-01+
*       -2.182593720E-01               0
GRID*               8768               0-1.677408494E+006.3525202326E-01+
*       -6.317368695E-02               0
GRID*               8769               0-1.799498934E+005.1391108847E-01+
*       -1.358287857E-01               0
GRID*               8770               0-1.799506944E+004.7526110796E-01+
*       -1.358287853E-01               0
GRID*               8771               01.6020420827E+006.9466257561E-01+
*       -2.181975628E-01               0
GRID*               8772               01.6069530040E+007.3187588754E-01+
*       -2.181975628E-01               0
GRID*               8773               01.5706502868E+007.3100579561E-01+
*       -2.194593708E-01               0
GRID*               8774               01.5657393655E+006.9379248368E-01+
*       -2.194593708E-01               0
GRID*               8775               01.5826533348E+007.1288168316E-01+
*       -1.876569336E-01               0
GRID*               8776               0-1.784240853E+006.5103130140E-01+
*       -1.031462155E-01               0
GRID*               8777               0-1.761875598E+006.4443074867E-01+
*       -7.199203831E-02               0
GRID*               8778               0-1.741838949E+006.3898554028E-01+
*       -9.360602174E-02               0
GRID*               8779               0-1.803879495E+006.8887517622E-01+
*       -1.134199741E-01               0
GRID*               8780               0-1.781514240E+006.8227462349E-01+
*       -8.226579687E-02               0
GRID*               8781               01.5397793980E+005.8909957226E-01+
*       -2.221435448E-02               0
GRID*               8782               0-1.799664192E+005.6840307678E-01+
*       -9.407724134E-02               0
GRID*               8783               0-1.832508977E+005.6537539292E-01+
*       -1.036571513E-01               0
GRID*               8784               0-1.810598049E+005.9065868664E-01+
*       -7.480776270E-02               0
GRID*               8785               01.5945550122E+006.4942642799E-01+
*       -9.335961248E-02               0
GRID*               8786               01.8315707778E+00-6.229635461E-01+
*       -5.219869556E-02               0
GRID*               8787               01.6699853620E+006.5050002827E-01+
*       -1.146267766E-01               0
GRID*               8788               01.7067358171E+006.3855349554E-01+
*       -1.146267705E-01               0
GRID*               8789               0-1.800461539E+005.3564630936E-01+
*       -1.345799103E-01               0
GRID*               8790               0-1.832765342E+005.6480087331E-01+
*       -1.242318488E-01               0
GRID*               8791               0-1.799920556E+005.6782855717E-01+
*       -1.146519388E-01               0
GRID*               8792               01.4962149707E+003.7731856273E-01+
*       -8.636702671E-02               0
GRID*               8793               01.5281991521E+003.2938334813E-01+
*       -8.880162250E-02               0
GRID*               8794               0-1.834972214E+005.7649249304E-01+
*       -2.940314418E-02               0
GRID*               8795               01.1798015069E+004.7615232187E-01+
*       1.2843342197E+00               0
GRID*               8796               01.3374145007E+001.9340830205E-01+
*       1.0390661049E+00               0
GRID*               8797               01.7192321977E+006.2052545202E-01+
*       -2.279222988E-01               0
GRID*               8798               01.3227519560E+002.7784343948E-01+
*       8.9589353435E-01               0
GRID*               8799               01.0402168011E+006.1926709997E-01+
*       -1.576825348E-01               0
GRID*               8800               01.0765532534E+006.1880309752E-01+
*       -1.587393404E-01               0
GRID*               8801               01.7428676727E+006.3838640758E-01+
*       -1.357288190E-01               0
GRID*               8802               01.7273527333E+006.7583290161E-01+
*       -1.253556091E-01               0
GRID*               8803               01.1982130736E+00-6.743490759E-01+
*       -4.219778962E-02               0
GRID*               8804               0-1.763260325E+004.2028377379E-01+
*       -2.288549063E-01               0
GRID*               8805               0-1.740561435E+003.8903822709E-01+
*       -2.288549063E-01               0
GRID*               8806               0-1.717814156E+003.7762239553E-01+
*       -2.284028847E-01               0
GRID*               8807               01.3413255794E+003.6869007039E-01+
*       2.7854688614E-01               0
GRID*               8808               01.2215144541E+001.3655351354E-01+
*       4.6903421040E-01               0
GRID*               8809               01.2086423361E+002.3483476703E-01+
*       9.0102975488E-02               0
GRID*               8810               01.1691864605E+002.6640534377E-01+
*       7.8208164866E-01               0
GRID*               8811               01.1691864009E+002.6085160445E-01+
*       8.1892590804E-01               0
GRID*               8812               01.1696292665E+002.6929498813E-01+
*       7.6373623391E-01               0
GRID*               8813               01.1711710124E+002.6957705777E-01+
*       7.4030052166E-01               0
GRID*               8814               0-1.698677694E+003.7047164867E-01+
*       -2.291084457E-01               0
GRID*               8815               01.2375536937E+00-3.120706235E-01+
*       7.6951169497E-01               0
GRID*               8816               0-1.614748081E+003.6349991983E-01+
*       -2.279693467E-01               0
GRID*               8817               0-1.577992735E+003.7543167726E-01+
*       -2.279693467E-01               0
GRID*               8818               01.3360777874E+00-1.030986328E-01+
*       5.0637992179E-01               0
GRID*               8819               01.2118062414E+00-1.633286598E-01+
*       4.5866954605E-01               0
GRID*               8820               0-3.170675247E-01-6.970950346E-01+
*       -1.144478504E-01               0
GRID*               8821               0-3.313570513E-01-6.636023756E-01+
*       -8.736908934E-02               0
GRID*               8822               01.3672441854E+00-6.396219352E-01+
*       4.5768550509E-02               0
GRID*               8823               01.3024621100E+00-6.103134679E-01+
*       7.9681001576E-02               0
GRID*               8824               01.3361247418E+00-6.765095147E-01+
*       6.6066978470E-02               0
GRID*               8825               0-1.507060081E+00-5.101243995E-01+
*       -1.870837017E-01               0
GRID*               8826               0-9.434285565E-011.1329890838E-01+
*       -7.278912492E-02               0
GRID*               8827               0-1.461481034E+00-3.970982920E-01+
*       -1.931416646E-01               0
GRID*               8828               0-1.440664913E+00-4.485526247E-01+
*       -1.931416646E-01               0
GRID*               8829               01.1795413128E+007.1922631704E-01+
*       2.6228232111E-01               0
GRID*               8830               01.1795413128E+007.1922631704E-01+
*       1.8728232111E-01               0
GRID*               8831               0-1.377208500E+00-4.725555269E-02+
*       4.8356710705E-01               0
GRID*               8832               0-1.377270033E+00-7.148730638E-02+
*       4.8803710072E-01               0
GRID*               8833               0-1.222254512E+00-1.343028521E-01+
*       4.7552198402E-01               0
GRID*               8834               03.7991802507E-026.5669261328E-01+
*       -1.563270571E-01               0
GRID*               8835               0-1.636914741E+00-3.551959578E-01+
*       -1.872925873E-01               0
GRID*               8836               0-1.652211688E+00-3.323268235E-01+
*       -2.071847274E-01               0
GRID*               8837               0-1.625603594E+00-3.084167521E-01+
*       -1.766450930E-01               0
GRID*               8838               0-1.535837033E+00-6.438835812E-01+
*       -1.783215681E-01               0
GRID*               8839               0-1.465519446E+00-6.256581353E-01+
*       -1.672793656E-01               0
GRID*               8840               0-1.556820778E+00-6.370807617E-01+
*       -1.570069723E-01               0
GRID*               8841               0-1.517367888E+00-6.798277610E-01+
*       -1.686618611E-01               0
GRID*               8842               0-1.486503192E+00-6.188553158E-01+
*       -1.459647698E-01               0
GRID*               8843               01.8113379760E+00-6.528041455E-01+
*       -1.232019475E-01               0
GRID*               8844               01.8557344673E+00-6.896652828E-01+
*       -1.336095172E-01               0
GRID*               8845               01.8106164475E+00-6.754911553E-01+
*       -1.250088752E-01               0
GRID*               8846               01.8119974585E+00-6.520175755E-01+
*       -1.440259622E-01               0
GRID*               8847               01.7425770172E+00-6.085971873E-01+
*       -2.066610707E-02               0
GRID*               8848               01.7425768295E+00-6.085973114E-01+
*       -6.233278757E-02               0
GRID*               8849               01.7652855083E+00-5.773481454E-01+
*       -6.233313379E-02               0
GRID*               8850               01.8249093590E+00-7.232349100E-01+
*       -1.559130786E-01               0
GRID*               8851               01.4481101992E+00-5.080740576E-01+
*       -7.223081619E-02               0
GRID*               8852               01.7855426426E+005.2020107274E-01+
*       -2.066688696E-02               0
GRID*               8853               01.7855420405E+005.2020250633E-01+
*       -6.233335213E-02               0
GRID*               8854               0-8.750506794E-017.1782546441E-01+
*       -2.171182598E-01               0
GRID*               8855               0-1.559490216E+00-3.805816027E-01+
*       -2.285123113E-01               0
GRID*               8856               0-1.551116088E+00-3.987989396E-01+
*       -2.288495627E-01               0
GRID*               8857               0-1.535357413E+00-3.804873228E-01+
*       -2.073618740E-01               0
GRID*               8858               0-1.551116271E+00-3.987988187E-01+
*       -1.871828825E-01               0
GRID*               8859               0-1.565406662E+00-3.542606455E-01+
*       -2.071505894E-01               0
GRID*               8860               0-1.212656522E+002.6375030008E-01+
*       7.8035566508E-01               0
GRID*               8861               0-1.240438924E+003.3531442419E-01+
*       8.1246409139E-01               0
GRID*               8862               0-1.314042984E+00-3.062844271E-01+
*       8.2920397957E-01               0
GRID*               8863               01.2397880369E+002.7903042454E-01+
*       9.0057139017E-01               0
GRID*               8864               0-1.274993145E+00-5.811212100E-01+
*       7.3775997745E-01               0
GRID*               8865               0-1.367341065E+00-6.123919200E-01+
*       1.1226478677E+00               0
GRID*               8866               01.3151743626E+00-1.969616185E-01+
*       5.0952377170E-01               0
GRID*               8867               09.5159206944E-01-7.179118564E-01+
*       -2.184728167E-01               0
GRID*               8868               08.7564207154E-01-7.179118564E-01+
*       -2.184728167E-01               0
GRID*               8869               09.1541163318E-01-7.179118564E-01+
*       -1.561169414E-01               0
GRID*               8870               0-1.169808064E+002.8296706346E-02+
*       4.8569588693E-01               0
GRID*               8871               0-1.169808064E+006.4622641756E-02+
*       4.9398748155E-01               0
GRID*               8872               0-1.178877393E+00-5.730227471E-01+
*       1.1632261363E+00               0
GRID*               8873               0-1.180319088E+00-5.975297132E-01+
*       1.1503022359E+00               0
GRID*               8874               05.7309417045E-01-7.175178594E-01+
*       -3.111960051E-02               0
GRID*               8875               05.7155398241E-01-6.550169318E-01+
*       -9.363954738E-02               0
GRID*               8876               0-1.181129778E+00-6.521336061E-01+
*       1.0560794247E+00               0
GRID*               8877               0-1.368075017E+00-6.727041993E-01+
*       9.9629027481E-01               0
GRID*               8878               0-1.179999390E+00-5.684521153E-01+
*       1.1948837320E+00               0
GRID*               8879               0-1.179999390E+00-5.218158973E-01+
*       1.2517097576E+00               0
GRID*               8880               07.3162159444E-01-7.270499209E-01+
*       -2.270513018E-01               0
GRID*               8881               07.7116689381E-01-7.270499209E-01+
*       -1.645815364E-01               0
GRID*               8882               01.1695470341E+00-1.500558024E-01+
*       5.1836033387E-01               0
GRID*               8883               07.1210976806E-01-6.706805673E-01+
*       -7.681354152E-02               0
GRID*               8884               07.4925978418E-01-6.601185965E-01+
*       -2.016451091E-02               0
GRID*               8885               0-1.376589476E+00-1.646102443E-01+
*       5.2994480987E-01               0
GRID*               8886               0-1.489665130E+00-3.881236042E-01+
*       -8.979423460E-02               0
GRID*               8887               0-1.733337579E+006.5902044939E-01+
*       -7.350934379E-02               0
GRID*               8888               0-1.752976221E+006.9686432421E-01+
*       -8.378310235E-02               0
GRID*               8889               01.6664334058E+006.9393204902E-01+
*       -2.978641456E-02               0
GRID*               8890               0-1.484629461E+007.2945448486E-01+
*       -2.200296145E-01               0
GRID*               8891               0-1.651262927E+006.5422212042E-01+
*       -1.157044230E-01               0
GRID*               8892               0-1.651262927E+006.5422212042E-01+
*       -1.573710897E-01               0
GRID*               8893               0-1.687982388E+006.4229733822E-01+
*       -1.573714665E-01               0
GRID*               8894               0-1.718437362E+006.9721845885E-01+
*       -8.324107365E-02               0
GRID*               8895               0-1.707300091E+006.3933967492E-01+
*       -9.306399304E-02               0
GRID*               8896               0-1.726938733E+006.7718354973E-01+
*       -1.033377516E-01               0
GRID*               8897               0-1.592278070E+006.2398514398E-01+
*       -6.319788624E-02               0
GRID*               8898               0-1.555527540E+006.1203853207E-01+
*       -2.153121957E-02               0
GRID*               8899               0-1.555527621E+006.1203858555E-01+
*       -6.319788013E-02               0
GRID*               8900               0-1.785261417E+006.2712684600E-01+
*       -1.773248256E-01               0
GRID*               8901               0-1.804419662E+006.4035949097E-01+
*       -1.968311367E-01               0
GRID*               8902               0-1.777212233E+005.9906269391E-01+
*       -1.146514206E-01               0
GRID*               8903               01.7425123206E+00-6.129779639E-01+
*       -2.292033462E-01               0
GRID*               8904               01.7652212830E+00-5.817277828E-01+
*       -1.875368837E-01               0
GRID*               8905               01.7425122360E+00-6.129780198E-01+
*       -1.875366859E-01               0
GRID*               8906               0-1.679588497E+006.6579076235E-01+
*       -7.268499667E-02               0
GRID*               8907               0-1.233541232E+003.1620481375E-01+
*       6.0380686951E-01               0
GRID*               8908               0-1.557386321E+003.8892123305E-01+
*       -2.001169533E-02               0
GRID*               8909               0-1.578908629E+003.8229299686E-01+
*       -2.173554090E-02               0
GRID*               8910               0-1.578908817E+003.8229287259E-01+
*       -6.340222140E-02               0
GRID*               8911               0-1.561005193E+003.7235070484E-01+
*       -4.174723623E-02               0
GRID*               8912               0-1.655898113E+006.4004815127E-01+
*       -6.167901819E-02               0
GRID*               8913               0-1.633859690E+006.7138669195E-01+
*       -4.184274492E-02               0
GRID*               8914               0-1.658078116E+006.7058689037E-01+
*       -7.119032791E-02               0
GRID*               8915               0-1.513406345E+004.9852167100E-01+
*       -2.151652638E-02               0
GRID*               8916               0-1.850922341E+005.5059692224E-01+
*       -2.289925501E-01               0
GRID*               8917               0-1.818616291E+005.3469561996E-01+
*       -2.065419357E-01               0
GRID*               8918               0-1.763260423E+004.2028407081E-01+
*       -1.871882564E-01               0
GRID*               8919               0-1.751415818E+004.0353818508E-01+
*       -6.276693055E-02               0
GRID*               8920               01.8169782149E+00-4.374676516E-01+
*       -1.771438032E-01               0
GRID*               8921               01.8069764268E+00-4.147891542E-01+
*       -1.775277351E-01               0
GRID*               8922               0-1.766357746E+006.1523701187E-01+
*       -9.368485985E-02               0
GRID*               8923               0-1.789066070E+005.8400287514E-01+
*       -9.368537808E-02               0
GRID*               8924               0-1.799999927E+006.0625848499E-01+
*       -7.441589945E-02               0
GRID*               8925               01.1922821582E+006.6182929377E-01+
*       1.0365880531E+00               0
GRID*               8926               0-8.685348853E-017.2221037243E-01+
*       -2.726757817E-02               0
GRID*               8927               0-8.650184447E-016.5020224446E-01+
*       -9.605830099E-02               0
GRID*               8928               0-9.000336597E-016.4788204697E-01+
*       -2.726757817E-02               0
GRID*               8929               0-9.855616929E-016.7259617122E-01+
*       -7.934547980E-02               0
GRID*               8930               0-9.047195961E-017.2221037243E-01+
*       -8.986978687E-02               0
GRID*               8931               01.7659091460E+00-4.200986335E-01+
*       -2.275512592E-01               0
GRID*               8932               01.7432121369E+00-3.888377992E-01+
*       -2.275512592E-01               0
GRID*               8933               0-1.069120967E+006.6970657821E-01+
*       -1.477000276E-01               0
GRID*               8934               0-1.784441498E+004.9793081065E-01+
*       -2.298258613E-01               0
GRID*               8935               0-1.784449308E+004.5928083575E-01+
*       -2.298258613E-01               0
GRID*               8936               0-1.724098841E+006.8010945123E-01+
*       -2.205133360E-01               0
GRID*               8937               01.1802494059E+00-4.116633671E-01+
*       1.3460379110E+00               0
GRID*               8938               01.1793562647E+00-3.818527778E-01+
*       1.3666247827E+00               0
GRID*               8939               01.2108557231E+00-3.768389835E-01+
*       1.3390612377E+00               0
GRID*               8940               01.2004700812E+001.5321383983E-01+
*       4.0262095832E-01               0
GRID*               8941               01.1701140719E+002.4179633225E-01+
*       6.2503118704E-01               0
GRID*               8942               0-1.617915866E+00-3.606256525E-01+
*       -1.869716115E-01               0
GRID*               8943               01.1701396017E+002.3897338503E-01+
*       8.7637729716E-01               0
GRID*               8944               01.2118049718E+002.3896997901E-01+
*       8.7638170100E-01               0
GRID*               8945               0-1.576305498E+00-6.751698031E-01+
*       -1.253740935E-01               0
GRID*               8946               0-1.484557250E+00-3.969277308E-01+
*       -1.719912273E-01               0
GRID*               8947               0-1.874850204E+006.9523342757E-01+
*       -3.128869477E-02               0
GRID*               8948               0-1.799475645E+00-5.681887347E-01+
*       -1.563072999E-01               0
GRID*               8949               0-1.776774237E+00-5.994364209E-01+
*       -1.146402337E-01               0
GRID*               8950               0-1.799475445E+00-5.681893348E-01+
*       -1.146405993E-01               0
GRID*               8951               0-1.777074471E+00-7.290406301E-01+
*       -1.568975813E-01               0
GRID*               8952               0-1.749570318E+00-7.290406301E-01+
*       -2.193140974E-01               0
GRID*               8953               0-1.771527229E+00-7.247004132E-01+
*       -2.185241408E-01               0
GRID*               8954               0-1.799031382E+00-7.247004132E-01+
*       -1.561076248E-01               0
GRID*               8955               0-1.801198466E+00-5.351080456E-01+
*       -9.336581465E-02               0
GRID*               8956               0-1.801198665E+00-5.351074455E-01+
*       -1.350325153E-01               0
GRID*               8957               0-1.833041741E+00-5.646708176E-01+
*       -1.246731150E-01               0
GRID*               8958               01.2425727786E+003.2569233117E-01+
*       6.9158122773E-01               0
GRID*               8959               01.6562893577E+00-3.550625243E-01+
*       -2.145060344E-02               0
GRID*               8960               01.6344585027E+00-3.649391214E-01+
*       -6.313611737E-02               0
GRID*               8961               01.6344585027E+00-3.649391214E-01+
*       -2.146945071E-02               0
GRID*               8962               01.6419979129E+00-3.450016457E-01+
*       -4.292005414E-02               0
GRID*               8963               01.5462609409E+00-4.055794787E-01+
*       -2.087540267E-02               0
GRID*               8964               01.5943149738E+00-3.222430534E-01+
*       -8.605754474E-02               0
GRID*               8965               01.5722303528E+00-3.289289350E-01+
*       -8.775358878E-02               0
GRID*               8966               01.5143910189E+004.9894454261E-01+
*       -6.181338830E-02               0
GRID*               8967               01.4835706272E+004.0925583224E-01+
*       -2.211899289E-02               0
GRID*               8968               01.5998420293E+003.6767462057E-01+
*       -2.281446228E-01               0
GRID*               8969               01.3766866998E+004.6462645256E-02+
*       4.8972116293E-01               0
GRID*               8970               01.3766866998E+008.2788580666E-02+
*       4.9801275755E-01               0
GRID*               8971               01.6342857223E+00-3.062602597E-01+
*       -8.653874949E-02               0
GRID*               8972               01.6930398943E+00-3.670091107E-01+
*       -2.145060344E-02               0
GRID*               8973               01.2004700748E+001.1121007095E-01+
*       4.3713956757E-01               0
GRID*               8974               01.6124548673E+00-3.161368568E-01+
*       -8.655759676E-02               0
GRID*               8975               01.5318767230E+00-5.806064903E-01+
*       -2.176285576E-02               0
GRID*               8976               01.5545780734E+00-6.118538567E-01+
*       -6.342913963E-02               0
GRID*               8977               01.5545756509E+00-6.118520151E-01+
*       -2.176285576E-02               0
GRID*               8978               01.4783249269E+00-3.828500982E-01+
*       -1.857630854E-01               0
GRID*               8979               01.6163186092E+00-3.710453180E-01+
*       -2.096939869E-02               0
GRID*               8980               01.3552211776E+002.1150896091E-02+
*       1.0413376457E+00               0
GRID*               8981               0-1.169350062E+00-1.559715860E-01+
*       5.3338670176E-01               0
GRID*               8982               01.3683364804E+003.9169239871E-02+
*       1.4637999942E+00               0
GRID*               8983               01.3058371336E+007.5927654732E-02+
*       1.4619943158E+00               0
GRID*               8984               01.3683364804E+001.1232808102E-01+
*       1.4565947705E+00               0
GRID*               8985               01.3669062305E+00-2.998921987E-02+
*       1.4604280835E+00               0
GRID*               8986               01.1698616966E+002.6632906254E-01+
*       7.2124760602E-01               0
GRID*               8987               01.3139015499E+003.1637443213E-01+
*       6.0345781853E-01               0
GRID*               8988               01.2116207461E+002.1368879999E-01+
*       5.8749386970E-01               0
GRID*               8989               01.2325502983E+002.2756194271E-01+
*       5.3608118124E-01               0
GRID*               8990               01.2116180489E+001.8835359271E-01+
*       5.6018838393E-01               0
GRID*               8991               01.7767934591E+00-4.086112802E-01+
*       -1.152153617E-01               0
GRID*               8992               01.3353839714E+001.9786044963E-01+
*       5.6993770691E-01               0
GRID*               8993               01.3367009430E+00-1.980451660E-01+
*       1.0002486650E+00               0
GRID*               8994               01.2128385487E+002.6402178356E-01+
*       7.0345259081E-01               0
GRID*               8995               01.1701396017E+002.5514061360E-01+
*       8.4280716285E-01               0
GRID*               8996               01.1713401599E+00-2.452094477E-01+
*       8.5251422954E-01               0
GRID*               8997               01.3362033017E+008.6873720767E-02+
*       1.0067379235E+00               0
GRID*               8998               01.3778679251E+008.6865549347E-02+
*       1.0067413365E+00               0
GRID*               8999               01.3765619312E+001.0964915330E-01+
*       9.9840915837E-01               0
GRID*               9000               01.3556799087E+001.0518055769E-01+
*       1.0224347522E+00               0
GRID*               9001               01.3774797312E+00-2.426119812E-01+
*       6.4547905289E-01               0
GRID*               9002               01.3786580945E+00-3.088780831E-01+
*       7.1352233325E-01               0
GRID*               9003               01.1699530959E+001.8834767457E-01+
*       5.6018381038E-01               0
GRID*               9004               01.2116868715E+001.2529795298E-01+
*       5.1399737249E-01               0
GRID*               9005               01.1802494059E+00-4.684896423E-01+
*       1.2994020316E+00               0
GRID*               9006               01.1649161062E+00-7.123073464E-01+
*       -3.338933326E-02               0
GRID*               9007               0-1.395787497E+00-6.241240636E-01+
*       -1.685180296E-01               0
GRID*               9008               01.5147998210E+00-4.615778151E-01+
*       -2.282655786E-01               0
GRID*               9009               01.5233100796E+00-4.421987409E-01+
*       -2.285257002E-01               0
GRID*               9010               01.3772954327E+00-2.396882344E-01+
*       6.2112148020E-01               0
GRID*               9011               01.3396009986E+00-3.066078807E-01+
*       6.0699998932E-01               0
GRID*               9012               01.2735641159E+00-6.214315413E-01+
*       2.4416146883E-01               0
GRID*               9013               0-1.507405204E+00-5.302588746E-01+
*       -2.290126465E-01               0
GRID*               9014               0-1.145262136E-01-6.566345516E-01+
*       -9.376458739E-02               0
GRID*               9015               0-1.147257292E-01-7.187072536E-01+
*       -3.124758139E-02               0
GRID*               9016               0-1.243185625E+005.0218714287E-01+
*       1.2608408062E+00               0
GRID*               9017               01.3785737454E+002.6243871534E-01+
*       7.0147511182E-01               0
GRID*               9018               08.7615507662E-01-7.134233943E-01+
*       -3.105110454E-02               0
GRID*               9019               09.1244126891E-01-7.134233943E-01+
*       -9.369522929E-02               0
GRID*               9020               08.7101249341E-01-6.462049995E-01+
*       -9.381652060E-02               0
GRID*               9021               07.7454064038E-01-7.241993421E-01+
*       -8.658327911E-02               0
GRID*               9022               07.3611454934E-01-6.668618176E-01+
*       -8.070207512E-02               0
GRID*               9023               07.6243591963E-01-7.022174339E-01+
*       -4.421755541E-02               0
GRID*               9024               09.1137370686E-01-6.822181639E-01+
*       -1.247851783E-01               0
GRID*               9025               09.4008529268E-01-6.362328145E-01+
*       -9.535592284E-02               0
GRID*               9026               09.4370068603E-01-7.040146506E-01+
*       -9.585899400E-02               0
GRID*               9027               09.1179623983E-01-6.501300203E-01+
*       -1.556138703E-01               0
GRID*               9028               09.4412321900E-01-6.719265070E-01+
*       -1.266876859E-01               0
GRID*               9029               01.3779104558E+001.8543882973E-01+
*       5.5587328684E-01               0
GRID*               9030               01.3779104558E+002.1078253292E-01+
*       5.8318667052E-01               0
GRID*               9031               01.6648457785E+003.6362684093E-01+
*       -2.119817935E-02               0
GRID*               9032               01.6644408634E+003.3854656228E-01+
*       -4.327122518E-02               0
GRID*               9033               01.6648457784E+003.6362684093E-01+
*       -6.286484601E-02               0
GRID*               9034               0-1.180685895E+005.2946504564E-01+
*       1.2361182048E+00               0
GRID*               9035               01.3062390497E+001.0765656261E-01+
*       1.0645875379E+00               0
GRID*               9036               0-1.882841646E+00-4.698251025E-01+
*       -1.566302803E-01               0
GRID*               9037               01.7852460681E+005.1994514788E-01+
*       -1.875229633E-01               0
GRID*               9038               01.7852471445E+005.1994256774E-01+
*       -2.291899884E-01               0
GRID*               9039               01.7736378177E+005.6605041898E-01+
*       -2.290403279E-01               0
GRID*               9040               01.7736367413E+005.6605299913E-01+
*       -1.873733028E-01               0
GRID*               9041               01.7912399274E+005.4740781598E-01+
*       -2.082303163E-01               0
GRID*               9042               01.6363655174E+007.2965132015E-01+
*       -2.191882388E-01               0
GRID*               9043               01.2929251462E+00-1.663761058E-01+
*       1.3634360832E+00               0
GRID*               9044               01.6314545961E+006.9243800822E-01+
*       -2.191882388E-01               0
GRID*               9045               01.6889224303E+00-6.988905282E-01+
*       -1.983826130E-01               0
GRID*               9046               01.7555984863E+006.6915950218E-01+
*       -1.970100616E-01               0
GRID*               9047               01.7586171265E+006.4974099795E-01+
*       -1.774210827E-01               0
GRID*               9048               01.7392209640E+006.1315974708E-01+
*       -1.873603125E-01               0
GRID*               9049               01.7362023237E+006.3257825131E-01+
*       -2.069492914E-01               0
GRID*               9050               01.7755874352E+006.6179367654E-01+
*       -1.981147554E-01               0
GRID*               9051               01.6986951365E+006.2373049156E-01+
*       -2.285050054E-01               0
GRID*               9052               0-1.179435079E+003.9580364105E-01+
*       1.3448282002E+00               0
GRID*               9053               01.7851249082E+00-4.976194777E-01+
*       -2.285951020E-01               0
GRID*               9054               0-3.810782468E-02-6.253463581E-01+
*       -1.875170060E-01               0
GRID*               9055               0-1.180007978E+003.6745121904E-01+
*       1.3634388763E+00               0
GRID*               9056               0-1.210693109E+003.4657769860E-01+
*       1.3346656206E+00               0
GRID*               9057               01.7668081545E+007.2457789647E-01+
*       -3.150064045E-02               0
GRID*               9058               01.7293868918E+007.2457789647E-01+
*       -9.406960463E-02               0
GRID*               9059               01.8016956430E+007.2457789647E-01+
*       -9.408412437E-02               0
GRID*               9060               01.6820495572E+003.0877492878E-01+
*       -7.848041234E-02               0
GRID*               9061               01.8501414879E+007.2457789647E-01+
*       -3.150064045E-02               0
GRID*               9062               01.6986006227E+003.2248203824E-01+
*       -7.760554586E-02               0
GRID*               9063               01.7772792659E+004.0908079524E-01+
*       -1.360438565E-01               0
GRID*               9064               01.7999883150E+004.4033103831E-01+
*       -1.360440542E-01               0
GRID*               9065               01.7999878437E+004.4032989921E-01+
*       -9.437754350E-02               0
GRID*               9066               01.6800770258E+003.6402773147E-01+
*       -2.291111551E-01               0
GRID*               9067               01.6957805771E+003.1670971001E-01+
*       -1.607208546E-01               0
GRID*               9068               01.8244677257E+004.1065953492E-01+
*       -1.970141715E-01               0
GRID*               9069               01.8068483028E+004.1338745612E-01+
*       -1.771963778E-01               0
GRID*               9070               01.7921463757E+004.3259020854E-01+
*       -2.078881621E-01               0
GRID*               9071               01.8137470250E+003.8734162630E-01+
*       -1.985996713E-01               0
GRID*               9072               0-1.367850994E+004.1906767527E-01+
*       1.3297810166E+00               0
GRID*               9073               01.5085594191E+00-6.952221041E-01+
*       -1.882949959E-01               0
GRID*               9074               01.8255200055E+007.0162485394E-01+
*       -9.514691067E-02               0
GRID*               9075               01.5686183400E+00-6.607765750E-01+
*       -1.751854168E-01               0
GRID*               9076               01.5605958911E+00-7.344934165E-01+
*       -3.199122319E-02               0
GRID*               9077               01.6068164586E+00-7.344934165E-01+
*       -9.455014251E-02               0
GRID*               9078               01.5282000970E+00-7.344934165E-01+
*       -9.487225161E-02               0
GRID*               9079               01.7392211467E+006.1315962638E-01+
*       -2.290269926E-01               0
GRID*               9080               01.7619181538E+005.8189879821E-01+
*       -2.290269926E-01               0
GRID*               9081               01.7509406279E+005.9731136786E-01+
*       -1.873736478E-01               0
GRID*               9082               01.7852393525E+004.8133341499E-01+
*       -2.291899884E-01               0
GRID*               9083               01.5006022226E+00-7.218902435E-01+
*       -9.404965703E-02               0
GRID*               9084               01.5329980166E+00-7.218902435E-01+
*       -3.116862861E-02               0
GRID*               9085               01.5281772935E+00-7.063836600E-01+
*       -6.315985179E-02               0
GRID*               9086               01.4496646833E+00-7.218902435E-01+
*       -3.116862861E-02               0
GRID*               9087               01.7618567593E+003.3968334971E-01+
*       -1.083308838E-01               0
GRID*               9088               01.4971013350E+00-3.801365725E-01+
*       -8.342852815E-02               0
GRID*               9089               01.6163186092E+00-3.710453180E-01+
*       -6.263606535E-02               0
GRID*               9090               0-1.763195689E+00-5.824722030E-01+
*       -1.861635753E-01               0
GRID*               9091               0-1.783375514E+00-6.282447982E-01+
*       -1.754667914E-01               0
GRID*               9092               01.5476549946E+003.2180054286E-01+
*       -8.906029790E-02               0
GRID*               9093               0-1.848526468E+00-7.227041731E-01+
*       -3.118559400E-02               0
GRID*               9094               0-1.800080623E+00-7.227041731E-01+
*       -9.376907792E-02               0
GRID*               9095               0-1.822676988E+00-6.987091971E-01+
*       -9.225856587E-02               0
GRID*               9096               0-1.847477227E+00-7.247004132E-01+
*       -2.185241408E-01               0
GRID*               9097               0-1.243142135E+00-6.813539820E-02+
*       1.4580453830E+00               0
GRID*               9098               0-1.253265589E+00-9.267942799E-02+
*       1.3750646666E+00               0
GRID*               9099               0-1.224902129E+00-3.919328757E-02+
*       1.4303354116E+00               0
GRID*               9100               01.7058216803E+00-6.205289749E-01+
*       -2.066610707E-02               0
GRID*               9101               01.8054804397E+00-6.875758064E-01+
*       -1.669458172E-01               0
GRID*               9102               01.8309227416E+00-7.143408964E-01+
*       -1.361161728E-01               0
GRID*               9103               01.7871857328E+00-6.766931891E-01+
*       -1.465326177E-01               0
GRID*               9104               01.7865262503E+00-6.774797591E-01+
*       -1.257086030E-01               0
GRID*               9105               0-1.242429604E+00-5.193670724E-01+
*       1.2492947508E+00               0
GRID*               9106               01.6376962002E+00-6.413598523E-01+
*       -2.178613143E-02               0
GRID*               9107               01.6574965079E+00-6.348285747E-01+
*       -2.158692866E-02               0
GRID*               9108               01.6942516571E+00-6.228969112E-01+
*       -6.325360915E-02               0
GRID*               9109               01.7146185602E+00-6.303575597E-01+
*       -4.225303573E-02               0
GRID*               9110               01.8435829761E+006.2537110511E-01+
*       -8.340745969E-02               0
GRID*               9111               01.8673347698E+006.1421029038E-01+
*       -8.486382043E-02               0
GRID*               9112               01.7999063636E+005.3397796115E-01+
*       -1.355870208E-01               0
GRID*               9113               0-1.687984773E+006.4229552518E-01+
*       -1.990377563E-01               0
GRID*               9114               0-1.339073077E+006.1981052247E-01+
*       1.3752636073E-01               0
GRID*               9115               0-1.335946405E+009.6049443229E-02+
*       3.0699507812E-02               0
GRID*               9116               0-1.871818104E+002.6589176936E-01+
*       -2.194355222E-01               0
GRID*               9117               0-1.817425202E+002.3594883803E-01+
*       -2.194355222E-01               0
GRID*               9118               0-1.799463247E+002.5232638734E-01+
*       -1.610944034E-01               0
GRID*               9119               0-1.514460344E+00-4.995361841E-01+
*       -6.223347887E-02               0
GRID*               9120               0-1.461612875E+00-5.950735167E-01+
*       -1.972911372E-01               0
GRID*               9121               0-1.195932093E+007.0863488867E-01+
*       3.7847216240E-01               0
GRID*               9122               0-1.556735426E+003.9585975326E-01+
*       -2.295110618E-01               0
GRID*               9123               0-1.632524045E+00-3.641294327E-01+
*       -6.288075390E-02               0
GRID*               9124               0-1.621212897E+00-3.173502270E-01+
*       -9.389992629E-02               0
GRID*               9125               0-1.632809362E+00-3.391635508E-01+
*       -4.239887465E-02               0
GRID*               9126               0-1.477234506E+00-4.043067249E-01+
*       -8.891128528E-02               0
GRID*               9127               0-1.453486285E+00-4.261423258E-01+
*       -9.098446649E-02               0
GRID*               9128               0-1.805340681E+004.1298839949E-01+
*       -7.289107504E-02               0
GRID*               9129               0-1.811825536E+003.8640023684E-01+
*       -5.232507225E-02               0
GRID*               9130               0-1.617077986E+006.6989246637E-01+
*       -1.624356045E-01               0
GRID*               9131               0-1.642421316E+006.4027932817E-01+
*       -2.291717379E-01               0
GRID*               9132               0-1.528845240E+005.7356443320E-01+
*       -2.285903185E-01               0
GRID*               9133               0-1.785426542E+00-4.805662572E-01+
*       -6.299906961E-02               0
GRID*               9134               0-1.867193383E+00-5.654920637E-01+
*       -1.990950207E-01               0
GRID*               9135               0-1.834881691E+00-5.509450171E-01+
*       -1.774674236E-01               0
GRID*               9136               0-1.883581687E+00-5.613676773E-01+
*       -2.269719952E-01               0
GRID*               9137               0-1.852025122E+00-5.268597410E-01+
*       -1.760670160E-01               0
GRID*               9138               0-1.851269994E+00-5.468206307E-01+
*       -2.053443981E-01               0
GRID*               9139               0-1.872900468E+00-7.260050241E-01+
*       -1.860729719E-01               0
GRID*               9140               0-1.821627748E+00-7.007054373E-01+
*       -1.545971127E-01               0
GRID*               9141               01.1704341733E+001.3871455744E-01+
*       9.7371577896E-01               0
GRID*               9142               0-1.521372087E+005.6472748079E-01+
*       -2.161397232E-02               0
GRID*               9143               0-1.569265430E+003.4185631700E-01+
*       -4.439219568E-02               0
GRID*               9144               0-1.655898113E+006.4004815127E-01+
*       -2.001235152E-02               0
GRID*               9145               0-1.619147584E+006.2810153936E-01+
*       -2.001235152E-02               0
GRID*               9146               01.6825820455E+003.6997289535E-01+
*       -2.123578210E-02               0
GRID*               9147               0-1.367695451E+007.2012192805E-01+
*       2.6326546106E-01               0
GRID*               9148               0-1.367695451E+007.2012192805E-01+
*       1.8826546106E-01               0
GRID*               9149               01.8510950990E+005.1029413554E-01+
*       -8.316688696E-02               0
GRID*               9150               01.8673347698E+005.4405347694E-01+
*       -8.486382043E-02               0
GRID*               9151               01.7877816517E+005.8340840928E-01+
*       -9.448169867E-02               0
GRID*               9152               01.7857020814E+006.5194726366E-01+
*       -1.052107327E-01               0
GRID*               9153               01.7410048982E+006.1351012700E-01+
*       -2.203135943E-02               0
GRID*               9154               01.7393609681E+00-3.867226898E-01+
*       -2.044299587E-02               0
GRID*               9155               01.7120582057E+00-3.728420777E-01+
*       -2.096913907E-02               0
GRID*               9156               01.7291681532E+00-3.606715946E-01+
*       -4.141213494E-02               0
GRID*               9157               01.7120581243E+00-3.728420240E-01+
*       -6.263579964E-02               0
GRID*               9158               0-1.336328934E+006.9438627040E-01+
*       1.9536875694E-01               0
GRID*               9159               01.7620579772E+00-4.179835241E-01+
*       -2.044299587E-02               0
GRID*               9160               0-1.242417299E+00-6.363509997E-01+
*       5.4632485512E-01               0
GRID*               9161               0-1.305125594E+00-6.205532068E-01+
*       6.3351091703E-01               0
GRID*               9162               0-1.243051621E+007.1827942259E-01+
*       7.2874825927E-01               0
GRID*               9163               0-1.211388654E+006.8456325738E-01+
*       7.4425518293E-01               0
GRID*               9164               0-1.241751443E+005.9989287747E-01+
*       7.4193998140E-01               0
GRID*               9165               01.5460216276E+00-4.109623133E-01+
*       -2.285257002E-01               0
GRID*               9166               01.5460240134E+00-4.109604990E-01+
*       -1.868594103E-01               0
GRID*               9167               0-1.236856906E+003.9786229948E-01+
*       1.2198128692E+00               0
GRID*               9168               0-1.238115712E+004.1984341559E-01+
*       1.2030913005E+00               0
GRID*               9169               09.7122191823E-01-5.253024205E-01+
*       -6.315048828E-02               0
GRID*               9170               0-1.304027773E+006.5549027632E-01+
*       6.3524207574E-01               0
GRID*               9171               0-1.242157157E+007.2165765487E-01+
*       7.0600707342E-01               0
GRID*               9172               0-1.180551651E+007.1827942259E-01+
*       7.2874825927E-01               0
GRID*               9173               0-1.211458771E+006.8993707746E-01+
*       6.8475533269E-01               0
GRID*               9174               0-1.298650566E+001.0996937187E-02+
*       1.3729846046E+00               0
GRID*               9175               0-1.298565683E+00-1.769842587E-02+
*       1.3691150541E+00               0
GRID*               9176               01.4594006033E+00-4.177368963E-01+
*       -6.076308542E-02               0
GRID*               9177               01.3111946811E+006.3328609591E-01+
*       1.1819689831E-01               0
GRID*               9178               01.3680533162E+006.4334823947E-01+
*       5.0500064596E-02               0
GRID*               9179               01.3108853035E+006.2595219342E-01+
*       8.8649989232E-02               0
GRID*               9180               01.3370473073E+006.7936257646E-01+
*       7.1453220113E-02               0
GRID*               9181               01.3037739683E+001.4785340569E-01+
*       4.7696698639E-01               0
GRID*               9182               0-1.335640287E+00-2.569744982E-01+
*       6.8168897857E-01               0
GRID*               9183               0-1.376989477E+00-1.762158298E-01+
*       9.5518444598E-01               0
GRID*               9184               0-1.378151837E+009.5756928585E-03+
*       4.7909698038E-01               0
GRID*               9185               01.3353378898E+006.4577257367E-02+
*       4.9431958431E-01               0
GRID*               9186               01.3045017860E+001.3128748921E-01+
*       4.6735317301E-01               0
GRID*               9187               01.3361167080E+001.0350459969E-01+
*       5.0286304649E-01               0
GRID*               9188               01.3557184132E+009.4965958825E-02+
*       4.8359438612E-01               0
GRID*               9189               0-1.180077627E+007.2194142790E-01+
*       5.6123448236E-01               0
GRID*               9190               0-1.241204385E+006.5380762996E-01+
*       6.5900208894E-01               0
GRID*               9191               0-1.223574823E+001.3808496489E-01+
*       4.6514496443E-01               0
GRID*               9192               0-1.180391612E+00-7.191091931E-01+
*       4.4863424171E-01               0
GRID*               9193               0-1.243779121E+00-7.112257909E-01+
*       8.0635864686E-01               0
GRID*               9194               01.3683072512E+006.0557757742E-03+
*       1.4596479793E+00               0
GRID*               9195               01.3058079045E+004.2814190635E-02+
*       1.4578423009E+00               0
GRID*               9196               01.3378937841E+004.5225015645E-02+
*       1.4234489296E+00               0
GRID*               9197               0-1.329369575E+006.2729702788E-01+
*       2.6307332672E-01               0
GRID*               9198               0-1.299412018E+00-6.140738457E-01+
*       9.6404182015E-01               0
GRID*               9199               0-1.272519650E+00-6.775795254E-01+
*       8.0033837329E-01               0
GRID*               9200               0-1.299752890E+00-6.194490722E-01+
*       9.3362778817E-01               0
GRID*               9201               0-1.179732388E+00-6.953861208E-01+
*       9.2474590552E-01               0
GRID*               9202               0-1.173211387E+007.3103090370E-01+
*       4.0260683206E-01               0
GRID*               9203               0-1.169779701E+00-2.712117129E-01+
*       7.3860199183E-01               0
GRID*               9204               0-1.211444325E+00-2.712128432E-01+
*       7.3861077520E-01               0
GRID*               9205               0-1.179113518E+00-6.535224633E-01+
*       5.5102232410E-01               0
GRID*               9206               0-1.226944349E+00-1.811473063E-01+
*       4.9781164008E-01               0
GRID*               9207               03.4230562981E-016.5693174510E-01+
*       -1.562060564E-01               0
GRID*               9208               01.3353473670E+00-2.724761877E-01+
*       7.1954314482E-01               0
GRID*               9209               01.3192108152E+00-3.193261707E-01+
*       7.6825988926E-01               0
GRID*               9210               01.3178630415E+00-3.165342404E-01+
*       6.9082298349E-01               0
GRID*               9211               0-1.334589258E+003.2337229877E-01+
*       8.5699985168E-01               0
GRID*               9212               0-1.206871554E+001.8828154703E-01+
*       9.8853656958E-01               0
GRID*               9213               01.8009289058E+00-5.683434884E-01+
*       -1.567125904E-01               0
GRID*               9214               01.7782198587E+00-5.995937253E-01+
*       -1.567123926E-01               0
GRID*               9215               01.7985219622E+00-6.114352185E-01+
*       -1.775823992E-01               0
GRID*               9216               0-1.032203396E+006.7093033612E-01+
*       -1.447437854E-01               0
GRID*               9217               01.8168607164E+00-4.737432741E-01+
*       -1.765923469E-01               0
GRID*               9218               01.8343494582E+00-4.713413377E-01+
*       -1.968544740E-01               0
GRID*               9219               01.8487073036E+00-4.522031810E-01+
*       -1.668080732E-01               0
GRID*               9220               01.6332166064E+00-3.561965403E-01+
*       -2.287741006E-01               0
GRID*               9221               01.8182981970E+004.7198087171E-01+
*       -1.763199731E-01               0
GRID*               9222               01.8006787741E+004.7470879291E-01+
*       -1.565021794E-01               0
GRID*               9223               01.7997452939E+004.3975050385E-01+
*       -1.569204682E-01               0
GRID*               9224               01.8173647169E+004.3702258265E-01+
*       -1.767382619E-01               0
GRID*               9225               01.8327958375E+004.5309533721E-01+
*       -1.467555726E-01               0
GRID*               9226               01.7646832820E+004.1963831463E-01+
*       -1.853927002E-01               0
GRID*               9227               09.9026837690E-01-7.198861098E-01+
*       -1.555655546E-01               0
GRID*               9228               0-1.867445449E+004.5939440468E-02+
*       -2.195650395E-01               0
GRID*               9229               08.7398285768E-01-6.506934615E-01+
*       -1.562382327E-01               0
GRID*               9230               0-4.969559709E-017.1806692882E-01+
*       -3.114263751E-02               0
GRID*               9231               0-1.636914741E+00-3.551959578E-01+
*       -2.289592539E-01               0
GRID*               9232               0-1.900247452E-01-7.187209908E-01+
*       -2.187557925E-01               0
GRID*               9233               0-1.870755863E+00-7.009413018E-01+
*       -2.197018956E-01               0
GRID*               9234               0-1.815503817E+00-6.513003441E-01+
*       -2.197018956E-01               0
GRID*               9235               0-1.870755863E+00-6.259413018E-01+
*       -2.197018956E-01               0
GRID*               9236               0-1.760266371E+00-6.482645406E-01+
*       -7.285187786E-02               0
GRID*               9237               0-1.724319470E+00-6.437808918E-01+
*       -9.358920402E-02               0
GRID*               9238               0-1.714551390E+00-7.300710097E-01+
*       -2.191806300E-01               0
GRID*               9239               0-1.742055543E+00-7.300710097E-01+
*       -1.567641139E-01               0
GRID*               9240               0-1.669746791E+00-7.300710097E-01+
*       -1.567495942E-01               0
GRID*               9241               0-1.638601392E+00-7.300710097E-01+
*       -2.191806300E-01               0
GRID*               9242               0-1.597563171E+00-6.979760801E-01+
*       -2.047297312E-02               0
GRID*               9243               0-1.547933790E+00-6.800975302E-01+
*       -2.087412212E-02               0
GRID*               9244               0-1.600285133E+00-6.609505136E-01+
*       -4.221162619E-02               0
GRID*               9245               0-1.550655752E+00-6.430719636E-01+
*       -4.261277519E-02               0
GRID*               9246               0-1.576995177E+00-6.760838816E-01+
*       -1.036529507E-01               0
GRID*               9247               0-1.723936009E+00-6.179765305E-01+
*       -6.238184789E-02               0
GRID*               9248               01.1917648167E+002.3957177673E-01+
*       5.8514772218E-01               0
GRID*               9249               0-1.298204962E+006.9039922884E-02+
*       1.3552246692E+00               0
GRID*               9250               0-1.873541956E+006.2655162820E-01+
*       -2.189911155E-01               0
GRID*               9251               0-1.575732113E+006.5891479237E-01+
*       -7.380433607E-02               0
GRID*               9252               0-1.539484108E+006.9092972180E-01+
*       -8.273171656E-02               0
GRID*               9253               0-1.575751494E+006.4506837100E-01+
*       -9.226070773E-02               0
GRID*               9254               0-1.701143073E+007.3344961666E-01+
*       -9.441520111E-02               0
GRID*               9255               0-1.882180854E+004.6776226830E-01+
*       -2.185160578E-01               0
GRID*               9256               0-1.849401461E+004.7060577825E-01+
*       -2.185160578E-01               0
GRID*               9257               0-1.882180854E+005.4276226830E-01+
*       -2.185160578E-01               0
GRID*               9258               0-1.169865916E+00-2.481694782E-01+
*       6.6270147433E-01               0
GRID*               9259               0-1.881299420E+004.3342453952E-01+
*       -2.186614971E-01               0
GRID*               9260               0-1.848520027E+004.3626804947E-01+
*       -2.186614971E-01               0
GRID*               9261               0-1.774925397E+004.3593281236E-01+
*       -2.289567560E-01               0
GRID*               9262               0-1.774925495E+004.3593310938E-01+
*       -1.872901061E-01               0
GRID*               9263               0-1.791742329E+004.3383960872E-01+
*       -2.087826173E-01               0
GRID*               9264               0-1.169399861E+00-2.660370894E-01+
*       8.0261068254E-01               0
GRID*               9265               0-1.169779701E+00-2.712117126E-01+
*       7.7586216906E-01               0
GRID*               9266               0-1.552701740E+00-6.076563270E-01+
*       -2.284850498E-01               0
GRID*               9267               0-1.552701824E+00-6.076563827E-01+
*       -1.868183894E-01               0
GRID*               9268               0-1.553786510E+00-6.278697189E-01+
*       -2.066665762E-01               0
GRID*               9269               0-1.170637345E+00-2.065140605E-01+
*       9.2711668010E-01               0
GRID*               9270               0-1.170637345E+00-2.275030343E-01+
*       8.9633038147E-01               0
GRID*               9271               0-1.169670310E+00-1.876226823E-01+
*       9.3824598232E-01               0
GRID*               9272               0-1.029931910E+00-6.032878106E-01+
*       -1.397401701E-01               0
GRID*               9273               0-1.238166351E+00-3.682609874E-03+
*       4.3619623714E-01               0
GRID*               9274               0-1.026584466E+00-7.160432845E-01+
*       -1.561769749E-01               0
GRID*               9275               01.1699530959E+002.1369137776E-01+
*       5.8749719405E-01               0
GRID*               9276               0-1.378073140E+00-1.500652944E-01+
*       5.1763923259E-01               0
GRID*               9277               0-1.377304863E+00-2.184101653E-01+
*       5.9349748484E-01               0
GRID*               9278               0-1.378214273E+00-2.646145263E-01+
*       7.7796288812E-01               0
GRID*               9279               0-2.558444673E-017.2523720304E-01+
*       -2.506859555E-02               0
GRID*               9280               0-2.548653980E-016.6369086132E-01+
*       -8.732491645E-02               0
GRID*               9281               0-2.937349974E-016.6201319320E-01+
*       -2.506859555E-02               0
GRID*               9282               0-1.368225049E+00-5.823168646E-01+
*       1.1775053617E+00               0
GRID*               9283               0-1.301412265E+003.3256756790E-01+
*       7.1498750163E-01               0
GRID*               9284               0-1.335669184E+002.6167004488E-01+
*       8.2034903491E-01               0
GRID*               9285               0-1.377335442E+002.6167071188E-01+
*       8.2034745854E-01               0
GRID*               9286               0-1.355632904E+002.7719833772E-01+
*       8.3982812018E-01               0
GRID*               9287               0-1.339131170E+00-5.250224217E-01+
*       7.8575914231E-01               0
GRID*               9288               0-1.736140995E+003.6777767663E-01+
*       -2.072577911E-01               0
GRID*               9289               01.3205246328E+00-2.839845483E-01+
*       5.5842108697E-01               0
GRID*               9290               05.0919416892E-017.2866091882E-01+
*       -2.261750915E-02               0
GRID*               9291               04.3261083114E-017.2866091882E-01+
*       -2.261750915E-02               0
GRID*               9292               04.6995264309E-017.2866091882E-01+
*       -8.512319266E-02               0
GRID*               9293               0-1.806901167E+004.1515495742E-01+
*       -1.776517289E-01               0
GRID*               9294               0-1.823718001E+004.1306145676E-01+
*       -1.991442400E-01               0
GRID*               9295               0-1.814194090E+003.8971343337E-01+
*       -1.982751348E-01               0
GRID*               9296               0-1.579088848E+006.4965768624E-01+
*       -2.001235152E-02               0
GRID*               9297               05.0730691732E-016.6682418492E-01+
*       -8.486032827E-02               0
GRID*               9298               04.7073490522E-016.6625954102E-01+
*       -2.261750915E-02               0
GRID*               9299               0-1.784235134E+006.5103568647E-01+
*       -1.448137941E-01               0
GRID*               9300               0-1.742444523E+006.3815025118E-01+
*       -1.564279965E-01               0
GRID*               9301               0-1.804490787E+006.8803550205E-01+
*       -1.345743703E-01               0
GRID*               9302               0-1.742450242E+006.3814586611E-01+
*       -1.147604179E-01               0
GRID*               9303               0-1.180100004E+007.1790539661E-01+
*       1.6094730052E-01               0
GRID*               9304               0-1.578317001E+006.7268527538E-01+
*       -1.389918954E-01               0
GRID*               9305               0-1.616745009E+006.7120908505E-01+
*       -1.395758246E-01               0
GRID*               9306               0-1.241460064E+006.1317681058E-01+
*       6.6214885758E-02               0
GRID*               9307               0-1.534065446E+007.2141479237E-01+
*       -3.213766940E-02               0
GRID*               9308               0-1.800308512E+00-4.745881995E-01+
*       -1.356946131E-01               0
GRID*               9309               0-1.800308712E+00-4.745888010E-01+
*       -9.402791242E-02               0
GRID*               9310               0-1.798728742E+00-4.392662562E-01+
*       -1.346401526E-01               0
GRID*               9311               0-1.831420696E+00-4.525290546E-01+
*       -1.036680647E-01               0
GRID*               9312               0-1.798728941E+00-4.392668577E-01+
*       -9.297345190E-02               0
GRID*               9313               0-1.776014896E+00-4.080283368E-01+
*       -1.346405122E-01               0
GRID*               9314               0-1.776020615E+00-4.080327219E-01+
*       -9.297293367E-02               0
GRID*               9315               0-1.800316318E+00-5.132387804E-01+
*       -9.402791209E-02               0
GRID*               9316               0-1.818118297E+00-4.938284541E-01+
*       -7.369368240E-02               0
GRID*               9317               0-1.867193383E+00-5.950345253E-01+
*       -1.365950207E-01               0
GRID*               9318               0-1.866438255E+00-6.149954150E-01+
*       -1.658724029E-01               0
GRID*               9319               0-1.310444487E+002.2321309332E-01+
*       9.8745341609E-01               0
GRID*               9320               01.8655394090E+005.5851599738E-01+
*       -1.364705593E-01               0
GRID*               9321               01.8663429147E+005.4350109819E-01+
*       -1.650932935E-01               0
GRID*               9322               01.8741486233E+007.0133678786E-01+
*       -3.004990900E-02               0
GRID*               9323               01.8741486233E+006.2633678786E-01+
*       -3.004990900E-02               0
GRID*               9324               01.8259579013E+006.4844633932E-01+
*       -3.004990900E-02               0
GRID*               9325               01.7838391241E+006.2707110378E-01+
*       -7.484659293E-02               0
GRID*               9326               01.8724091613E+004.0770547634E-01+
*       -2.188628404E-01               0
GRID*               9327               01.8396290459E+004.1054718834E-01+
*       -2.188628404E-01               0
GRID*               9328               0-1.221656006E+001.8899440513E-01+
*       1.0062798026E+00               0
GRID*               9329               0-1.205199353E+001.5658943626E-01+
*       9.6319421808E-01               0
GRID*               9330               0-1.313174752E+003.0270891227E-01+
*       8.6315042969E-01               0
GRID*               9331               01.7263138878E+00-3.073957464E-01+
*       -7.472279964E-02               0
GRID*               9332               01.3772678758E+002.3146224705E-01+
*       6.0249444655E-01               0
GRID*               9333               01.3772678758E+002.4762947562E-01+
*       6.3606458085E-01               0
GRID*               9334               01.3110791653E+002.8811883512E-02+
*       1.3623563144E+00               0
GRID*               9335               01.3111083944E+006.1925347609E-02+
*       1.3665083293E+00               0
GRID*               9336               01.1790411352E+005.8790182836E-01+
*       9.8285346890E-01               0
GRID*               9337               01.1701981118E+006.1482582940E-01+
*       1.1299168397E+00               0
GRID*               9338               01.1701981118E+005.6699510016E-01+
*       1.0591032050E+00               0
GRID*               9339               01.3075450435E+008.4872958658E-02+
*       1.0729197160E+00               0
GRID*               9340               01.1701981118E+006.4947917617E-01+
*       1.0650841451E+00               0
GRID*               9341               01.2472401630E+00-1.249874803E-02+
*       1.3668471469E+00               0
GRID*               9342               01.3777816609E+001.0351152002E-01+
*       5.0286588578E-01               0
GRID*               9343               01.1695470341E+00-1.791869973E-01+
*       5.4159214272E-01               0
GRID*               9344               01.3777602056E+00-1.698598769E-01+
*       5.4440621551E-01               0
GRID*               9345               01.3777602056E+00-1.407286820E-01+
*       5.2117440666E-01               0
GRID*               9346               01.3112342064E+006.3484512951E-01+
*       1.8582286394E-01               0
GRID*               9347               01.3109903028E+006.3290495022E-01+
*       1.5328083356E-01               0
GRID*               9348               01.3777682724E+00-1.199863135E-01+
*       5.1252897410E-01               0
GRID*               9349               01.3567785305E+00-1.357149956E-01+
*       5.0020973850E-01               0
GRID*               9350               01.3361016058E+00-1.199863135E-01+
*       5.1252897410E-01               0
GRID*               9351               08.5068077466E-014.8666096974E-01+
*       -1.299913829E-01               0
GRID*               9352               01.1794072615E+00-7.268815602E-01+
*       2.6551546641E-01               0
GRID*               9353               01.1787216378E+00-7.125058768E-01+
*       9.6525293960E-02               0
GRID*               9354               01.2413661518E+00-7.125058768E-01+
*       6.2621087576E-02               0
GRID*               9355               01.3195322740E+00-3.067993177E-01+
*       8.3384460049E-01               0
GRID*               9356               01.3195091456E+00-3.035408515E-01+
*       6.7114320802E-01               0
GRID*               9357               01.3569201374E+00-2.847519280E-01+
*       7.0664912277E-01               0
GRID*               9358               01.3770061510E+00-4.745467342E-02+
*       4.8834288117E-01               0
GRID*               9359               01.3777444540E+00-6.841370237E-02+
*       4.9276746279E-01               0
GRID*               9360               0-1.163773344E+001.0497343476E-01+
*       9.9729878828E-01               0
GRID*               9361               01.7177682193E+00-6.344696512E-01+
*       -2.075552121E-01               0
GRID*               9362               01.7414755780E+00-6.388609474E-01+
*       -1.341287759E-01               0
GRID*               9363               01.7414754750E+00-6.388610155E-01+
*       -9.246211671E-02               0
GRID*               9364               01.7058530015E+00-6.384699752E-01+
*       -1.341618577E-01               0
GRID*               9365               01.7251184470E+00-6.761943960E-01+
*       -1.016239542E-01               0
GRID*               9366               01.6103084684E+00-6.293145898E-01+
*       -2.083201405E-02               0
GRID*               9367               01.6103084684E+00-6.293145898E-01+
*       -6.249868072E-02               0
GRID*               9368               01.5993050406E+00-6.456744522E-01+
*       -4.261814549E-02               0
GRID*               9369               0-1.773417078E+007.2379251160E-01+
*       -2.177105748E-01               0
GRID*               9370               01.5991570374E+00-7.293420487E-01+
*       -2.196235041E-01               0
GRID*               9371               01.6306109341E+00-7.293420487E-01+
*       -1.571824234E-01               0
GRID*               9372               01.6226853586E+00-7.134147411E-01+
*       -1.892497285E-01               0
GRID*               9373               01.6444540012E+00-6.700001001E-01+
*       -1.774483508E-01               0
GRID*               9374               0-1.872515673E+007.2546046867E-01+
*       -1.864800839E-01               0
GRID*               9375               0-1.850922341E+005.0998257041E-01+
*       -1.664925501E-01               0
GRID*               9376               04.1895695169E-016.8822296549E-01+
*       -1.249543713E-01               0
GRID*               9377               04.0896556677E-017.2547785426E-01+
*       -2.504916058E-02               0
GRID*               9378               04.0766401759E-016.6370081976E-01+
*       -8.749784835E-02               0
GRID*               9379               04.4630737872E-017.2547785426E-01+
*       -8.755484409E-02               0
GRID*               9380               01.7999858762E+005.6842551473E-01+
*       -1.573035342E-01               0
GRID*               9381               01.7999863505E+005.6842436817E-01+
*       -1.156370245E-01               0
GRID*               9382               01.8322493578E+005.6381314485E-01+
*       -1.262246052E-01               0
GRID*               9383               01.5201051952E+00-3.399391518E-01+
*       -1.857630854E-01               0
GRID*               9384               01.8652870922E+002.6445267056E-01+
*       -3.071739139E-02               0
GRID*               9385               0-1.463639802E+00-6.239715249E-01+
*       -1.037969022E-01               0
GRID*               9386               0-1.533957492E+00-6.421970387E-01+
*       -7.317244555E-02               0
GRID*               9387               0-1.482552858E+00-5.874403752E-01+
*       -9.316525928E-02               0
GRID*               9388               0-1.575876835E+00-6.746202295E-01+
*       -1.469324816E-01               0
GRID*               9389               0-1.557905464E+00-6.572940979E-01+
*       -1.768551591E-01               0
GRID*               9390               01.4662644296E+00-6.552425343E-01+
*       -1.351118446E-01               0
GRID*               9391               01.5735913888E+00-6.173731402E-01+
*       -2.083201405E-02               0
GRID*               9392               0-1.860231791E+00-2.027443988E-02+
*       -2.188354871E-01               0
GRID*               9393               0-1.783748798E+00-2.356069749E-02+
*       -2.188354871E-01               0
GRID*               9394               0-1.821399122E+00-4.342167416E-03+
*       -1.875025302E-01               0
GRID*               9395               0-1.521096977E+00-4.374373634E-01+
*       -6.243608583E-02               0
GRID*               9396               0-1.521096375E+00-4.374387965E-01+
*       -2.076962065E-02               0
GRID*               9397               0-1.505692867E+00-4.369483169E-01+
*       -4.133607280E-02               0
GRID*               9398               0-1.534676741E+004.2017286850E-01+
*       -2.001169533E-02               0
GRID*               9399               0-1.871818104E+001.9089176936E-01+
*       -2.194355222E-01               0
GRID*               9400               0-1.608507911E+003.1475533720E-01+
*       -8.870260979E-02               0
GRID*               9401               0-1.478678012E+006.1860039835E-01+
*       -8.676198099E-02               0
GRID*               9402               0-1.503903060E+005.4613382230E-01+
*       -4.243314366E-02               0
GRID*               9403               01.8747463162E+00-6.259598816E-01+
*       -2.190139530E-01               0
GRID*               9404               01.8276061724E+00-6.482689520E-01+
*       -2.190139530E-01               0
GRID*               9405               0-1.707888260E+006.3782841310E-01+
*       -1.143893710E-01               0
GRID*               9406               0-1.728138194E+006.7483261375E-01+
*       -1.458175257E-01               0
GRID*               9407               0-1.769045139E+00-5.957895227E-02+
*       -1.549264570E-01               0
GRID*               9408               0-1.179434284E+006.2847345854E-01+
*       1.1018643664E+00               0
GRID*               9409               0-1.242110865E+005.8035207839E-01+
*       1.0546843878E+00               0
GRID*               9410               0-1.241935758E+006.4714377053E-01+
*       1.0707635094E+00               0
GRID*               9411               0-1.864179358E+00-2.629022042E-01+
*       -3.046075654E-02               0
GRID*               9412               0-1.649035265E+00-3.500341181E-01+
*       -2.118478742E-02               0
GRID*               9413               0-1.632524045E+00-3.641294327E-01+
*       -2.121408723E-02               0
GRID*               9414               0-1.650766456E+00-7.117048059E-01+
*       -1.877193480E-01               0
GRID*               9415               0-1.663856046E+00-7.328607970E-01+
*       -9.355117474E-02               0
GRID*               9416               0-1.701277308E+00-7.328607970E-01+
*       -3.098221056E-02               0
GRID*               9417               0-1.765193134E+00-7.227041731E-01+
*       -3.118559400E-02               0
GRID*               9418               0-1.660782340E+00-6.413982142E-01+
*       -6.183017515E-02               0
GRID*               9419               0-1.660782340E+00-6.413982142E-01+
*       -2.016350848E-02               0
GRID*               9420               0-1.699203248E+00-6.463143822E-01+
*       -4.087907252E-02               0
GRID*               9421               0-1.335060612E+00-8.886298382E-02+
*       4.9514267725E-01               0
GRID*               9422               0-1.750735312E+00-4.050466079E-01+
*       -6.181300067E-02               0
GRID*               9423               0-1.378214273E+00-2.646145266E-01+
*       7.4070271090E-01               0
GRID*               9424               0-1.375084860E+007.1491936242E-01+
*       8.6845332520E-01               0
GRID*               9425               0-1.312583901E+007.1946198330E-01+
*       8.3990493873E-01               0
GRID*               9426               0-1.312890094E+006.5040710994E-01+
*       8.5033442648E-01               0
GRID*               9427               0-1.179434284E+006.6312680531E-01+
*       1.0370316718E+00               0
GRID*               9428               0-1.241781309E+00-7.051836181E-01+
*       8.6370294682E-01               0
GRID*               9429               0-1.210377582E+00-6.694676283E-01+
*       8.5536297699E-01               0
GRID*               9430               0-1.235617324E+00-6.206709434E-01+
*       9.3035021487E-01               0
GRID*               9431               0-1.242999937E+00-1.053484094E-01+
*       1.3856577727E+00               0
GRID*               9432               0-1.202267363E+00-7.542294807E-02+
*       1.4302961850E+00               0
GRID*               9433               01.1820321466E+007.1224887151E-01+
*       -9.557794289E-03               0
GRID*               9434               0-1.272806652E+009.5471468696E-02+
*       3.1524210380E-02               0
GRID*               9435               0-1.321784551E+003.3878857531E-01+
*       8.1561162548E-01               0
GRID*               9436               0-1.190903765E+002.4330662277E-01+
*       9.1515853023E-01               0
GRID*               9437               0-1.377946706E+002.4643353727E-01+
*       8.5992057023E-01               0
GRID*               9438               01.1805061846E+007.1103095388E-01+
*       2.0732266997E-02               0
GRID*               9439               0-1.595773517E+00-3.760760424E-01+
*       -2.121408723E-02               0
GRID*               9440               0-1.179280323E+00-7.006409972E-01+
*       8.9225133328E-01               0
GRID*               9441               0-1.169183180E+002.5694892117E-01+
*       9.4008896883E-01               0
GRID*               9442               0-1.337188537E+00-5.851172705E-01+
*       7.4029125934E-01               0
GRID*               9443               0-1.612687629E+006.3007321604E-01+
*       -5.721966430E-02               0
GRID*               9444               0-1.576439624E+006.6208814546E-01+
*       -6.614704480E-02               0
GRID*               9445               0-1.590649205E+006.6141175672E-01+
*       -3.738339103E-02               0
GRID*               9446               0-1.619835795E+006.4512136731E-01+
*       -3.556534916E-02               0
GRID*               9447               0-1.765395325E+00-3.918701100E-01+
*       -1.557591431E-01               0
GRID*               9448               0-1.765401044E+00-3.918744950E-01+
*       -1.140915645E-01               0
GRID*               9449               0-1.773902003E+00-3.292589681E-01+
*       -1.247131149E-01               0
GRID*               9450               01.2116329248E+006.9385529561E-01+
*       1.9367436872E-01               0
GRID*               9451               0-1.882172493E+00-5.427372154E-01+
*       -3.148819280E-02               0
GRID*               9452               0-1.784640371E+00-6.515653916E-01+
*       -1.027392557E-01               0
GRID*               9453               0-1.742350799E+00-6.392133067E-01+
*       -9.378418327E-02               0
GRID*               9454               0-1.780387416E+00-6.863571122E-01+
*       -8.330349341E-02               0
GRID*               9455               0-1.804761416E+00-6.896579632E-01+
*       -1.131908713E-01               0
GRID*               9456               0-1.804555623E+00-4.142209973E-01+
*       -7.145367116E-02               0
GRID*               9457               0-1.834308912E+00-5.648094997E-01+
*       -1.029052352E-01               0
GRID*               9458               0-1.536921719E+00-6.640969174E-01+
*       -1.981697549E-01               0
GRID*               9459               0-1.795620428E+00-3.661275561E-01+
*       -4.777668608E-02               0
GRID*               9460               0-1.840171615E+00-4.110225567E-01+
*       -2.187823251E-01               0
GRID*               9461               0-1.788880217E+00-5.842475367E-01+
*       -9.343307122E-02               0
GRID*               9462               0-1.766179009E+00-6.154946228E-01+
*       -9.343270560E-02               0
GRID*               9463               0-1.799354695E+00-6.102518349E-01+
*       -7.273158927E-02               0
GRID*               9464               0-1.874702023E+00-7.012672347E-01+
*       -3.059039808E-02               0
GRID*               9465               0-1.874702023E+00-6.262672347E-01+
*       -3.059039808E-02               0
GRID*               9466               0-1.826507302E+00-6.483811554E-01+
*       -3.059039808E-02               0
GRID*               9467               0-1.838444170E+00-6.113942551E-01+
*       -1.980742985E-01               0
GRID*               9468               01.8006860998E+005.1332197865E-01+
*       -1.565016168E-01               0
GRID*               9469               01.7879479709E+004.2390921048E-01+
*       -1.561427887E-01               0
GRID*               9470               01.7637013032E+005.8225073242E-01+
*       -6.369782460E-02               0
GRID*               9471               01.7772897628E+005.9968388346E-01+
*       -1.573038792E-01               0
GRID*               9472               01.1314692745E+00-6.213562124E-01+
*       -1.609901315E-01               0
GRID*               9473               01.8507996009E+005.5064998237E-01+
*       -2.291899884E-01               0
GRID*               9474               01.8507996009E+005.1003563054E-01+
*       -1.666899884E-01               0
GRID*               9475               01.8183925680E+005.3476543239E-01+
*       -2.067832819E-01               0
GRID*               9476               01.8824879931E+005.4391198350E-01+
*       -3.008100443E-02               0
GRID*               9477               01.8823870354E+005.4385994310E-01+
*       -2.193598783E-01               0
GRID*               9478               01.5566566123E+00-3.956569266E-01+
*       -2.286319555E-01               0
GRID*               9479               01.8022381795E+006.6548489724E-01+
*       -1.675791186E-01               0
GRID*               9480               01.7658717082E+006.1685096779E-01+
*       -1.568246756E-01               0
GRID*               9481               01.7828420169E+006.2890364637E-01+
*       -1.775183484E-01               0
GRID*               9482               01.6499851058E+00-6.558645871E-01+
*       -9.416197888E-02               0
GRID*               9483               01.6389816781E+00-6.722244496E-01+
*       -7.428144365E-02               0
GRID*               9484               01.6135711650E+00-6.874353869E-01+
*       -1.041963666E-01               0
GRID*               9485               01.5993322653E+00-7.339679599E-01+
*       -3.088117982E-02               0
GRID*               9486               01.5735938113E+00-6.173749818E-01+
*       -6.249829792E-02               0
GRID*               9487               01.7655008219E+00-3.918975231E-01+
*       -1.356017224E-01               0
GRID*               9488               01.7797566867E+00-3.264513125E-01+
*       -1.060220630E-01               0
GRID*               9489               01.7655009232E+00-3.918975900E-01+
*       -9.393506304E-02               0
GRID*               9490               01.8006783029E+004.7470765381E-01+
*       -1.148356686E-01               0
GRID*               9491               01.8330388585E+004.5367587167E-01+
*       -1.258791587E-01               0
GRID*               9492               01.8172714285E+004.9471950393E-01+
*       -7.419257893E-02               0
GRID*               9493               01.3781007074E+00-7.597188961E-02+
*       1.0130985449E+00               0
GRID*               9494               01.3777444540E+00-1.030986328E-01+
*       5.0637992179E-01               0
GRID*               9495               01.2326885930E+003.9167066716E-02+
*       4.4088165963E-01               0
GRID*               9496               01.3282552226E+00-1.054169555E-01+
*       4.6196731373E-01               0
GRID*               9497               01.3782360785E+00-2.812165892E-02+
*       4.8727999369E-01               0
GRID*               9498               01.3672441854E+00-7.146219352E-01+
*       4.5768550509E-02               0
GRID*               9499               09.7968772115E-01-6.431393900E-01+
*       -1.568849537E-01               0
GRID*               9500               09.7926518818E-01-6.752275336E-01+
*       -1.260562617E-01               0
GRID*               9501               09.5286603588E-01-7.190309746E-01+
*       -1.557824755E-01               0
GRID*               9502               09.5328856885E-01-6.869428311E-01+
*       -1.866111675E-01               0
GRID*               9503               01.0171421239E+00-6.442585082E-01+
*       -1.565504878E-01               0
GRID*               9504               07.2312811608E-016.5573927643E-01+
*       -1.520365349E-01               0
GRID*               9505               0-1.619740622E+007.3439457097E-01+
*       -3.078445974E-02               0
GRID*               9506               0-1.703073955E+007.3439457097E-01+
*       -3.078445974E-02               0
GRID*               9507               0-1.665937963E+007.3439457097E-01+
*       -9.335644865E-02               0
GRID*               9508               0-1.739036317E+007.2366035410E-01+
*       -2.198649547E-01               0
GRID*               9509               0-1.765603443E+006.9745286569E-01+
*       -1.875755295E-01               0
GRID*               9510               0-1.767842209E+006.7097375512E-01+
*       -2.198649547E-01               0
GRID*               9511               0-1.831915409E+004.5436358366E-01+
*       -1.045409663E-01               0
GRID*               9512               01.1554569547E+00-3.296611189E-01+
*       -1.832938204E-01               0
GRID*               9513               09.8399783152E-01-7.040146506E-01+
*       -3.321486925E-02               0
GRID*               9514               09.5273841440E-01-7.134233943E-01+
*       -3.105110454E-02               0
GRID*               9515               09.4115285474E-01-6.674380449E-01+
*       -6.426597380E-02               0
GRID*               9516               05.6980374869E-017.1849337970E-01+
*       -2.186780817E-01               0
GRID*               9517               05.3197942329E-016.8816326610E-01+
*       -1.872428191E-01               0
GRID*               9518               04.9410052046E-017.1838765191E-01+
*       -2.168607501E-01               0
GRID*               9519               08.1442870827E-01-7.241993421E-01+
*       -2.405304451E-02               0
GRID*               9520               08.0928612506E-01-6.569809473E-01+
*       -8.681846057E-02               0
GRID*               9521               05.7122160468E-016.8816326610E-01+
*       -1.247520584E-01               0
GRID*               9522               04.9495458705E-016.8816326610E-01+
*       -1.247485026E-01               0
GRID*               9523               0-1.272296679E+006.4530699551E-01+
*       5.6150958197E-02               0
GRID*               9524               0-1.308467829E+006.4297964976E-01+
*       1.3210601674E-01               0
GRID*               9525               03.4202382929E-017.1870877961E-01+
*       -2.187573686E-01               0
GRID*               9526               03.4269202511E-016.8822296549E-01+
*       -1.249534418E-01               0
GRID*               9527               09.7761936600E-01-6.128888551E-01+
*       -1.884121370E-01               0
GRID*               9528               09.8904647214E-01-7.190309746E-01+
*       -2.181383508E-01               0
GRID*               9529               01.3676701459E+00-3.831274811E-02+
*       -1.292403691E-01               0
GRID*               9530               04.6942801449E-016.9704857073E-01+
*       -1.144782592E-01               0
GRID*               9531               04.8366165294E-016.6364112037E-01+
*       -8.729197971E-02               0
GRID*               9532               04.5865970899E-017.0413877309E-01+
*       -4.766666973E-02               0
GRID*               9533               04.4578275012E-016.9386550618E-01+
*       -1.169099107E-01               0
GRID*               9534               01.6886736333E+006.7596356515E-01+
*       -1.233817446E-01               0
GRID*               9535               01.6845009276E+006.9265134842E-01+
*       -1.671483488E-01               0
GRID*               9536               01.6979674876E+006.7372905780E-01+
*       -1.979601100E-01               0
GRID*               9537               01.7214668180E+006.9329520570E-01+
*       -1.676598529E-01               0
GRID*               9538               01.6724583017E+006.8012792653E-01+
*       -1.465636669E-01               0
GRID*               9539               01.6831800144E+006.6117710629E-01+
*       -1.764651154E-01               0
GRID*               9540               01.7104637868E+006.5570106801E-01+
*       -2.279222988E-01               0
GRID*               9541               01.7339631171E+006.7526721590E-01+
*       -1.976220418E-01               0
GRID*               9542               01.7522320642E+006.4532779713E-01+
*       -2.279222988E-01               0
GRID*               9543               01.6956763136E+006.4314911649E-01+
*       -2.064273042E-01               0
GRID*               9544               01.6712502758E+006.8168073961E-01+
*       -1.249795153E-01               0
GRID*               9545               01.6524878010E+006.8580860959E-01+
*       -1.256229623E-01               0
GRID*               9546               01.6792050129E+006.7785692779E-01+
*       -1.986035570E-01               0
GRID*               9547               01.6657384529E+006.9677921840E-01+
*       -1.677917958E-01               0
GRID*               9548               01.6464943819E+006.6110209190E-01+
*       -1.776674737E-01               0
GRID*               9549               01.6340193049E+006.8093325174E-01+
*       -1.469006588E-01               0
GRID*               9550               01.6899267256E+006.5890610755E-01+
*       -2.285050054E-01               0
GRID*               9551               01.6572160946E+006.4215127166E-01+
*       -2.075689222E-01               0
GRID*               9552               01.6742307659E+007.1300002827E-01+
*       -1.355290742E-01               0
GRID*               9553               01.6554682912E+007.1712789826E-01+
*       -1.361725212E-01               0
GRID*               9554               01.6675109171E+007.2965132015E-01+
*       -1.567572030E-01               0
GRID*               9555               01.7465395171E+007.1300002827E-01+
*       -1.355435939E-01               0
GRID*               9556               01.7398196683E+007.2965132015E-01+
*       -1.567717228E-01               0
GRID*               9557               01.6483685654E+007.1152720769E-01+
*       -1.873858017E-01               0
GRID*               9558               01.6460619308E+006.9345667362E-01+
*       -1.674853407E-01               0
GRID*               9559               01.6720035678E+006.5470322317E-01+
*       -2.290639167E-01               0
GRID*               9560               01.6122105251E+006.5676088171E-01+
*       -2.290639167E-01               0
GRID*               9561               01.5997354481E+006.7659204155E-01+
*       -1.982971018E-01               0
GRID*               9562               01.6166494174E+006.9568124102E-01+
*       -1.664946647E-01               0
GRID*               9563               01.5803467002E+006.9481114909E-01+
*       -1.677564726E-01               0
GRID*               9564               01.5958646539E+006.8326279353E-01+
*       -1.252649179E-01               0
GRID*               9565               01.6328112790E+006.8248606481E-01+
*       -1.253165071E-01               0
GRID*               9566               01.6357917691E+007.1380535348E-01+
*       -1.358660660E-01               0
GRID*               9567               01.5819479094E+006.5889362696E-01+
*       -2.285655015E-01               0
GRID*               9568               01.5336985220E+006.3383099585E-01+
*       -2.285655015E-01               0
GRID*               9569               01.5377479388E+006.6552121955E-01+
*       -1.992373679E-01               0
GRID*               9570               01.5625591615E+006.7711273450E-01+
*       -1.980248722E-01               0
GRID*               9571               01.6380984037E+007.3187588754E-01+
*       -1.557665270E-01               0
GRID*               9572               01.5607639667E+007.3187588754E-01+
*       -1.565876251E-01               0
GRID*               9573               01.5584573321E+007.1380535348E-01+
*       -1.366871641E-01               0
GRID*               9574               01.4978594329E+00-6.690041785E-01+
*       -3.116862861E-02               0
GRID*               9575               01.5538187701E+00-6.906402410E-01+
*       -3.116862861E-02               0
GRID*               9576               01.5362483639E+00-6.637048384E-01+
*       -5.200064266E-02               0
GRID*               9577               01.4828948330E+00-5.915360041E-01+
*       -9.399367195E-02               0
GRID*               9578               01.5172326260E+00-6.581837133E-01+
*       -5.293148437E-02               0
GRID*               9579               01.4635216399E+00-6.023564693E-01+
*       -7.223081619E-02               0
GRID*               9580               01.4735077803E+00-7.130356032E-01+
*       -9.536064181E-02               0
GRID*               9581               01.4001080678E+00-7.130356032E-01+
*       -9.887403987E-02               0
GRID*               9582               0-1.813351212E+005.1822097078E-01+
*       -2.172312627E-02               0
GRID*               9583               0-1.816483761E+004.7765301474E-01+
*       -2.172312627E-02               0
GRID*               9584               0-1.831284362E+005.1391748978E-01+
*       -5.112627046E-02               0
GRID*               9585               0-1.799825270E+005.1887157611E-01+
*       -4.287130262E-02               0
GRID*               9586               0-1.803513122E+005.8144657937E-01+
*       -2.114817634E-02               0
GRID*               9587               0-1.813400122E+005.3747353731E-01+
*       -2.114817634E-02               0
GRID*               9588               0-1.831333273E+005.3317005631E-01+
*       -5.055132053E-02               0
GRID*               9589               0-1.648755926E+006.9951817063E-01+
*       -1.695510923E-01               0
GRID*               9590               0-1.650773620E+007.3279605021E-01+
*       -1.580853249E-01               0
GRID*               9591               0-1.687479313E+007.0645640431E-01+
*       -1.903782907E-01               0
GRID*               9592               0-1.726708161E+006.4923375886E-01+
*       -2.198649547E-01               0
GRID*               9593               0-1.705895158E+006.3857310511E-01+
*       -2.193895515E-01               0
GRID*               9594               0-1.671686291E+006.7972182076E-01+
*       -1.684273078E-01               0
GRID*               9595               0-1.666666310E+006.9579575055E-01+
*       -1.899028875E-01               0
GRID*               9596               0-1.673676059E+006.7897970079E-01+
*       -1.467609958E-01               0
GRID*               9597               0-1.653442930E+006.8476085951E-01+
*       -1.252157327E-01               0
GRID*               9598               0-1.655793601E+007.1672212042E-01+
*       -1.366097453E-01               0
GRID*               9599               0-1.628971318E+006.7152932817E-01+
*       -2.291717379E-01               0
GRID*               9600               0-1.671746967E+00-6.557189616E-01+
*       -2.284499126E-01               0
GRID*               9601               0-1.611945249E+00-6.577733467E-01+
*       -2.284499126E-01               0
GRID*               9602               0-1.660511735E+00-6.750602390E-01+
*       -1.976305426E-01               0
GRID*               9603               0-1.648005699E+00-6.949892293E-01+
*       -1.660188768E-01               0
GRID*               9604               0-1.629025363E+00-6.766230255E-01+
*       -1.969886306E-01               0
GRID*               9605               0-1.657990479E+00-6.447459582E-01+
*       -2.065297767E-01               0
GRID*               9606               0-1.645830134E+00-6.617834666E-01+
*       -1.757515463E-01               0
GRID*               9607               0-1.667225535E+00-6.997567289E-01+
*       -1.656488283E-01               0
GRID*               9608               0-1.679731571E+00-6.798277386E-01+
*       -1.972604941E-01               0
GRID*               9609               0-1.683595849E+00-6.622705319E-01+
*       -1.760484426E-01               0
GRID*               9610               0-1.695952830E+00-6.438664839E-01+
*       -2.078265725E-01               0
GRID*               9611               0-1.690966804E+00-6.604864612E-01+
*       -2.280798641E-01               0
GRID*               9612               0-1.717271755E+00-7.091116398E-01+
*       -1.884947274E-01               0
GRID*               9613               0-1.698474086E+00-6.741807647E-01+
*       -1.989273384E-01               0
GRID*               9614               0-1.693488060E+00-6.908007420E-01+
*       -2.191806300E-01               0
GRID*               9615               0-1.633686341E+00-6.928551271E-01+
*       -2.191806300E-01               0
GRID*               9616               0-1.635321396E+00-7.131077588E-01+
*       -1.358278131E-01               0
GRID*               9617               0-1.616341060E+00-6.947415550E-01+
*       -1.667975670E-01               0
GRID*               9618               0-1.557986988E+00-7.131077588E-01+
*       -1.366488027E-01               0
GRID*               9619               0-1.614091716E+00-6.771295960E-01+
*       -1.247965551E-01               0
GRID*               9620               0-1.633145831E+00-6.799019961E-01+
*       -1.455604826E-01               0
GRID*               9621               0-1.599260946E+00-6.758918763E-01+
*       -1.982588489E-01               0
GRID*               9622               0-1.581289575E+00-6.585657446E-01+
*       -2.281815265E-01               0
GRID*               9623               0-1.533015148E+00-6.335122988E-01+
*       -2.281815265E-01               0
GRID*               9624               0-1.540015618E+00-6.957816272E-01+
*       -1.665714802E-01               0
GRID*               9625               0-1.561893008E+00-6.767536296E-01+
*       -1.975984617E-01               0
GRID*               9626               0-1.579864379E+00-6.940797613E-01+
*       -1.676757842E-01               0
GRID*               9627               0-1.602199970E+00-6.944179137E-01+
*       -2.185387180E-01               0
GRID*               9628               0-1.582803403E+00-7.126057987E-01+
*       -1.879556533E-01               0
GRID*               9629               0-1.510752755E+003.8767526156E-01+
*       -2.118343791E-02               0
GRID*               9630               0-1.490494147E+004.3410658126E-01+
*       -2.118343791E-02               0
GRID*               9631               0-1.528080446E+003.9575435019E-01+
*       -4.119513325E-02               0
GRID*               9632               0-1.522155194E+003.7089985241E-01+
*       -2.001169533E-02               0
GRID*               9633               0-1.537700057E+003.0808827461E-01+
*       -2.001169533E-02               0
GRID*               9634               0-1.564675543E+003.5806612361E-01+
*       -2.001169533E-02               0
GRID*               9635               01.5094901638E+006.2078048172E-01+
*       -2.277583959E-01               0
GRID*               9636               01.5135395806E+006.5247070542E-01+
*       -1.984302623E-01               0
GRID*               9637               01.5192388688E+005.9892309256E-01+
*       -2.077538043E-01               0
GRID*               9638               01.6020271644E+00-3.609844394E-01+
*       -4.243884940E-02               0
GRID*               9639               01.5443609144E+00-3.649512754E-01+
*       -2.096939869E-02               0
GRID*               9640               01.5868733837E+00-3.521208053E-01+
*       -2.096939869E-02               0
GRID*               9641               01.5222762933E+00-3.716371569E-01+
*       -2.266544273E-02               0
GRID*               9642               01.5284668149E+00-3.963840590E-01+
*       -4.354084540E-02               0
GRID*               9643               01.5803962053E+00-6.429166107E-01+
*       -2.054991756E-01               0
GRID*               9644               01.5307762982E+00-6.929494274E-01+
*       -1.656786294E-01               0
GRID*               9645               01.5444596407E+00-6.722264087E-01+
*       -1.976781104E-01               0
GRID*               9646               01.5208642866E+00-6.264397283E-01+
*       -2.277976010E-01               0
GRID*               9647               01.5561169958E+00-6.508856375E-01+
*       -2.277976010E-01               0
GRID*               9648               01.5502449333E+00-6.999671833E-01+
*       -1.655826031E-01               0
GRID*               9649               01.6288612949E+00-6.999671833E-01+
*       -1.652604940E-01               0
GRID*               9650               01.5639282758E+00-6.792441646E-01+
*       -1.975820841E-01               0
GRID*               9651               01.5755856309E+00-6.579033935E-01+
*       -2.277015747E-01               0
GRID*               9652               01.6108448162E+00-6.687171808E-01+
*       -2.277015747E-01               0
GRID*               9653               01.6016144796E+00-6.793092320E-01+
*       -1.973250787E-01               0
GRID*               9654               01.6209357194E+00-6.840398757E-01+
*       -1.973277991E-01               0
GRID*               9655               01.8424861350E+00-6.249853437E-01+
*       -1.673930060E-01               0
GRID*               9656               01.7864764087E+00-6.265281449E-01+
*       -1.773472927E-01               0
GRID*               9657               01.8067785122E+00-6.383696381E-01+
*       -1.982172992E-01               0
GRID*               9658               01.8193496224E+00-6.213345324E-01+
*       -1.983790530E-01               0
GRID*               9659               01.8664897663E+00-6.285679236E-01+
*       -1.358790530E-01               0
GRID*               9660               01.8234742860E+00-6.136907449E-01+
*       -1.444885702E-01               0
GRID*               9661               01.7775969009E+00-5.848147168E-01+
*       -1.266444809E-01               0
GRID*               9662               01.8003059480E+00-5.535644799E-01+
*       -1.266446787E-01               0
GRID*               9663               01.8003054767E+00-5.535656190E-01+
*       -8.497816796E-02               0
GRID*               9664               01.8327213529E+00-5.483753728E-01+
*       -1.172345063E-01               0
GRID*               9665               01.8323620351E+00-5.486216610E-01+
*       -9.426431115E-02               0
GRID*               9666               01.8320997187E+00-5.285041266E-01+
*       -1.248765349E-01               0
GRID*               9667               01.8656044920E+00-5.235145674E-01+
*       -1.364233650E-01               0
GRID*               9668               01.8328282735E+00-4.919826253E-01+
*       -1.989233650E-01               0
GRID*               9669               01.8492687917E+00-5.071673528E-01+
*       -1.671827370E-01               0
GRID*               9670               01.8175397030E+00-4.924318234E-01+
*       -1.775184671E-01               0
GRID*               9671               01.8327606408E+00-5.080943934E-01+
*       -1.262958604E-01               0
GRID*               9672               01.7760754710E+00-5.852341604E-01+
*       -1.052044559E-01               0
GRID*               9673               01.7987840468E+00-5.539850625E-01+
*       -6.353814297E-02               0
GRID*               9674               01.7760753679E+00-5.852342285E-01+
*       -6.353779675E-02               0
GRID*               9675               01.7964422710E+00-5.926948770E-01+
*       -4.253722332E-02               0
GRID*               9676               01.8084682874E+00-5.749205746E-01+
*       -4.162217992E-02               0
GRID*               9677               01.8135791934E+00-5.537023292E-01+
*       -4.287904952E-02               0
GRID*               9678               01.8308406052E+00-5.490411045E-01+
*       -7.282428616E-02               0
GRID*               9679               01.8144789890E+00-5.334116395E-01+
*       -7.196110317E-02               0
GRID*               9680               01.8652451742E+00-5.237608556E-01+
*       -1.134531699E-01               0
GRID*               9681               01.8324013230E+00-5.083406816E-01+
*       -1.033256653E-01               0
GRID*               9682               01.8293342605E+00-5.327852319E-01+
*       -5.095316991E-02               0
GRID*               9683               01.8473989835E+00-5.280941266E-01+
*       -8.108492926E-02               0
GRID*               9684               01.8749953935E+00-6.513614940E-01+
*       -9.253955745E-02               0
GRID*               9685               01.8543534563E+00-6.676813243E-01+
*       -1.145924302E-01               0
GRID*               9686               01.8553253319E+00-6.306869754E-01+
*       -8.465913811E-02               0
GRID*               9687               01.8041692375E+00-6.816619936E-01+
*       -8.210361918E-02               0
GRID*               9688               01.7849036889E+00-6.439376410E-01+
*       -7.297486346E-02               0
GRID*               9689               01.7618423780E+00-6.463216640E-01+
*       -7.146154328E-02               0
GRID*               9690               01.8052705920E+00-6.513982895E-01+
*       -5.197429004E-02               0
GRID*               9691               01.7867253830E+00-6.223873638E-01+
*       -7.170623794E-02               0
GRID*               9692               01.8070922860E+00-6.298480123E-01+
*       -5.070566452E-02               0
GRID*               9693               01.8747463162E+00-6.555023432E-01+
*       -1.565139530E-01               0
GRID*               9694               01.7674645598E+00-6.152335461E-01+
*       -1.544428569E-01               0
GRID*               9695               01.8317308360E+00-6.406251645E-01+
*       -1.651234702E-01               0
GRID*               9696               01.8053398415E+00-6.606446665E-01+
*       -1.975329907E-01               0
GRID*               9697               01.7850377381E+00-6.488031733E-01+
*       -1.766629841E-01               0
GRID*               9698               01.7426528341E+00-6.399091597E-01+
*       -1.569495124E-01               0
GRID*               9699               01.7629549375E+00-6.517506529E-01+
*       -1.778195190E-01               0
GRID*               9700               01.8416259259E+00-6.799383187E-01+
*       -1.973797063E-01               0
GRID*               9701               01.8184894134E+00-6.762875074E-01+
*       -2.283657533E-01               0
GRID*               9702               01.8401872553E+00-7.022133470E-01+
*       -1.966953978E-01               0
GRID*               9703               01.5396490663E+00-6.872131915E-01+
*       -2.198805095E-01               0
GRID*               9704               01.5043963571E+00-6.627672823E-01+
*       -2.198805095E-01               0
GRID*               9705               01.5656779150E+00-7.086190301E-01+
*       -1.895040135E-01               0
GRID*               9706               01.6170834296E+00-7.178271477E-01+
*       -1.349467351E-01               0
GRID*               9707               01.5384670680E+00-7.178271477E-01+
*       -1.352688442E-01               0
GRID*               9708               01.5760904280E+00-6.868979424E-01+
*       -1.240888702E-01               0
GRID*               9709               01.6137898468E+00-6.861917399E-01+
*       -1.248831280E-01               0
GRID*               9710               01.5567057663E+00-6.791783550E-01+
*       -1.249359185E-01               0
GRID*               9711               01.5564933365E+00-6.792652853E-01+
*       -1.457146458E-01               0
GRID*               9712               01.5773352702E+00-6.872782589E-01+
*       -2.196235041E-01               0
GRID*               9713               01.6125944554E+00-6.980920462E-01+
*       -2.196235041E-01               0
GRID*               9714               01.6556003888E+00-7.172106454E-01+
*       -1.360227353E-01               0
GRID*               9715               01.6476748133E+00-7.012833377E-01+
*       -1.680900405E-01               0
GRID*               9716               01.7063374575E+00-6.386050893E-01+
*       -1.575136349E-01               0
GRID*               9717               01.6719039054E+00-6.802474714E-01+
*       -1.476441112E-01               0
GRID*               9718               01.6815934409E+00-6.600967207E-01+
*       -1.775321611E-01               0
GRID*               9719               01.6714194493E+00-6.801123572E-01+
*       -1.242923340E-01               0
GRID*               9720               01.6523068060E+00-6.855752376E-01+
*       -1.259591282E-01               0
GRID*               9721               01.4953896109E+00-5.729754764E-01+
*       -2.059224172E-02               0
GRID*               9722               01.4799781702E+00-4.786930648E-01+
*       -2.059224172E-02               0
GRID*               9723               01.4953899432E+00-4.794534681E-01+
*       -4.268768089E-02               0
GRID*               9724               01.4999873346E+00-4.099978841E-01+
*       -2.209543917E-02               0
GRID*               9725               01.4797283384E+00-4.564234501E-01+
*       -2.209543917E-02               0
GRID*               9726               01.3773140342E+00-1.929496926E-01+
*       9.7249547382E-01               0
GRID*               9727               01.3559974426E+00-1.751731074E-01+
*       9.6692173679E-01               0
GRID*               9728               01.3773140342E+00-2.322475382E-01+
*       9.5103533018E-01               0
GRID*               9729               01.1703048004E+00-1.123765904E-01+
*       1.0300814912E+00               0
GRID*               9730               01.1911067365E+00-9.925722440E-02+
*       1.0167894424E+00               0
GRID*               9731               01.1703048004E+00-1.651664468E-01+
*       1.0101885742E+00               0
GRID*               9732               0-1.496015587E+007.1659338220E-01+
*       -1.569142364E-01               0
GRID*               9733               0-1.508696908E+006.9604786706E-01+
*       -1.890974829E-01               0
GRID*               9734               01.5564870845E+00-6.804220021E-01+
*       -1.042491570E-01               0
GRID*               9735               01.6168647478E+00-7.190707947E-01+
*       -1.142599737E-01               0
GRID*               9736               01.5382483862E+00-7.190707947E-01+
*       -1.145820828E-01               0
GRID*               9737               01.5658234571E+00-7.035642112E-01+
*       -8.369227755E-02               0
GRID*               9738               01.5188637245E+00-7.113512073E-01+
*       -1.154291311E-01               0
GRID*               9739               01.5368899930E+00-6.727893450E-01+
*       -1.258749326E-01               0
GRID*               9740               01.5914649337E+00-6.878207922E-01+
*       -5.170105437E-02               0
GRID*               9741               01.6168754468E+00-6.726098548E-01+
*       -2.178613143E-02               0
GRID*               9742               01.6422752609E+00-7.038598574E-01+
*       -8.434505076E-02               0
GRID*               9743               01.6299703444E+00-6.878278172E-01+
*       -5.266731125E-02               0
GRID*               9744               01.6045598313E+00-7.030387546E-01+
*       -8.258223419E-02               0
GRID*               9745               01.6464930802E+00-6.511884372E-01+
*       -4.337306009E-02               0
GRID*               9746               01.6778946291E+00-6.602302917E-01+
*       -7.241544668E-02               0
GRID*               9747               01.5609161096E+00-6.509737924E-01+
*       -2.178613143E-02               0
GRID*               9748               01.5335283778E+00-6.389285299E-01+
*       -2.083201405E-02               0
GRID*               9749               01.5529015709E+00-6.281080647E-01+
*       -4.259486982E-02               0
GRID*               9750               01.5814166445E+00-7.032434140E-01+
*       -3.199122319E-02               0
GRID*               9751               01.5945115422E+00-7.184613764E-01+
*       -6.287240301E-02               0
GRID*               9752               0-1.552597201E+00-3.360416838E-01+
*       -2.286382781E-01               0
GRID*               9753               0-1.593229181E+00-3.212988982E-01+
*       -2.286382781E-01               0
GRID*               9754               0-1.606080660E+00-3.408216104E-01+
*       -2.075975321E-01               0
GRID*               9755               01.1603447128E+00-7.118088180E-01+
*       -9.812748965E-02               0
GRID*               9756               01.0878630327E+00-7.118088180E-01+
*       -9.526240970E-02               0
GRID*               9757               01.0791843687E+00-6.672779556E-01+
*       -6.551694165E-02               0
GRID*               9758               01.1961884428E+00-7.123073464E-01+
*       -9.946793859E-02               0
GRID*               9759               01.2294319422E+00-7.123073464E-01+
*       -5.186062804E-02               0
GRID*               9760               01.0414311067E+00-6.149124242E-01+
*       -3.346805732E-02               0
GRID*               9761               01.0564635425E+00-6.438218329E-01+
*       -1.584680573E-01               0
GRID*               9762               01.0462576641E+00-6.306966712E-01+
*       -9.688019430E-02               0
GRID*               9763               01.0198585117E+00-6.745001122E-01+
*       -1.266064081E-01               0
GRID*               9764               01.0106931619E+00-6.594837882E-01+
*       -6.668292658E-02               0
GRID*               9765               01.0647503434E+00-6.582388051E-01+
*       -2.179214298E-01               0
GRID*               9766               01.1018419566E+00-6.878960740E-01+
*       -1.893248979E-01               0
GRID*               9767               01.0281453126E+00-6.889170844E-01+
*       -1.860597806E-01               0
GRID*               9768               01.0387147188E+00-5.846708202E-01+
*       -6.341213697E-02               0
GRID*               9769               01.0073749289E+00-5.980159628E-01+
*       -1.249206083E-01               0
GRID*               9770               01.0079767740E+00-6.292421842E-01+
*       -9.662700623E-02               0
GRID*               9771               0-1.776405465E+00-6.069868350E-01+
*       -4.208016372E-02               0
GRID*               9772               0-1.787179033E+00-6.266035106E-01+
*       -7.288141792E-02               0
GRID*               9773               0-1.795470816E+00-6.174315004E-01+
*       -2.096516754E-02               0
GRID*               9774               0-1.810882240E+00-5.231490815E-01+
*       -2.096516754E-02               0
GRID*               9775               0-1.819617612E+00-6.215848143E-01+
*       -5.155556562E-02               0
GRID*               9776               0-1.818209740E+00-4.777344570E-01+
*       -2.133241979E-02               0
GRID*               9777               0-1.802023921E+00-4.788578078E-01+
*       -4.135687305E-02               0
GRID*               9778               0-1.834415583E+00-4.926401705E-01+
*       -5.282061260E-02               0
GRID*               9779               01.7825088592E+006.8741076980E-01+
*       -8.389613962E-02               0
GRID*               9780               01.7826714740E+007.1283287333E-01+
*       -1.149789831E-01               0
GRID*               9781               01.8064958365E+006.8987983081E-01+
*       -1.160417694E-01               0
GRID*               9782               01.7864887257E+006.5413030687E-01+
*       -1.258868549E-01               0
GRID*               9783               01.7628884249E+006.7476598884E-01+
*       -1.252179217E-01               0
GRID*               9784               01.7858924604E+006.5323054905E-01+
*       -1.463137783E-01               0
GRID*               9785               01.7103627228E+007.1283287333E-01+
*       -1.149644633E-01               0
GRID*               9786               01.7829265969E+006.5994242479E-01+
*       -5.239549917E-02               0
GRID*               9787               01.8019507659E+006.7168744793E-01+
*       -3.150064045E-02               0
GRID*               9788               01.8065159946E+006.6416966119E-01+
*       -8.244540817E-02               0
GRID*               9789               01.8255401636E+006.7591468433E-01+
*       -6.155054945E-02               0
GRID*               9790               01.7636582795E+006.9975994548E-01+
*       -6.128705501E-02               0
GRID*               9791               01.7446341105E+006.8801492235E-01+
*       -8.218191373E-02               0
GRID*               9792               01.7810636397E+006.3506626492E-01+
*       -2.203135943E-02               0
GRID*               9793               01.8046530373E+006.3929350132E-01+
*       -5.208126843E-02               0
GRID*               9794               01.7084997655E+006.8795671346E-01+
*       -8.460032360E-02               0
GRID*               9795               01.7427711532E+006.6313876248E-01+
*       -5.181777399E-02               0
GRID*               9796               01.6455127233E+007.3360968904E-01+
*       -9.377008329E-02               0
GRID*               9797               01.6967717334E+006.7156640250E-01+
*       -5.323247854E-02               0
GRID*               9798               01.6797841110E+007.0879173806E-01+
*       -6.098753368E-02               0
GRID*               9799               01.6834210283E+006.5670671346E-01+
*       -2.203135943E-02               0
GRID*               9800               01.7740873901E+006.0878535697E-01+
*       -4.293881912E-02               0
GRID*               9801               01.7995580584E+005.6819851039E-01+
*       -9.345209071E-02               0
GRID*               9802               01.7956155309E+006.1186120489E-01+
*       -7.381698496E-02               0
GRID*               9803               01.8099441454E+005.9473313494E-01+
*       -7.269308522E-02               0
GRID*               9804               01.6716836228E+007.1296353688E-01+
*       -1.129905988E-01               0
GRID*               9805               01.6687031327E+006.8164424821E-01+
*       -1.024410400E-01               0
GRID*               9806               01.6558483558E+006.6682347067E-01+
*       -7.272135035E-02               0
GRID*               9807               01.6599555907E+006.9657322592E-01+
*       -8.162275378E-02               0
GRID*               9808               01.7640760172E+006.7229160048E-01+
*       -2.978641456E-02               0
GRID*               9809               01.8688156540E+00-8.057659631E-02+
*       -1.549741326E-01               0
GRID*               9810               01.8247561662E+00-1.715002552E-01+
*       -1.162536606E-01               0
GRID*               9811               01.8688156540E+00-1.555765963E-01+
*       -1.549741326E-01               0
GRID*               9812               01.8249237749E+00-2.409434248E-01+
*       -2.262724875E-01               0
GRID*               9813               01.8490211968E+00-2.046756728E-01+
*       -1.964915432E-01               0
GRID*               9814               01.5028931722E+00-6.168644975E-01+
*       -2.104947222E-02               0
GRID*               9815               01.5222663653E+00-6.060440323E-01+
*       -4.281232798E-02               0
GRID*               9816               01.5110250794E+00-3.875588170E-01+
*       -2.087540267E-02               0
GRID*               9817               01.3672306980E+001.1677020501E-01+
*       1.3854662129E+00               0
GRID*               9818               01.3672306980E+001.7190868065E-01+
*       1.3898918117E+00               0
GRID*               9819               01.3368172308E+001.1408109413E-01+
*       1.4198305228E+00               0
GRID*               9820               01.3680657248E+001.9985795064E-01+
*       1.3926934513E+00               0
GRID*               9821               0-1.344925602E+006.8918560877E-01+
*       8.0626993055E-01               0
GRID*               9822               0-1.368590690E+006.5533646603E-01+
*       7.1706326766E-01               0
GRID*               9823               01.3677503235E+003.5612454774E-01+
*       1.2875508606E+00               0
GRID*               9824               01.3677503235E+003.0268877306E-01+
*       1.3264854437E+00               0
GRID*               9825               01.2429063242E+001.9576798409E-01+
*       1.4268310999E+00               0
GRID*               9826               01.2429063260E+001.2366784671E-01+
*       1.4411733916E+00               0
GRID*               9827               01.2114215010E+002.0704323862E-01+
*       1.3949280383E+00               0
GRID*               9828               0-1.368412499E+006.1701658630E-01+
*       9.2383029707E-01               0
GRID*               9829               0-1.368412499E+005.8777053331E-01+
*       9.8269279286E-01               0
GRID*               9830               0-9.212917940E-05-6.560497918E-01+
*       -3.124902860E-02               0
GRID*               9831               0-1.520457738E-01-6.561419990E-01+
*       -2.187557925E-01               0
GRID*               9832               0-2.661053392E-05-6.561357346E-01+
*       -2.187540988E-01               0
GRID*               9833               09.4205486385E-01-6.416759721E-01+
*       -1.582148693E-01               0
GRID*               9834               09.7181042674E-01-6.268030798E-01+
*       -9.472334062E-02               0
GRID*               9835               09.3914398087E-01-6.299898434E-01+
*       -3.321486925E-02               0
GRID*               9836               01.0031502166E+00-6.134579372E-01+
*       -3.321486925E-02               0
GRID*               9837               0-1.801964961E+003.7285766099E-01+
*       -1.985605164E-01               0
GRID*               9838               0-1.827068814E+003.7713626934E-01+
*       -1.678788951E-01               0
GRID*               9839               0-1.766184260E+003.9173618131E-01+
*       -9.373787467E-02               0
GRID*               9840               0-1.809053318E+003.8496517855E-01+
*       -1.256321072E-01               0
GRID*               9841               0-1.782089502E+003.2873116789E-01+
*       -1.187304721E-01               0
GRID*               9842               0-1.799669665E+004.3963589418E-01+
*       -1.561532989E-01               0
GRID*               9843               0-1.819837311E+004.0161720610E-01+
*       -1.463804651E-01               0
GRID*               9844               0-1.776968254E+004.0838820885E-01+
*       -1.144862326E-01               0
GRID*               9845               0-1.795093142E+003.9791442130E-01+
*       -1.775172724E-01               0
GRID*               9846               0-1.872459855E+003.7144129692E-01+
*       -1.568183788E-01               0
GRID*               9847               0-1.853358907E+003.7964228485E-01+
*       -1.360605164E-01               0
GRID*               9848               0-1.838938259E+003.9341621817E-01+
*       -1.671383275E-01               0
GRID*               9849               0-1.855009327E+003.9289218022E-01+
*       -1.879798759E-01               0
GRID*               9850               0-1.777425164E+003.6978578645E-01+
*       -2.288549063E-01               0
GRID*               9851               0-1.770553345E+003.9484254676E-01+
*       -2.078116623E-01               0
GRID*               9852               0-1.730947358E+003.4664855282E-01+
*       -2.288549063E-01               0
GRID*               9853               0-1.087127943E+003.5511672650E-01+
*       -1.884429164E-01               0
GRID*               9854               0-1.129123984E+002.8368500886E-01+
*       -1.884429164E-01               0
GRID*               9855               01.5406697934E+006.9610693889E-01+
*       -1.669555637E-01               0
GRID*               9856               01.5164614352E+006.8305642476E-01+
*       -1.661484581E-01               0
GRID*               9857               01.4996500268E+007.1941428066E-01+
*       -1.590619287E-01               0
GRID*               9858               01.5215393949E+007.0042007627E-01+
*       -1.901312372E-01               0
GRID*               9859               01.5244612495E+007.3100579561E-01+
*       -1.578494330E-01               0
GRID*               9860               0-1.148051644E+002.4828871211E-01+
*       -1.877518657E-01               0
GRID*               9861               0-1.229742460E+007.1302780737E-01+
*       -5.228445614E-02               0
GRID*               9862               0-1.197157155E+007.1302780737E-01+
*       -1.002236421E-01               0
GRID*               9863               0-1.504293452E+006.1282952967E-01+
*       -2.285903185E-01               0
GRID*               9864               0-1.515937239E+005.9341265775E-01+
*       -2.074273472E-01               0
GRID*               9865               0-1.212572461E+007.2000020103E-01+
*       -1.621536641E-01               0
GRID*               9866               01.2421164708E+00-4.533442453E-01+
*       1.2934086279E+00               0
GRID*               9867               01.2111161986E+00-4.187820785E-01+
*       1.2877583610E+00               0
GRID*               9868               0-1.803778236E+005.7291032326E-01+
*       -2.289925501E-01               0
GRID*               9869               0-1.818142948E+004.7844043219E-01+
*       -2.289925501E-01               0
GRID*               9870               0-1.802180488E+004.7919073829E-01+
*       -2.088184114E-01               0
GRID*               9871               0-1.834353248E+004.9335919055E-01+
*       -1.975086080E-01               0
GRID*               9872               0-1.796615508E+006.1834165217E-01+
*       -2.287030653E-01               0
GRID*               9873               0-1.818551622E+006.2257987935E-01+
*       -1.976941808E-01               0
GRID*               9874               0-1.774637320E+006.0983611391E-01+
*       -2.065430865E-01               0
GRID*               9875               01.2433272892E+00-5.606527498E-01+
*       1.2060558563E+00               0
GRID*               9876               01.2433301666E+00-6.012979273E-01+
*       1.1453329483E+00               0
GRID*               9877               01.2423048592E+00-6.202302103E-01+
*       1.1158170248E+00               0
GRID*               9878               01.2104426025E+00-5.915253967E-01+
*       1.1038463617E+00               0
GRID*               9879               01.2473802750E+00-5.538426273E-01+
*       1.0653002201E+00               0
GRID*               9880               0-7.583304689E-01-6.546144258E-01+
*       -2.190628516E-01               0
GRID*               9881               01.1917047595E+00-1.852239815E-02+
*       1.0322859524E+00               0
GRID*               9882               01.1707131299E+00-8.252381208E-03+
*       1.0499204430E+00               0
GRID*               9883               01.1707131299E+004.0735015281E-02+
*       1.0512297648E+00               0
GRID*               9884               01.3767421157E+00-1.527423302E-02+
*       1.0667196244E+00               0
GRID*               9885               01.3767421157E+003.3931630001E-02+
*       1.0606071683E+00               0
GRID*               9886               01.3560826940E+00-2.321236820E-02+
*       1.0430281660E+00               0
GRID*               9887               01.3664618531E+006.5173349452E-01+
*       8.1750207014E-01               0
GRID*               9888               06.1071339029E-017.1882365780E-01+
*       -9.369420698E-02               0
GRID*               9889               07.6131447297E-017.1816554297E-01+
*       -1.561906912E-01               0
GRID*               9890               0-1.733493014E+00-6.731503852E-01+
*       -1.990608058E-01               0
GRID*               9891               0-1.755524746E+00-6.672001518E-01+
*       -1.971443226E-01               0
GRID*               9892               0-1.728506988E+00-6.897703624E-01+
*       -2.193140974E-01               0
GRID*               9893               0-1.770268269E+00-6.793996724E-01+
*       -2.193140974E-01               0
GRID*               9894               0-1.777481658E+00-6.628599348E-01+
*       -1.963543660E-01               0
GRID*               9895               0-1.792225181E+00-6.750594555E-01+
*       -2.185241408E-01               0
GRID*               9896               0-1.819483143E+00-6.756417150E-01+
*       -1.882260364E-01               0
GRID*               9897               0-1.803934436E+00-6.884758519E-01+
*       -1.339092807E-01               0
GRID*               9898               0-1.761644864E+00-6.761237670E-01+
*       -1.249542082E-01               0
GRID*               9899               0-1.781338071E+00-7.124708279E-01+
*       -1.354197928E-01               0
GRID*               9900               0-1.709029320E+00-7.124708279E-01+
*       -1.354052730E-01               0
GRID*               9901               0-1.709200561E+00-6.821397580E-01+
*       -1.253062826E-01               0
GRID*               9902               0-1.743613535E+00-6.806913522E-01+
*       -1.247592290E-01               0
GRID*               9903               0-1.709709318E+00-6.548394873E-01+
*       -2.297467084E-01               0
GRID*               9904               0-1.751470600E+00-6.444687974E-01+
*       -2.297467084E-01               0
GRID*               9905               0-1.773502332E+00-6.385185640E-01+
*       -2.278302252E-01               0
GRID*               9906               0-1.800760293E+00-6.391008234E-01+
*       -1.975321208E-01               0
GRID*               9907               0-1.805197174E+00-5.952539831E-01+
*       -1.780352457E-01               0
GRID*               9908               0-1.768666998E+00-6.099801260E-01+
*       -2.067861242E-01               0
GRID*               9909               0-1.810668483E+00-6.227619062E-01+
*       -1.986577946E-01               0
GRID*               9910               01.0276695358E+003.9575460764E-01+
*       -6.197389092E-02               0
GRID*               9911               01.0075784934E+004.5330658664E-01+
*       -6.197389092E-02               0
GRID*               9912               0-1.209892591E+001.1436807821E-01+
*       1.4190953453E+00               0
GRID*               9913               0-1.179159403E+008.0893013859E-02+
*       1.3933982865E+00               0
GRID*               9914               0-1.179483136E+001.1719176586E-01+
*       1.3845693836E+00               0
GRID*               9915               0-1.179483136E+001.7233024149E-01+
*       1.3889949824E+00               0
GRID*               9916               01.1010446464E+00-6.563626595E-01+
*       -2.214034681E-01               0
GRID*               9917               01.1762125150E+00-6.576372073E-01+
*       -2.214034681E-01               0
GRID*               9918               0-1.242052114E+00-7.166653946E-01+
*       2.2704442244E-01               0
GRID*               9919               0-1.210928238E+00-6.818674164E-01+
*       1.9494131950E-01               0
GRID*               9920               09.9499830779E-014.8286561642E-01+
*       -6.137792627E-02               0
GRID*               9921               09.1497293672E-014.8909912185E-01+
*       -6.137792627E-02               0
GRID*               9922               0-1.241941074E+00-7.176568450E-01+
*       3.7557774062E-01               0
GRID*               9923               0-1.211185199E+00-6.867660382E-01+
*       4.1210431701E-01               0
GRID*               9924               0-1.367850994E+004.3814249855E-01+
*       1.2126048881E+00               0
GRID*               9925               0-1.367850994E+003.9388863179E-01+
*       1.2646638972E+00               0
GRID*               9926               0-1.336808802E+003.8920057251E-01+
*       1.3055280833E+00               0
GRID*               9927               0-1.367103572E+004.6049302994E-01+
*       1.1869570146E+00               0
GRID*               9928               0-1.335981541E+004.9126859572E-01+
*       1.2078358659E+00               0
GRID*               9929               0-1.367707756E+003.6163101523E-01+
*       1.2842314033E+00               0
GRID*               9930               0-1.367707756E+003.1058931257E-01+
*       1.3322247076E+00               0
GRID*               9931               0-1.367099752E+002.8607407637E-01+
*       1.3580938034E+00               0
GRID*               9932               0-1.335970761E+002.7409075455E-01+
*       1.3903715968E+00               0
GRID*               9933               0-1.820229294E+005.7869352019E-01+
*       -5.124655983E-02               0
GRID*               9934               0-1.843846226E+005.5278827810E-01+
*       -8.248103310E-02               0
GRID*               9935               0-1.827130054E+005.5554133728E-01+
*       -5.238264962E-02               0
GRID*               9936               0-1.842128492E+005.8654243971E-01+
*       -8.253525460E-02               0
GRID*               9937               0-1.800080626E+005.3411671635E-01+
*       -1.564336842E-01               0
GRID*               9938               0-1.832925611E+005.3108843126E-01+
*       -1.243468935E-01               0
GRID*               9939               0-1.832384429E+005.6327128030E-01+
*       -1.460856227E-01               0
GRID*               9940               0-1.832343920E+005.1088280338E-01+
*       -1.037419951E-01               0
GRID*               9941               0-1.849312064E+005.2844771949E-01+
*       -8.364817634E-02               0
GRID*               9942               0-1.849263154E+005.0919515296E-01+
*       -8.422312627E-02               0
GRID*               9943               0-1.866028236E+005.2569466030E-01+
*       -1.137465598E-01               0
GRID*               9944               0-1.798318366E+006.0397681390E-01+
*       -2.239717119E-02               0
GRID*               9945               0-1.776906904E+005.9926746023E-01+
*       -4.351588371E-02               0
GRID*               9946               0-1.786575384E+006.2080426030E-01+
*       -7.295482636E-02               0
GRID*               9947               0-1.820217564E+006.1182573342E-01+
*       -5.368586595E-02               0
GRID*               9948               0-1.807639800E+006.2790858195E-01+
*       -5.240740729E-02               0
GRID*               9949               0-1.858589146E+005.5058725095E-01+
*       -6.063761746E-02               0
GRID*               9950               0-1.880771156E+005.2349363316E-01+
*       -9.190314418E-02               0
GRID*               9951               0-1.864049949E+005.0706181418E-01+
*       -5.980048463E-02               0
GRID*               9952               0-1.832541947E+004.9276333398E-01+
*       -5.212046672E-02               0
GRID*               9953               0-1.876567937E+005.4586491413E-01+
*       -9.373447328E-02               0
GRID*               9954               0-1.876567937E+006.1602172757E-01+
*       -9.373447328E-02               0
GRID*               9955               0-1.866028236E+005.9585147375E-01+
*       -1.137465598E-01               0
GRID*               9956               01.3666493405E+005.0538603032E-01+
*       1.1742356106E+00               0
GRID*               9957               01.3356080309E+005.0295192823E-01+
*       1.2169764023E+00               0
GRID*               9958               01.3677086380E+004.7950975482E-01+
*       1.1989339060E+00               0
GRID*               9959               01.3677086380E+004.3474587557E-01+
*       1.2325624092E+00               0
GRID*               9960               01.1910666296E+001.4273318491E-01+
*       5.0125662519E-01               0
GRID*               9961               01.1700222499E+001.6066018085E-01+
*       4.8892149868E-01               0
GRID*               9962               01.1700222497E+001.9839536467E-01+
*       5.1688643945E-01               0
GRID*               9963               01.1705616699E+002.4793208427E-01+
*       5.6377074327E-01               0
GRID*               9964               01.1705616710E+002.8443464280E-01+
*       6.0425067921E-01               0
GRID*               9965               01.1919257927E+002.6767673122E-01+
*       6.2268171517E-01               0
GRID*               9966               01.3772678758E+002.3959177372E-01+
*       5.5026044208E-01               0
GRID*               9967               01.3772678758E+002.8154537483E-01+
*       5.9037018737E-01               0
GRID*               9968               01.3560160128E+002.6624156225E-01+
*       6.1399678730E-01               0
GRID*               9969               0-1.500435157E+004.8234864776E-01+
*       -2.073895557E-01               0
GRID*               9970               0-1.487633705E+004.6374761498E-01+
*       -2.279743640E-01               0
GRID*               9971               0-1.501347614E+004.2520363296E-01+
*       -2.279743640E-01               0
GRID*               9972               0-1.509247834E+004.0602871990E-01+
*       -2.285817681E-01               0
GRID*               9973               0-1.527536317E+004.0842923089E-01+
*       -2.080928300E-01               0
GRID*               9974               0-1.486977765E+004.8374395629E-01+
*       -2.294151916E-01               0
GRID*               9975               0-1.459835985E+005.1609284965E-01+
*       -2.294151916E-01               0
GRID*               9976               01.1791523443E+00-6.533901382E-01+
*       6.7279501620E-01               0
GRID*               9977               01.2096458378E+00-6.843602953E-01+
*       6.9210325683E-01               0
GRID*               9978               01.1791523423E+00-6.521728889E-01+
*       6.0302085560E-01               0
GRID*               9979               01.1792435397E+00-6.522314364E-01+
*       6.9661315036E-01               0
GRID*               9980               01.1792434999E+00-6.476652042E-01+
*       7.6314705997E-01               0
GRID*               9981               01.3672441854E+00-6.459615832E-01+
*       9.4831131515E-02               0
GRID*               9982               01.2465628703E+00-7.120417295E-01+
*       -2.727975114E-02               0
GRID*               9983               01.2734837678E+00-6.456915327E-01+
*       1.5441156287E-02               0
GRID*               9984               01.2716124457E+00-6.456915327E-01+
*       7.5008244683E-02               0
GRID*               9985               01.2446915482E+00-7.120417295E-01+
*       3.2287337259E-02               0
GRID*               9986               01.2040944877E+00-6.878105572E-01+
*       8.1418963245E-02               0
GRID*               9987               0-1.849297752E+00-4.866627143E-01+
*       -8.384945541E-02               0
GRID*               9988               0-1.850993038E+00-5.092886033E-01+
*       -8.383241979E-02               0
GRID*               9989               0-1.882172493E+00-5.021228635E-01+
*       -9.398819280E-02               0
GRID*               9990               0-1.882172493E+00-4.297108716E-01+
*       -9.398819280E-02               0
GRID*               9991               0-1.847717982E+00-4.513407710E-01+
*       -8.279499489E-02               0
GRID*               9992               0-1.846267902E+00-4.166191631E-01+
*       -8.211099093E-02               0
GRID*               9993               0-1.880722413E+00-3.949892637E-01+
*       -9.330418884E-02               0
GRID*               9994               0-1.854103824E+00-3.915643349E-01+
*       -6.145656804E-02               0
GRID*               9995               0-1.816997534E+00-4.567863545E-01+
*       -2.002445326E-02               0
GRID*               9996               0-1.796952550E+00-4.104556210E-01+
*       -2.002445326E-02               0
GRID*               9997               0-1.865875207E+00-5.033111471E-01+
*       -1.148612626E-01               0
GRID*               9998               0-1.865875207E+00-4.308991552E-01+
*       -1.148612626E-01               0
GRID*               9999               0-1.833012171E+00-4.534989242E-01+
*       -1.255543619E-01               0
GRID*              10000               0-1.800320217E+00-4.402361258E-01+
*       -1.565264498E-01               0
GRID*              10001               0-1.832575613E+00-4.891280093E-01+
*       -1.256233135E-01               0
GRID*              10002               0-1.832587317E+00-4.547759356E-01+
*       -1.464551502E-01               0
GRID*              10003               0-1.833882614E+00-5.097202632E-01+
*       -1.040604278E-01               0
GRID*              10004               0-1.864295437E+00-3.955772119E-01+
*       -1.138068021E-01               0
GRID*              10005               0-1.811467155E+00-3.901043240E-01+
*       -5.130680208E-02               0
GRID*              10006               0-1.837676848E+00-3.921522831E-01+
*       -8.195918127E-02               0
GRID*              10007               0-1.787784506E+00-3.911823843E-01+
*       -6.843110897E-02               0
GRID*              10008               0-1.819221355E+00-4.010488845E-01+
*       -1.237322350E-01               0
GRID*              10009               0-1.777606371E+00-4.089982064E-01+
*       -1.565268095E-01               0
GRID*              10010               0-1.831432401E+00-4.181769809E-01+
*       -1.244999014E-01               0
GRID*              10011               01.8257023735E+003.7753758934E-01+
*       -8.327840045E-02               0
GRID*              10012               01.8544949032E+003.9298201129E-01+
*       -6.345915160E-02               0
GRID*              10013               01.8713252462E+003.7118309822E-01+
*       -9.385488316E-02               0
GRID*              10014               01.8713252462E+002.9670944201E-01+
*       -9.385488316E-02               0
GRID*              10015               01.8074796320E+003.3332885858E-01+
*       -1.189073665E-01               0
GRID*              10016               01.8074796320E+002.5885520237E-01+
*       -1.189073665E-01               0
GRID*              10017               01.8487188305E+004.1842162781E-01+
*       -8.481478521E-02               0
GRID*              10018               01.8325822404E+004.5368787895E-01+
*       -1.048727995E-01               0
GRID*              10019               01.8819196046E+004.6815821744E-01+
*       -9.460426843E-02               0
GRID*              10020               01.8819196046E+003.9574622549E-01+
*       -9.460426843E-02               0
GRID*              10021               01.8381244721E+003.9385850054E-01+
*       -8.406539994E-02               0
GRID*              10022               01.3373288396E+00-4.847239828E-01+
*       1.2481924096E+00               0
GRID*              10023               01.3679088918E+00-4.790129291E-01+
*       1.2222908089E+00               0
GRID*              10024               01.3679088918E+00-4.893177903E-01+
*       1.1587552476E+00               0
GRID*              10025               01.3673303391E+00-4.945064555E-01+
*       1.1267827279E+00               0
GRID*              10026               01.3673580206E+00-5.911162639E-01+
*       1.0567308389E+00               0
GRID*              10027               01.3371892140E+00-6.274077449E-01+
*       1.0403395825E+00               0
GRID*              10028               01.3773075436E+00-1.362554235E-01+
*       1.0417945679E+00               0
GRID*              10029               01.3566583034E+00-1.143182476E-01+
*       1.0246284841E+00               0
GRID*              10030               01.3773075436E+00-1.638689065E-01+
*       1.0033933605E+00               0
GRID*              10031               01.3781007074E+00-1.182508185E-01+
*       1.0496319007E+00               0
GRID*              10032               01.3781007074E+00-6.160866371E-02+
*       1.0602250316E+00               0
GRID*              10033               0-1.377231696E+002.4824415160E-01+
*       5.6401727717E-01               0
GRID*              10034               0-1.377231696E+002.8474671013E-01+
*       6.0449721311E-01               0
GRID*              10035               0-1.355362885E+002.6837361912E-01+
*       6.2301488638E-01               0
GRID*              10036               0-1.170411646E+002.8190466438E-01+
*       5.8993843844E-01               0
GRID*              10037               0-1.170411645E+002.3995106327E-01+
*       5.4982869315E-01               0
GRID*              10038               0-1.191411436E+002.6621947471E-01+
*       6.1350052279E-01               0
GRID*              10039               0-1.355605628E+001.4378286930E-01+
*       5.0144844064E-01               0
GRID*              10040               0-1.376661892E+001.6151141564E-01+
*       4.8884962675E-01               0
GRID*              10041               0-1.376661892E+001.9924659946E-01+
*       5.1681456752E-01               0
GRID*              10042               0-6.069608063E-01-6.554623187E-01+
*       -2.187480613E-01               0
GRID*              10043               0-6.118419593E-01-6.563852535E-01+
*       -3.125307032E-02               0
GRID*              10044               01.7556902275E+00-3.562031708E-01+
*       -2.286535733E-01               0
GRID*              10045               01.7094399367E+00-3.318942759E-01+
*       -2.286535733E-01               0
GRID*              10046               01.6948105895E+00-3.470116970E-01+
*       -2.073911292E-01               0
GRID*              10047               01.7805243245E+00-3.687196931E-01+
*       -2.275512592E-01               0
GRID*              10048               01.8106408354E+00-3.596869610E-01+
*       -2.028547809E-01               0
GRID*              10049               01.8221384682E+00-3.631328308E-01+
*       -2.191144248E-01               0
GRID*              10050               01.8522549791E+00-3.541000987E-01+
*       -1.944179465E-01               0
GRID*              10051               01.8057873968E+00-3.731955632E-01+
*       -1.966656841E-01               0
GRID*              10052               01.7733950231E+00-3.950156194E-01+
*       -2.065302931E-01               0
GRID*              10053               0-1.356649980E+00-2.393033317E-01+
*       9.0495573850E-01               0
GRID*              10054               0-1.377688428E+00-2.611615283E-01+
*       9.0313228040E-01               0
GRID*              10055               0-1.377688428E+00-2.764853956E-01+
*       8.6064636469E-01               0
GRID*              10056               0-1.377711500E+00-2.209781648E-01+
*       9.6629973195E-01               0
GRID*              10057               0-1.377711500E+00-2.509310436E-01+
*       9.1979975376E-01               0
GRID*              10058               0-1.367383430E+006.6498661021E-01+
*       1.9543158579E-01               0
GRID*              10059               0-1.367383430E+006.7372839296E-01+
*       1.3373135980E-01               0
GRID*              10060               0-1.336778181E+006.9689752025E-01+
*       1.2831101582E-01               0
GRID*              10061               0-1.368144699E+006.7209722851E-01+
*       9.7835783841E-02               0
GRID*              10062               0-1.242541356E+007.1223292580E-01+
*       6.1257152007E-02               0
GRID*              10063               0-1.244497200E+007.1223292580E-01+
*       1.6040528078E-03               0
GRID*              10064               0-1.274252523E+006.4530699551E-01+
*       -3.502141003E-03               0
GRID*              10065               0-1.211704741E+006.8010274087E-01+
*       7.1321079568E-02               0
GRID*              10066               0-1.243158083E+007.1786981508E-01+
*       9.2319929117E-02               0
GRID*              10067               0-1.243078891E+007.1786981508E-01+
*       1.6416715201E-01               0
GRID*              10068               09.2090436061E-017.1622609881E-01+
*       -9.473728371E-02               0
GRID*              10069               09.9660594705E-017.1622609881E-01+
*       -9.531589199E-02               0
GRID*              10070               01.0027785558E+006.5169760679E-01+
*       -1.265033528E-01               0
GRID*              10071               01.0784801422E+006.5169760679E-01+
*       -1.270819611E-01               0
GRID*              10072               01.7767855586E+007.3029517743E-01+
*       -1.572832269E-01               0
GRID*              10073               01.7590358163E+006.9497203848E-01+
*       -1.655057827E-01               0
GRID*              10074               01.7733482286E+007.0448264113E-01+
*       -1.887875058E-01               0
GRID*              10075               01.8680210526E+00-7.596360187E-02+
*       -9.225132470E-02               0
GRID*              10076               01.8387635594E+00-1.132624891E-01+
*       -6.180220531E-02               0
GRID*              10077               0-1.872131359E+00-3.705223837E-01+
*       -9.315237919E-02               0
GRID*              10078               0-1.773955743E+00-3.290825648E-01+
*       -1.037484994E-01               0
GRID*              10079               0-1.765454784E+00-3.916980917E-01+
*       -9.312694907E-02               0
GRID*              10080               0-1.733964195E+00-3.820079948E-01+
*       -5.879043847E-02               0
GRID*              10081               0-1.777218675E+00-3.748477540E-01+
*       -6.858512436E-02               0
GRID*              10082               0-1.819275095E+00-4.008724811E-01+
*       -1.027676196E-01               0
GRID*              10083               0-1.827111017E+00-3.758176529E-01+
*       -8.211319667E-02               0
GRID*              10084               01.8067927840E+004.3405665507E-01+
*       -2.037945304E-02               0
GRID*              10085               01.7867481397E+003.8772008639E-01+
*       -2.037945304E-02               0
GRID*              10086               01.7688289166E+003.9583558835E-01+
*       -4.139077757E-02               0
GRID*              10087               01.8177813643E+004.5787842029E-01+
*       -2.193853299E-02               0
GRID*              10088               01.8342995252E+004.7394869180E-01+
*       -5.201953742E-02               0
GRID*              10089               01.8029066311E+004.8094519567E-01+
*       -4.260541995E-02               0
GRID*              10090               01.8178050478E+005.1559128301E-01+
*       -7.292093290E-02               0
GRID*              10091               01.8709903745E+002.5931243412E-01+
*       -9.297004828E-02               0
GRID*              10092               01.8375275191E+002.6126510469E-01+
*       -6.118743967E-02               0
GRID*              10093               01.8652870922E+002.2695267056E-01+
*       -9.321739139E-02               0
GRID*              10094               01.7751812051E+003.7112578859E-01+
*       -2.101132454E-02               0
GRID*              10095               01.7354763819E+003.5551908282E-01+
*       -2.101132454E-02               0
GRID*              10096               0-1.376881136E+002.9417733241E-01+
*       6.2254676279E-01               0
GRID*              10097               0-1.376881136E+003.0142762165E-01+
*       6.7547016485E-01               0
GRID*              10098               01.8183149836E+004.7875019937E-01+
*       -2.066688696E-02               0
GRID*              10099               01.8348331446E+004.9482047087E-01+
*       -5.074789139E-02               0
GRID*              10100               01.8029043770E+005.7301803883E-01+
*       -2.066688696E-02               0
GRID*              10101               01.3670404288E+003.8441176409E-01+
*       1.2699276669E+00               0
GRID*              10102               01.3363333258E+004.0514110601E-01+
*       1.2967006169E+00               0
GRID*              10103               01.3567374319E+00-2.964988849E-01+
*       7.4527496628E-01               0
GRID*              10104               01.3583835360E+00-2.835054960E-01+
*       7.2559519081E-01               0
GRID*              10105               01.3784753890E+00-3.206250400E-01+
*       7.5214817676E-01               0
GRID*              10106               01.3784753890E+00-3.068862536E-01+
*       8.0822785738E-01               0
GRID*              10107               01.3777149492E+00-3.002516017E-01+
*       8.3575099281E-01               0
GRID*              10108               01.3562984508E+00-2.773373801E-01+
*       8.3838281293E-01               0
GRID*              10109               0-1.210946445E+006.1903258790E-02+
*       9.4169391293E-02               0
GRID*              10110               01.3774333559E+00-1.776383753E-01+
*       9.8442183269E-01               0
GRID*              10111               01.5282035852E-01-6.559173761E-01+
*       -3.124756984E-02               0
GRID*              10112               0-9.954063181E-01-4.816009332E-01+
*       -6.106663284E-02               0
GRID*              10113               0-9.153968187E-01-4.878218178E-01+
*       -6.106663284E-02               0
GRID*              10114               0-1.015495489E+00-4.240484778E-01+
*       -6.106663284E-02               0
GRID*              10115               0-1.027578957E+00-3.947549348E-01+
*       -6.261659757E-02               0
GRID*              10116               01.8557344673E+00-6.442077445E-01+
*       -1.336095172E-01               0
GRID*              10117               01.7663402768E+00-6.007454963E-01+
*       -1.252674932E-01               0
GRID*              10118               01.7674644567E+00-6.152336143E-01+
*       -1.127761977E-01               0
GRID*              10119               01.7663401738E+00-6.007455644E-01+
*       -8.360083399E-02               0
GRID*              10120               01.4748171355E+00-4.998764005E-01+
*       -2.300159298E-01               0
GRID*              10121               01.4476860613E+00-5.323814446E-01+
*       -2.300159298E-01               0
GRID*              10122               01.4780625431E+00-5.762483062E-01+
*       -2.300159298E-01               0
GRID*              10123               01.4882958609E+00-4.833831951E-01+
*       -2.287838418E-01               0
GRID*              10124               01.5009989956E+00-4.821795681E-01+
*       -2.070494203E-01               0
GRID*              10125               01.5009408348E+00-4.238594936E-01+
*       -2.282655786E-01               0
GRID*              10126               01.4870133225E+00-4.630331636E-01+
*       -2.282655786E-01               0
GRID*              10127               01.5094510934E+00-4.044804194E-01+
*       -2.285257002E-01               0
GRID*              10128               01.5273719589E+00-4.077660016E-01+
*       -2.071576556E-01               0
GRID*              10129               0-1.519870489E+00-3.723245593E-01+
*       -2.165256997E-02               0
GRID*              10130               0-1.524768422E+00-3.972795271E-01+
*       -4.242219061E-02               0
GRID*              10131               0-1.559376662E+00-3.568812132E-01+
*       -2.165256997E-02               0
GRID*              10132               0-1.579961328E+00-3.482089468E-01+
*       -2.277995020E-02               0
GRID*              10133               0-1.597333260E+00-3.585053695E-01+
*       -4.399403743E-02               0
GRID*              10134               0-1.368548489E+00-6.747509920E-01+
*       2.0460700703E-01               0
GRID*              10135               0-1.313028218E+00-7.282383906E-01+
*       7.6072888695E-02               0
GRID*              10136               0-1.345131473E+00-6.997390500E-01+
*       1.2108218137E-01               0
GRID*              10137               0-1.323493220E+00-6.387791839E-01+
*       1.1547123616E-01               0
GRID*              10138               0-1.367757776E+00-6.786300602E-01+
*       2.3433839560E-01               0
GRID*              10139               0-1.530922080E+00-3.440510242E-01+
*       -2.285123113E-01               0
GRID*              10140               0-1.512281198E+00-3.806578840E-01+
*       -2.285123113E-01               0
GRID*              10141               0-1.336386877E+002.1560806709E-02+
*       1.4367290914E+00               0
GRID*              10142               0-1.367036252E+00-4.243784059E-02+
*       1.4019138783E+00               0
GRID*              10143               0-1.367036252E+001.4212206614E-02+
*       1.4091194094E+00               0
GRID*              10144               0-1.368100573E+009.5236270058E-02+
*       1.3701631301E+00               0
GRID*              10145               0-1.368100573E+004.9523552014E-02+
*       1.4082537263E+00               0
GRID*              10146               0-1.299714887E+004.6308282587E-02+
*       1.3721189215E+00               0
GRID*              10147               0-1.366590648E+001.1796791035E-01+
*       1.3532688778E+00               0
GRID*              10148               0-1.335264385E+001.3877254803E-01+
*       1.3928128054E+00               0
GRID*              10149               0-1.367423685E+001.5440502569E-01+
*       1.3440067796E+00               0
GRID*              10150               0-1.367423685E+002.1972266628E-01+
*       1.3614522665E+00               0
GRID*              10151               0-1.698516910E+00-3.355064651E-01+
*       -2.076222749E-01               0
GRID*              10152               0-1.695710888E+00-3.071585610E-01+
*       -2.282254735E-01               0
GRID*              10153               0-1.639360209E+00-3.128041113E-01+
*       -2.282254735E-01               0
GRID*              10154               0-1.648186235E+00-3.012479269E-01+
*       -2.118478742E-02               0
GRID*              10155               0-1.681508312E+00-3.284318073E-01+
*       -2.118478742E-02               0
GRID*              10156               0-1.615437430E+00-3.288671281E-01+
*       -2.118478742E-02               0
GRID*              10157               0-1.698436445E+00-3.424169477E-01+
*       -2.100618763E-02               0
GRID*              10158               0-1.714452467E+00-3.590980871E-01+
*       -3.813049451E-02               0
GRID*              10159               0-1.733960862E+00-3.820054228E-01+
*       -1.712430688E-02               0
GRID*              10160               01.3669062305E+00-5.565645213E-02+
*       1.3830591609E+00               0
GRID*              10161               01.3364635342E+00-2.393344410E-02+
*       1.4200770189E+00               0
GRID*              10162               01.2419675957E+00-7.201327063E-02+
*       1.4623331334E+00               0
GRID*              10163               01.2105954398E+00-4.206765244E-02+
*       1.4326621209E+00               0
GRID*              10164               01.2422400995E+00-2.142326403E-01+
*       1.4360395297E+00               0
GRID*              10165               06.0904593009E-017.1849337970E-01+
*       -1.561873210E-01               0
GRID*              10166               0-1.376983450E+002.3004342284E-01+
*       5.4463321860E-01               0
GRID*              10167               0-1.356075043E+002.0994492459E-01+
*       5.5256613954E-01               0
GRID*              10168               0-1.377841541E+002.1744680812E-01+
*       5.3100213859E-01               0
GRID*              10169               01.1695648266E+00-2.756987071E-01+
*       8.6104408067E-01               0
GRID*              10170               01.1695648266E+00-2.603748398E-01+
*       9.0352999639E-01               0
GRID*              10171               01.1912089330E+00-2.375125960E-01+
*       9.0528424363E-01               0
GRID*              10172               01.1703940540E+00-2.199741175E-01+
*       9.6623052109E-01               0
GRID*              10173               01.1703940540E+00-2.499269964E-01+
*       9.1973054290E-01               0
GRID*              10174               01.1703544914E+00-1.906317998E-01+
*       9.9940495385E-01               0
GRID*              10175               01.1911191971E+00-1.826781730E-01+
*       9.7644582825E-01               0
GRID*              10176               04.5806176058E-01-6.545193086E-01+
*       -3.124472063E-02               0
GRID*              10177               0-1.852846764E+00-3.360998459E-01+
*       -1.881650521E-01               0
GRID*              10178               0-1.878641799E+00-3.398824472E-01+
*       -1.568827270E-01               0
GRID*              10179               0-1.857046611E+00-3.936305092E-01+
*       -1.879126054E-01               0
GRID*              10180               0-1.840091876E+00-3.927644802E-01+
*       -1.669754244E-01               0
GRID*              10181               0-1.827880831E+00-3.756363837E-01+
*       -1.662077580E-01               0
GRID*              10182               0-1.872954912E+00-3.701647111E-01+
*       -1.562823251E-01               0
GRID*              10183               01.5317374012E+003.4437327549E-01+
*       -2.290070973E-01               0
GRID*              10184               01.5728564171E+003.3082171922E-01+
*       -2.290070973E-01               0
GRID*              10185               01.5131579725E+003.8042578832E-01+
*       -2.290070973E-01               0
GRID*              10186               01.5045018210E+003.9941693295E-01+
*       -2.287290771E-01               0
GRID*              10187               01.5160927964E+004.1494658215E-01+
*       -2.082813599E-01               0
GRID*              10188               01.4972304819E+004.5817065774E-01+
*       -6.378564238E-02               0
GRID*              10189               01.4898976726E+004.3399988380E-01+
*       -4.386842987E-02               0
GRID*              10190               01.4972380664E+004.9682064026E-01+
*       -6.378564271E-02               0
GRID*              10191               01.4817460990E+004.5709187822E-01+
*       -4.226573137E-02               0
GRID*              10192               01.4964213218E+005.1758235689E-01+
*       -6.270553549E-02               0
GRID*              10193               01.4836060865E+005.3677190617E-01+
*       -4.325324015E-02               0
GRID*              10194               01.4803741291E+004.9803202346E-01+
*       -4.093501275E-02               0
GRID*              10195               01.4811908737E+004.7727030684E-01+
*       -4.201511998E-02               0
GRID*              10196               01.4928337083E+004.1462500834E-01+
*       -2.295522828E-01               0
GRID*              10197               01.4719183850E+004.6600873883E-01+
*       -2.295522828E-01               0
GRID*              10198               01.4618706154E+004.9148574655E-01+
*       -2.278858616E-01               0
GRID*              10199               01.4834704247E+005.0171344821E-01+
*       -2.058494411E-01               0
GRID*              10200               0-1.377202412E+00-2.056647810E-01+
*       9.8813712016E-01               0
GRID*              10201               0-1.355441941E+00-1.838076760E-01+
*       9.7781206870E-01               0
GRID*              10202               0-1.211177654E+00-4.861368431E-01+
*       1.2479458648E+00               0
GRID*              10203               0-1.179928211E+00-4.523443108E-01+
*       1.2472638267E+00               0
GRID*              10204               0-1.179928211E+00-3.885585061E-01+
*       1.2753610705E+00               0
GRID*              10205               0-1.170040222E+00-2.846238382E-01+
*       8.7717220371E-01               0
GRID*              10206               0-1.170040222E+00-2.623691369E-01+
*       9.2459250470E-01               0
GRID*              10207               0-1.191927619E+00-2.402466780E-01+
*       9.1815017216E-01               0
GRID*              10208               0-1.170788577E+00-2.954280325E-01+
*       8.5340331129E-01               0
GRID*              10209               0-1.191438490E+00-2.786026963E-01+
*       8.3626656404E-01               0
GRID*              10210               0-1.378139068E+001.1725222281E-01+
*       1.0210420377E+00               0
GRID*              10211               0-1.378139068E+008.2520489432E-02+
*       1.0464266287E+00               0
GRID*              10212               0-1.357774710E+006.6935593292E-02+
*       1.0297885875E+00               0
GRID*              10213               0-1.378385590E+006.4853037639E-02+
*       1.0510620188E+00               0
GRID*              10214               0-1.378385590E+001.5865641150E-02+
*       1.0497526970E+00               0
GRID*              10215               01.1918411511E+001.3820173081E-01+
*       9.9152256591E-01               0
GRID*              10216               01.1704341733E+001.3572992729E-01+
*       1.0094534387E+00               0
GRID*              10217               01.1704341733E+001.0099819391E-01+
*       1.0348380297E+00               0
GRID*              10218               01.1703550257E+008.2715938319E-02+
*       1.0466113200E+00               0
GRID*              10219               01.1910367965E+006.7520619649E-02+
*       1.0296860612E+00               0
GRID*              10220               07.6399290635E-017.1821696239E-01+
*       -9.368876059E-02               0
GRID*              10221               04.5606347996E-01-6.561244665E-01+
*       -2.187531567E-01               0
GRID*              10222               0-1.708029191E+00-6.874399156E-01+
*       -5.118806855E-02               0
GRID*              10223               0-1.734468208E+00-6.759578592E-01+
*       -5.174012410E-02               0
GRID*              10224               0-1.772827328E+00-6.806556171E-01+
*       -3.102456007E-02               0
GRID*              10225               0-1.716868008E+00-7.022916938E-01+
*       -3.102456007E-02               0
GRID*              10226               0-1.706882744E+00-7.164024933E-01+
*       -6.200677063E-02               0
GRID*              10227               0-1.664027287E+00-7.025297271E-01+
*       -8.345218432E-02               0
GRID*              10228               0-1.650090532E+00-6.808368771E-01+
*       -5.145518368E-02               0
GRID*              10229               0-1.671617784E+00-6.867590163E-01+
*       -5.114571904E-02               0
GRID*              10230               0-1.680456600E+00-7.016107944E-01+
*       -3.098221056E-02               0
GRID*              10231               03.0567676211E-01-6.556671318E-01+
*       -3.124981158E-02               0
GRID*              10232               0-1.355401024E+002.8646535830E-01+
*       7.1155491719E-01               0
GRID*              10233               0-1.377040004E+003.0730845601E-01+
*       7.2039374565E-01               0
GRID*              10234               0-1.377040004E+003.0767079276E-01+
*       7.6780841999E-01               0
GRID*              10235               0-1.377110968E+003.0420790419E-01+
*       7.0103706517E-01               0
GRID*              10236               0-7.617036454E-017.1867457158E-01+
*       -1.563214995E-01               0
GRID*              10237               0-7.615582602E-017.1581175119E-01+
*       -9.377550932E-02               0
GRID*              10238               0-1.479613588E+004.7854056845E-01+
*       -2.081917134E-02               0
GRID*              10239               0-1.495937318E+004.7992801251E-01+
*       -4.233569773E-02               0
GRID*              10240               0-1.496706080E+005.5449085156E-01+
*       -6.398563947E-02               0
GRID*              10241               0-1.488222622E+005.8063184891E-01+
*       -4.393314661E-02               0
GRID*              10242               0-1.480634017E+004.5707084723E-01+
*       -2.151652638E-02               0
GRID*              10243               01.4920782186E+00-4.271624935E-02+
*       -1.865340741E-01               0
GRID*              10244               01.4720892577E+00-1.327371997E-01+
*       -1.228187590E-01               0
GRID*              10245               01.5194436667E+00-8.620127385E-02+
*       -1.246977940E-01               0
GRID*              10246               01.5315876088E+00-9.639754942E-02+
*       -6.316371995E-02               0
GRID*              10247               01.7953922541E+006.1793819497E-01+
*       -2.090745969E-02               0
GRID*              10248               01.8189816518E+006.2216543137E-01+
*       -5.095736869E-02               0
GRID*              10249               01.8017817114E+005.5396184773E-01+
*       -6.403028560E-02               0
GRID*              10250               01.8340447187E+005.4935062441E-01+
*       -7.461786637E-02               0
GRID*              10251               01.8336959391E+005.8357232020E-01+
*       -7.414944596E-02               0
GRID*              10252               01.8318210657E+005.6358728707E-01+
*       -1.040396715E-01               0
GRID*              10253               0-3.040985559E-01-6.558351131E-01+
*       -2.168572254E-01               0
GRID*              10254               01.3685811410E+00-6.025562245E-01+
*       1.0247494155E+00               0
GRID*              10255               01.3685811410E+00-6.129085229E-01+
*       9.7114838832E-01               0
GRID*              10256               0-1.377208500E+00-3.039280915E-02+
*       4.3855304785E-01               0
GRID*              10257               0-1.377208500E+00-7.926072221E-02+
*       4.4638504230E-01               0
GRID*              10258               0-1.356610390E+00-1.920592583E-02+
*       4.5917919133E-01               0
GRID*              10259               0-1.356250235E+006.5256380460E-02+
*       4.6818927131E-01               0
GRID*              10260               0-1.376890432E+007.9804899743E-02+
*       4.4994592610E-01               0
GRID*              10261               0-1.376890432E+001.2307533828E-01+
*       4.6950544242E-01               0
GRID*              10262               01.2429063007E+005.4804283632E-01+
*       1.2050727644E+00               0
GRID*              10263               01.2429051785E+004.9605963381E-01+
*       1.2570572971E+00               0
GRID*              10264               01.2416998391E+004.6979820003E-01+
*       1.2819255221E+00               0
GRID*              10265               01.2102511277E+004.4288759783E-01+
*       1.2612165655E+00               0
GRID*              10266               0-1.170662908E+006.6557289388E-02+
*       4.5923951840E-01               0
GRID*              10267               0-1.170662908E+001.0758078246E-01+
*       4.6910871818E-01               0
GRID*              10268               0-1.191721023E+005.6801032915E-02+
*       4.7422789703E-01               0
GRID*              10269               01.2423017777E+004.4888553409E-01+
*       1.3090476989E+00               0
GRID*              10270               01.2423004282E+003.8775812003E-01+
*       1.3498911038E+00               0
GRID*              10271               01.2420330621E+003.5541564534E-01+
*       1.3684384173E+00               0
GRID*              10272               01.2110963793E+003.3257472770E-01+
*       1.3511413253E+00               0
GRID*              10273               01.3662150199E+006.3240049295E-01+
*       9.6741912034E-01               0
GRID*              10274               01.3348357487E+006.4553201684E-01+
*       1.0040496922E+00               0
GRID*              10275               01.2859028870E+006.3206232245E-01+
*       1.0365135224E+00               0
GRID*              10276               01.3031607920E+005.8588948226E-01+
*       1.0260131662E+00               0
GRID*              10277               0-4.570442540E-017.1872877115E-01+
*       -1.561604433E-01               0
GRID*              10278               0-3.048416032E-017.1846800754E-01+
*       -1.543907255E-01               0
GRID*              10279               0-2.935029567E-017.2523720304E-01+
*       -8.757335679E-02               0
GRID*              10280               01.2434879384E+00-6.558079370E-01+
*       1.0308041187E+00               0
GRID*              10281               01.2434864863E+00-6.832866507E-01+
*       9.6535491430E-01               0
GRID*              10282               01.2434855056E+00-6.976732929E-01+
*       8.9817655839E-01               0
GRID*              10283               01.2419682369E+00-6.413306438E-01+
*       1.0635727763E+00               0
GRID*              10284               01.2101059803E+00-6.126258302E-01+
*       1.0516021133E+00               0
GRID*              10285               03.0534255270E-017.1875096723E-01+
*       -9.375682871E-02               0
GRID*              10286               0-1.335992157E+00-7.075927436E-02+
*       1.5239864783E-01               0
GRID*              10287               01.1706246269E+002.3291620109E-01+
*       9.6979194186E-01               0
GRID*              10288               01.1706246269E+002.6332975571E-01+
*       9.2231835151E-01               0
GRID*              10289               01.1911685565E+002.1147912375E-01+
*       9.5719439799E-01               0
GRID*              10290               01.1692938771E+002.1942930931E-01+
*       9.8374741593E-01               0
GRID*              10291               01.1692938771E+001.7394681625E-01+
*       9.9404037506E-01               0
GRID*              10292               01.3780905258E+00-3.484182010E-02+
*       1.0642927879E+00               0
GRID*              10293               01.3773334492E+00-2.956058326E-01+
*       8.5486650058E-01               0
GRID*              10294               01.3773334492E+00-2.733511313E-01+
*       9.0228680157E-01               0
GRID*              10295               01.3776304310E+00-2.612322578E-01+
*       9.2496010491E-01               0
GRID*              10296               01.3564726658E+00-2.386249681E-01+
*       9.1771513553E-01               0
GRID*              10297               01.3775921824E+00-2.514033620E-01+
*       9.3983031306E-01               0
GRID*              10298               01.1924162165E+00-2.703386261E-01+
*       8.2831675434E-01               0
GRID*              10299               01.1698260041E+00-2.894678332E-01+
*       8.2153982972E-01               0
GRID*              10300               01.1698260069E+00-2.953977029E-01+
*       7.7844223507E-01               0
GRID*              10301               01.1705248108E+00-2.979563556E-01+
*       7.5740523427E-01               0
GRID*              10302               01.1921297292E+00-2.819251097E-01+
*       7.4841685163E-01               0
GRID*              10303               0-1.524648403E-017.1851504982E-01+
*       -1.543784706E-01               0
GRID*              10304               0-1.415430508E-016.9557293473E-01+
*       -1.151411081E-01               0
GRID*              10305               0-1.530548037E-01-6.560858031E-01+
*       -3.124758139E-02               0
GRID*              10306               01.3261859161E+007.1294552869E-01+
*       -5.223649855E-02               0
GRID*              10307               01.3640222227E+007.1294552869E-01+
*       -1.000714733E-01               0
GRID*              10308               02.8544333395E-057.1869746355E-01+
*       -9.375856235E-02               0
GRID*              10309               01.5199359680E-01-6.561288531E-01+
*       -2.187543493E-01               0
GRID*              10310               01.1701569254E+001.5237320405E-01+
*       9.9900000530E-01               0
GRID*              10311               01.4593246192E+00-6.051049604E-02+
*       -1.860458807E-01               0
GRID*              10312               01.4704604723E+00-7.208441204E-02+
*       -1.225799548E-01               0
GRID*              10313               01.4388388665E+00-5.235104175E-02+
*       -1.245845101E-01               0
GRID*              10314               01.5153580137E+00-6.448644092E-02+
*       -6.153407406E-02               0
GRID*              10315               01.4311925187E+003.7640841122E-02+
*       -1.885386294E-01               0
GRID*              10316               01.4604566128E+00-2.298287906E-02+
*       -1.885386294E-01               0
GRID*              10317               01.4931458815E+00-5.964225961E-01+
*       -2.288805189E-01               0
GRID*              10318               01.5159274211E+00-5.926672373E-01+
*       -2.077943237E-01               0
GRID*              10319               01.4791339576E+00-5.849774765E-01+
*       -1.761446209E-01               0
GRID*              10320               0-9.097796050E-01-6.532751892E-01+
*       -2.207037974E-01               0
GRID*              10321               0-9.850387748E-01-6.520555638E-01+
*       -2.207037974E-01               0
GRID*              10322               0-7.666426982E-01-6.543971920E-01+
*       -3.151801154E-02               0
GRID*              10323               0-1.280375238E+00-6.424607916E-01+
*       -3.803129151E-03               0
GRID*              10324               0-1.307300486E+00-7.132004781E-01+
*       -2.762575705E-02               0
GRID*              10325               0-1.278528143E+00-6.424607916E-01+
*       5.5763218008E-02               0
GRID*              10326               0-1.305453391E+00-7.132004781E-01+
*       3.1940590113E-02               0
GRID*              10327               0-1.345136600E+00-7.132004781E-01+
*       -7.546083917E-02               0
GRID*              10328               0-1.306038497E+00-7.108642341E-01+
*       6.2159433500E-02               0
GRID*              10329               0-1.375332931E+00-6.690262383E-01+
*       9.8411317373E-02               0
GRID*              10330               0-1.344926194E+00-6.891026246E-01+
*       5.6054446071E-02               0
GRID*              10331               0-1.375332931E+00-7.282383906E-01+
*       3.4983950633E-02               0
GRID*              10332               0-1.344341089E+00-6.914388687E-01+
*       2.5835602684E-02               0
GRID*              10333               0-1.367627917E+004.8560237382E-01+
*       1.1601280501E+00               0
GRID*              10334               0-1.242153078E+007.2165765487E-01+
*       6.6030767175E-01               0
GRID*              10335               0-1.180472053E+006.3254174806E-01+
*       9.6685257539E-01               0
GRID*              10336               0-1.211156390E+006.4565820723E-01+
*       1.0035770931E+00               0
GRID*              10337               0-1.179434284E+006.2022831009E-01+
*       1.0003265692E+00               0
GRID*              10338               0-1.367230968E+005.7408068956E-01+
*       1.0135893228E+00               0
GRID*              10339               0-1.336579052E+006.0822788872E-01+
*       1.0337018279E+00               0
GRID*              10340               0-1.368098032E+005.6208788849E-01+
*       1.0451628815E+00               0
GRID*              10341               0-1.306649098E+007.1268707285E-01+
*       9.4313820845E-04               0
GRID*              10342               0-1.304693254E+007.1268707285E-01+
*       6.0596237408E-02               0
GRID*              10343               0-1.809194559E+001.4850686751E-01+
*       -1.337627634E-01               0
GRID*              10344               0-1.866662323E+001.9580965006E-01+
*       -1.561755574E-01               0
GRID*              10345               0-1.839730479E+001.9920141942E-01+
*       -1.881110796E-01               0
GRID*              10346               0-1.866662323E+001.2080965006E-01+
*       -1.561755574E-01               0
GRID*              10347               0-1.809194559E+007.3506867512E-02+
*       -1.337627634E-01               0
GRID*              10348               0-1.871818104E+002.2839176936E-01+
*       -1.569355222E-01               0
GRID*              10349               01.5936209201E+003.2478058955E-01+
*       -2.286174541E-01               0
GRID*              10350               01.6055104035E+003.4307015517E-01+
*       -2.067620769E-01               0
GRID*              10351               01.3673706763E+006.2024337482E-01+
*       1.0002326233E+00               0
GRID*              10352               0-1.368163519E+00-6.520440756E-01+
*       6.0238627514E-01               0
GRID*              10353               0-1.368163519E+00-6.532613249E-01+
*       6.7216043574E-01               0
GRID*              10354               0-1.337940368E+00-6.841103040E-01+
*       6.9090453015E-01               0
GRID*              10355               0-1.368526796E+00-6.521102583E-01+
*       6.9604900414E-01               0
GRID*              10356               0-1.368526796E+00-6.475440261E-01+
*       7.6258291375E-01               0
GRID*              10357               0-1.366687004E+00-6.509137341E-01+
*       5.6728431643E-01               0
GRID*              10358               0-1.336108790E+00-6.842122858E-01+
*       5.6404974481E-01               0
GRID*              10359               0-1.368171733E+00-6.521253325E-01+
*       5.3452201690E-01               0
GRID*              10360               01.3665472910E+00-6.539027651E-01+
*       4.4514823668E-01               0
GRID*              10361               01.3665472910E+00-6.548804535E-01+
*       3.7460714366E-01               0
GRID*              10362               01.3665472910E+00-6.527790241E-01+
*       3.0453579772E-01               0
GRID*              10363               01.2415473353E+00-6.459313113E-01+
*       3.7516548588E-01               0
GRID*              10364               01.3051957305E+00-6.487054319E-01+
*       3.3972997563E-01               0
GRID*              10365               01.3043686171E+00-6.485682062E-01+
*       3.7495102810E-01               0
GRID*              10366               01.2411161643E+00-6.469359288E-01+
*       3.3874385114E-01               0
GRID*              10367               01.3047645596E+00-6.497100494E-01+
*       3.0330834089E-01               0
GRID*              10368               01.1713401599E+00-2.843077677E-01+
*       8.3978138886E-01               0
GRID*              10369               01.1920595558E+00-2.436241861E-01+
*       5.8928782405E-01               0
GRID*              10370               01.1708178764E+00-2.681624970E-01+
*       5.8837484616E-01               0
GRID*              10371               01.1708178768E+00-2.817967442E-01+
*       6.3271589690E-01               0
GRID*              10372               0-1.364011769E+007.1295937604E-01+
*       -1.013111600E-01               0
GRID*              10373               0-1.326539936E+007.1295937604E-01+
*       -5.370031006E-02               0
GRID*              10374               0-1.379324143E+006.9068442752E-01+
*       -1.387749764E-01               0
GRID*              10375               0-1.307714971E+007.1104308809E-01+
*       -2.853910234E-02               0
GRID*              10376               0-1.545960294E+002.7759388677E-01+
*       -2.265665478E-02               0
GRID*              10377               0-1.572935780E+003.2757173577E-01+
*       -2.265665478E-02               0
GRID*              10378               0-1.561523461E+003.4896632890E-01+
*       -2.295110618E-01               0
GRID*              10379               0-1.519892613E+003.9045547047E-01+
*       -2.295110618E-01               0
GRID*              10380               0-1.582780770E+003.2853825290E-01+
*       -2.279693467E-01               0
GRID*              10381               0-1.599468706E+003.4573115181E-01+
*       -2.068483850E-01               0
GRID*              10382               01.1592437851E+006.7948975050E-01+
*       -1.260172767E-01               0
GRID*              10383               01.1216565463E+006.7660357046E-01+
*       -1.236905410E-01               0
GRID*              10384               01.1746215251E+007.1522514581E-01+
*       -1.581523513E-01               0
GRID*              10385               01.1019705532E+007.1522514581E-01+
*       -1.552362339E-01               0
GRID*              10386               01.1000436644E+006.8233063655E-01+
*       -1.868936133E-01               0
GRID*              10387               01.1958490051E+006.7982004031E-01+
*       -1.273174940E-01               0
GRID*              10388               01.2112267451E+007.1555543562E-01+
*       -1.594525687E-01               0
GRID*              10389               01.1705995096E+00-1.754262265E-01+
*       4.7687172425E-01               0
GRID*              10390               01.1705995097E+00-1.219231397E-01+
*       4.5743663230E-01               0
GRID*              10391               01.1916741566E+00-1.056471675E-01+
*       4.7647583932E-01               0
GRID*              10392               01.3770061510E+00-3.074500767E-02+
*       4.5359582176E-01               0
GRID*              10393               01.3770061510E+00-7.232808229E-02+
*       4.6031069525E-01               0
GRID*              10394               01.3564922820E+00-1.994619330E-02+
*       4.6935415061E-01               0
GRID*              10395               09.5219021025E-016.8330174048E-01+
*       -1.880791707E-01               0
GRID*              10396               09.1475196496E-017.1573224729E-01+
*       -1.568999886E-01               0
GRID*              10397               09.5243925223E-017.1756949318E-01+
*       -1.564715625E-01               0
GRID*              10398               01.0281408387E+007.1756949318E-01+
*       -1.570501708E-01               0
GRID*              10399               08.7565460027E-014.9134943311E-01+
*       -6.245848319E-02               0
GRID*              10400               01.3373983870E+00-6.177289631E-01+
*       2.6913472596E-01               0
GRID*              10401               01.3373983870E+00-6.198303925E-01+
*       3.3920607191E-01               0
GRID*              10402               01.1804781466E+00-6.433264108E-01+
*       3.7343956721E-01               0
GRID*              10403               01.1804781541E+00-6.675231785E-01+
*       3.0434838130E-01               0
GRID*              10404               01.3669234137E+00-6.558494567E-01+
*       4.8105584702E-01               0
GRID*              10405               01.3363258189E+00-6.874435141E-01+
*       4.8266549955E-01               0
GRID*              10406               01.1799871710E+00-6.803552941E-01+
*       2.6965871368E-01               0
GRID*              10407               01.2106443735E+00-7.039865218E-01+
*       2.6666540381E-01               0
GRID*              10408               01.1794072537E+00-6.801318928E-01+
*       2.3402424270E-01               0
GRID*              10409               0-1.366185097E+006.5495277526E-01+
*       3.7486953290E-01               0
GRID*              10410               0-1.376754017E+00-9.221241388E-03+
*       1.0495412350E+00               0
GRID*              10411               0-1.355562702E+00-2.010704247E-02+
*       1.0317833694E+00               0
GRID*              10412               0-1.377515528E+003.0699662208E-01+
*       7.9154948130E-01               0
GRID*              10413               0-1.356101023E+002.8633323558E-01+
*       7.9770005931E-01               0
GRID*              10414               0-1.377335442E+003.0511228890E-01+
*       8.1085582032E-01               0
GRID*              10415               0-1.377335442E+002.9307119915E-01+
*       8.5920208872E-01               0
GRID*              10416               0-1.169183180E+002.7372960609E-01+
*       8.8551862391E-01               0
GRID*              10417               0-1.189545758E+002.5927136856E-01+
*       8.7120801089E-01               0
GRID*              10418               0-1.169112549E+002.9045218864E-01+
*       8.2475821489E-01               0
GRID*              10419               0-1.169112526E+002.8217086795E-01+
*       8.6800583960E-01               0
GRID*              10420               0-1.376312085E+001.3575017045E-01+
*       1.0092922352E+00               0
GRID*              10421               0-1.355270322E+001.3790827413E-01+
*       9.9139020114E-01               0
GRID*              10422               0-1.377496660E+002.1922487508E-01+
*       9.8375150074E-01               0
GRID*              10423               0-1.377496660E+001.7374238202E-01+
*       9.9404445987E-01               0
GRID*              10424               0-1.356069594E+002.1165855845E-01+
*       9.5722364666E-01               0
GRID*              10425               0-1.377322881E+002.6371362464E-01+
*       9.2234351538E-01               0
GRID*              10426               0-1.377322881E+002.3330007002E-01+
*       9.6981710572E-01               0
GRID*              10427               0-1.864179358E+00-2.254022042E-01+
*       -9.296075654E-02               0
GRID*              10428               0-1.832902787E+00-1.868662799E-01+
*       -6.195571647E-02               0
GRID*              10429               0-1.807563296E+00-1.518045124E-01+
*       -1.235909698E-01               0
GRID*              10430               0-1.807563296E+00-7.680451239E-02+
*       -1.235909698E-01               0
GRID*              10431               0-1.867473376E+00-1.114640757E-01+
*       -9.399495993E-02               0
GRID*              10432               0-1.867473376E+00-1.864640757E-01+
*       -9.399495993E-02               0
GRID*              10433               0-1.868278282E+00-3.869384219E-02+
*       -9.322603841E-02               0
GRID*              10434               0-1.868278282E+003.6306157807E-02+
*       -9.322603841E-02               0
GRID*              10435               0-1.807563296E+00-1.804512388E-03+
*       -1.235909698E-01               0
GRID*              10436               0-1.836753573E+00-3.894260400E-02+
*       -6.125369014E-02               0
GRID*              10437               0-1.867225238E+00-7.524876181E-02+
*       -9.302765173E-02               0
GRID*              10438               01.8366086359E+00-3.918388463E-01+
*       -8.282725945E-02               0
GRID*              10439               01.8257278025E+00-3.750717279E-01+
*       -8.314160174E-02               0
GRID*              10440               01.8707272820E+00-3.695943268E-01+
*       -9.337319926E-02               0
GRID*              10441               01.8542151618E+00-3.907363912E-01+
*       -6.137195866E-02               0
GRID*              10442               01.3354688847E+00-6.832655159E-01+
*       6.8050204578E-01               0
GRID*              10443               01.3664661989E+00-6.509584057E-01+
*       6.5605425807E-01               0
GRID*              10444               01.3360703854E+00-6.831928543E-01+
*       6.2107386242E-01               0
GRID*              10445               01.3683541341E+00-6.533301511E-01+
*       5.5087222680E-01               0
GRID*              10446               01.3683541341E+00-6.503758164E-01+
*       6.2155942327E-01               0
GRID*              10447               01.3667227980E+00-6.186780877E-01+
*       9.4310171343E-01               0
GRID*              10448               01.3356310852E+00-6.574066137E-01+
*       9.1939331889E-01               0
GRID*              10449               01.3782360785E+00-1.141199317E-02+
*       4.5253293429E-01               0
GRID*              10450               01.3782360785E+002.8405237895E-02+
*       4.5450260588E-01               0
GRID*              10451               01.3770028427E+004.7628934067E-02+
*       4.5603726931E-01               0
GRID*              10452               01.3549395949E+005.6038616505E-02+
*       4.7505092395E-01               0
GRID*              10453               01.4983780437E+006.0359072476E-01+
*       -2.299954084E-01               0
GRID*              10454               01.4737694176E+005.4179807786E-01+
*       -2.299954084E-01               0
GRID*              10455               0-1.337262018E+003.6786804342E-02+
*       -1.066901221E-03               0
GRID*              10456               0-1.337262018E+001.1178680434E-01+
*       -1.066901221E-03               0
GRID*              10457               01.3772290094E+005.8727307211E-02+
*       1.0564898115E+00               0
GRID*              10458               01.3563469869E+006.4171763518E-02+
*       1.0339936096E+00               0
GRID*              10459               01.3778679251E+007.6952497428E-02+
*       1.0532631322E+00               0
GRID*              10460               01.3778679251E+001.2229661033E-01+
*       1.0379483251E+00               0
GRID*              10461               01.1812396406E+00-6.507543014E-01+
*       5.6756297695E-01               0
GRID*              10462               01.2118025017E+00-6.838336523E-01+
*       5.6401222355E-01               0
GRID*              10463               01.1793129035E+00-6.519061316E-01+
*       5.3420583512E-01               0
GRID*              10464               01.2423297474E+008.8409311803E-02+
*       1.4481455942E+00               0
GRID*              10465               01.2115801160E+007.9738991145E-02+
*       1.4195348826E+00               0
GRID*              10466               01.2430016227E+006.4846509065E-02+
*       1.4677769755E+00               0
GRID*              10467               01.2430003162E+00-8.670320657E-03+
*       1.4677769755E+00               0
GRID*              10468               01.3683072512E+00-1.961145648E-02+
*       1.3822790567E+00               0
GRID*              10469               01.3683072512E+004.7914126529E-02+
*       1.3890846198E+00               0
GRID*              10470               01.2423764852E+00-4.357121154E-02+
*       1.4667166747E+00               0
GRID*              10471               01.3680928416E+006.6245319336E-01+
*       2.4394839096E-01               0
GRID*              10472               01.3680928416E+006.5632255744E-01+
*       1.7769941908E-01               0
GRID*              10473               01.1797367830E+006.5510077469E-01+
*       5.2303996646E-01               0
GRID*              10474               01.3558080692E+007.1769840148E-01+
*       -1.622267366E-01               0
GRID*              10475               01.3074815587E+007.1222436977E-01+
*       -2.810721051E-02               0
GRID*              10476               01.2795924685E+006.4035119732E-01+
*       -1.851681166E-02               0
GRID*              10477               01.2777458147E+006.4035119732E-01+
*       4.1050229366E-02               0
GRID*              10478               01.3056349049E+007.1222436977E-01+
*       3.1459830514E-02               0
GRID*              10479               01.1963283835E+007.1426460469E-01+
*       -1.001467572E-01               0
GRID*              10480               01.1236774117E+007.1426460469E-01+
*       -9.723063977E-02               0
GRID*              10481               01.2293922358E+007.1426460469E-01+
*       -5.248394421E-02               0
GRID*              10482               01.0860901729E+007.1137842465E-01+
*       -9.490390411E-02               0
GRID*              10483               01.0537556982E+006.7837080283E-01+
*       -6.316745318E-02               0
GRID*              10484               01.0025483715E+00-5.822317159E-01+
*       -6.150847136E-02               0
GRID*              10485               09.3854213575E-01-5.987636220E-01+
*       -6.150847136E-02               0
GRID*              10486               09.0681700169E-01-6.081933567E-01+
*       -6.214105359E-02               0
GRID*              10487               09.0882587556E-01-6.456415582E-01+
*       -9.319215813E-02               0
GRID*              10488               01.3548274113E+002.8050694513E-01+
*       7.9195105024E-01               0
GRID*              10489               01.3767068434E+002.9509763569E-01+
*       8.0389434725E-01               0
GRID*              10490               01.3767068434E+002.8681631500E-01+
*       8.4714197196E-01               0
GRID*              10491               01.2415411182E+006.8188158328E-01+
*       9.5711704219E-01               0
GRID*              10492               01.2042678601E+006.4345271886E-01+
*       9.7675099200E-01               0
GRID*              10493               01.1739766725E+006.6597565584E-01+
*       1.0249288396E+00               0
GRID*              10494               0-1.190338654E+001.3209895391E-01+
*       4.9821013357E-01               0
GRID*              10495               0-1.169758830E+001.8558527757E-01+
*       5.0585248760E-01               0
GRID*              10496               0-1.169758830E+001.4391203916E-01+
*       4.8372705985E-01               0
GRID*              10497               0-1.171003104E+002.0627646083E-01+
*       5.1688014620E-01               0
GRID*              10498               0-1.191757511E+002.0275337605E-01+
*       5.4308155167E-01               0
GRID*              10499               0-1.212237937E+00-6.774474406E-01+
*       6.6069978913E-02               0
GRID*              10500               0-1.242955237E+00-7.121085597E-01+
*       6.0884801540E-02               0
GRID*              10501               0-1.244802332E+00-7.121085597E-01+
*       1.3184543808E-03               0
GRID*              10502               0-1.243423221E+00-7.153388809E-01+
*       8.7363053497E-02               0
GRID*              10503               0-1.243284286E+00-7.153388809E-01+
*       1.5924082930E-01               0
GRID*              10504               0-1.242738775E+00-7.152020219E-01+
*       1.9383032479E-01               0
GRID*              10505               0-1.843383806E+00-2.072943472E-01+
*       -1.865163364E-01               0
GRID*              10506               0-1.864977937E+00-2.017406566E-01+
*       -1.557045218E-01               0
GRID*              10507               0-1.864977937E+00-1.267406566E-01+
*       -1.557045218E-01               0
GRID*              10508               0-1.849353883E+00-1.936753438E-01+
*       -1.961168103E-01               0
GRID*              10509               0-1.861531763E+00-2.224883777E-01+
*       -1.962241031E-01               0
GRID*              10510               0-1.865077723E+00-8.890398449E-02+
*       -1.570823442E-01               0
GRID*              10511               0-1.826559566E+00-7.167842437E-02+
*       -1.884178313E-01               0
GRID*              10512               01.5007235797E+004.1137973459E-01+
*       -2.014673848E-02               0
GRID*              10513               01.4816039183E+004.5745137864E-01+
*       -2.014673848E-02               0
GRID*              10514               01.4983438262E+004.7939420919E-01+
*       -4.004286557E-02               0
GRID*              10515               01.5088751533E+003.8828774017E-01+
*       -2.174943697E-02               0
GRID*              10516               01.5265377148E+003.9651114339E-01+
*       -4.307584245E-02               0
GRID*              10517               01.4810486930E+004.7762980726E-01+
*       -1.989612709E-02               0
GRID*              10518               01.4900778047E+005.5908627512E-01+
*       -1.989612709E-02               0
GRID*              10519               01.3365712737E+00-6.196931668E-01+
*       3.7442712438E-01               0
GRID*              10520               01.1703548716E+00-2.992654684E-01+
*       7.3782089230E-01               0
GRID*              10521               01.1703548712E+00-2.958798946E-01+
*       6.9399986848E-01               0
GRID*              10522               0-1.498922848E+006.6852432734E-01+
*       -3.213766940E-02               0
GRID*              10523               0-1.549902259E+006.6594807565E-01+
*       -2.183039340E-02               0
GRID*              10524               0-1.553693689E+006.9025333305E-01+
*       -5.396806279E-02               0
GRID*              10525               0-1.535878363E+006.3968275100E-01+
*       -1.555299763E-02               0
GRID*              10526               0-1.539669794E+006.6398800841E-01+
*       -4.769066703E-02               0
GRID*              10527               0-1.519260235E+006.5789993635E-01+
*       -5.366888897E-02               0
GRID*              10528               0-1.490136493E+006.3465058688E-01+
*       -8.667922824E-02               0
GRID*              10529               0-1.447068659E+005.3320148387E-01+
*       -2.284105170E-01               0
GRID*              10530               0-1.477497965E+005.7683875057E-01+
*       -2.284105170E-01               0
GRID*              10531               01.0340697052E+007.1699237818E-01+
*       -9.471314611E-02               0
GRID*              10532               0-1.210087977E+00-6.495477652E-01+
*       -2.201581949E-01               0
GRID*              10533               0-1.174144770E+00-6.821067438E-01+
*       -1.909412083E-01               0
GRID*              10534               03.0402735017E-01-6.561322811E-01+
*       -2.187568652E-01               0
GRID*              10535               0-1.335610194E+001.4942202547E-01+
*       8.2470256737E-04               0
GRID*              10536               0-1.377304863E+00-2.810417538E-01+
*       6.3310246851E-01               0
GRID*              10537               0-1.377304863E+00-2.674075066E-01+
*       5.8876141777E-01               0
GRID*              10538               0-1.356529359E+00-2.434377466E-01+
*       5.9041347199E-01               0
GRID*              10539               0-1.377974444E+00-2.572873123E-01+
*       5.7213718004E-01               0
GRID*              10540               0-1.377974444E+00-2.299821020E-01+
*       5.2228200645E-01               0
GRID*              10541               0-1.492395154E+005.9769837172E-01+
*       -2.288370287E-01               0
GRID*              10542               01.7534648229E+003.5495867014E-01+
*       -2.291111551E-01               0
GRID*              10543               01.7064911542E+003.3012200533E-01+
*       -2.291111551E-01               0
GRID*              10544               01.6934031307E+003.4688223404E-01+
*       -2.084246431E-01               0
GRID*              10545               01.7786067778E+003.6738727860E-01+
*       -2.270591628E-01               0
GRID*              10546               01.7715820042E+003.9359248482E-01+
*       -2.067959937E-01               0
GRID*              10547               01.8039033543E+003.7166181119E-01+
*       -1.959220031E-01               0
GRID*              10548               01.7150776225E+003.4837132782E-01+
*       -2.123578210E-02               0
GRID*              10549               01.6987281960E+003.5859972614E-01+
*       -4.243396144E-02               0
GRID*              10550               0-1.241886018E+007.2033898931E-01+
*       2.3133973355E-01               0
GRID*              10551               0-1.210692832E+006.8824438592E-01+
*       2.0431181040E-01               0
GRID*              10552               0-1.242643128E+007.1790539661E-01+
*       1.9892252419E-01               0
GRID*              10553               0-1.239991480E+00-6.410419834E-01+
*       8.1287011312E-01               0
GRID*              10554               0-1.302796070E+00-6.407588231E-01+
*       8.1624521458E-01               0
GRID*              10555               0-1.331492465E+00-6.773571248E-01+
*       8.0265440652E-01               0
GRID*              10556               0-1.364991462E+00-6.447548837E-01+
*       8.1877649647E-01               0
GRID*              10557               0-1.334657403E+00-6.703154813E-01+
*       8.6096024654E-01               0
GRID*              10558               0-1.365250951E+00-6.447310560E-01+
*       7.9425063900E-01               0
GRID*              10559               0-1.240250968E+00-6.410181557E-01+
*       7.8834425564E-01               0
GRID*              10560               0-1.303055558E+00-6.407349955E-01+
*       7.9171935710E-01               0
GRID*              10561               0-1.170662029E+00-1.780170227E-01+
*       9.8552742512E-01               0
GRID*              10562               0-1.191582392E+00-1.763010312E-01+
*       9.6875425115E-01               0
GRID*              10563               0-1.170662029E+00-1.504035397E-01+
*       1.0239286325E+00               0
GRID*              10564               0-1.196908213E+00-8.063049499E-02+
*       1.0234277423E+00               0
GRID*              10565               0-1.377862983E+00-4.990786520E-02+
*       1.0437872591E+00               0
GRID*              10566               0-1.377862983E+00-9.479132043E-02+
*       1.0366275939E+00               0
GRID*              10567               0-1.357323344E+00-9.994266786E-02+
*       1.0163289535E+00               0
GRID*              10568               0-1.378210309E+00-1.124551171E-01+
*       1.0304634456E+00               0
GRID*              10569               0-1.378210309E+00-1.652449735E-01+
*       1.0105705286E+00               0
GRID*              10570               0-1.376989477E+00-1.910263775E-01+
*       1.0006512006E+00               0
GRID*              10571               0-1.170989838E+002.9534617351E-01+
*       8.0326626668E-01               0
GRID*              10572               0-1.192947058E+002.8138122456E-01+
*       7.9120674327E-01               0
GRID*              10573               0-1.377047410E+002.8582063447E-01+
*       8.8202381056E-01               0
GRID*              10574               0-1.356244168E+002.6196116311E-01+
*       8.7940123186E-01               0
GRID*              10575               0-1.377946706E+002.7783402453E-01+
*       8.9877520041E-01               0
GRID*              10576               01.1798314278E+006.5496350574E-01+
*       3.7480702300E-01               0
GRID*              10577               0-1.881309548E+003.9529538735E-01+
*       -9.403255275E-02               0
GRID*              10578               0-1.881309548E+004.6770737930E-01+
*       -9.403255275E-02               0
GRID*              10579               0-1.848159326E+004.1811152355E-01+
*       -8.357808383E-02               0
GRID*              10580               0-1.853459168E+003.9062341429E-01+
*       -6.275697831E-02               0
GRID*              10581               0-1.837749345E+003.9209147557E-01+
*       -8.326995664E-02               0
GRID*              10582               0-1.826593978E+003.7459823307E-01+
*       -8.329601637E-02               0
GRID*              10583               0-1.870899567E+003.6927533936E-01+
*       -9.372442556E-02               0
GRID*              10584               0-1.865599725E+004.6917544059E-01+
*       -1.145455311E-01               0
GRID*              10585               0-1.865599725E+003.9676344863E-01+
*       -1.145455311E-01               0
GRID*              10586               0-1.833005830E+004.5376982598E-01+
*       -1.248772511E-01               0
GRID*              10587               0-1.832078130E+004.1873836988E-01+
*       -1.248654799E-01               0
GRID*              10588               0-1.832634456E+004.5292861102E-01+
*       -1.456516688E-01               0
GRID*              10589               0-1.821294136E+004.0208634233E-01+
*       -1.041171219E-01               0
GRID*              10590               0-1.818280480E+004.5695981998E-01+
*       -2.151614902E-02               0
GRID*              10591               0-1.834338666E+004.7207013922E-01+
*       -5.191348946E-02               0
GRID*              10592               0-1.797509087E+004.0612932471E-01+
*       -2.151614902E-02               0
GRID*              10593               0-1.786125130E+003.8111156837E-01+
*       -2.110064669E-02               0
GRID*              10594               0-1.768785899E+003.9209236644E-01+
*       -4.220883938E-02               0
GRID*              10595               0-1.851059873E+004.8850195819E-01+
*       -8.401614902E-02               0
GRID*              10596               0-1.865065632E+005.0395943941E-01+
*       -1.149954352E-01               0
GRID*              10597               0-1.831963007E+005.0935321037E-01+
*       -1.255957689E-01               0
GRID*              10598               0-1.832471736E+004.8855382480E-01+
*       -1.253271552E-01               0
GRID*              10599               0-1.882028740E+005.0233947736E-01+
*       -9.289734044E-02               0
GRID*              10600               01.3673428869E+006.6932730635E-01+
*       3.8098969926E-01               0
GRID*              10601               0-1.605158067E+003.4602964990E-01+
*       -2.114925648E-02               0
GRID*              10602               0-1.649044244E+003.2534991307E-01+
*       -2.114925648E-02               0
GRID*              10603               0-1.601487718E+003.6031423113E-01+
*       -4.288479738E-02               0
GRID*              10604               0-1.586197851E+003.5143788741E-01+
*       -2.173554090E-02               0
GRID*              10605               0-1.671099626E+003.1525671833E-01+
*       -2.245581284E-02               0
GRID*              10606               0-1.683377925E+003.4068006126E-01+
*       -4.297813403E-02               0
GRID*              10607               0-1.689918853E+003.2121717545E-01+
*       -2.052232119E-02               0
GRID*              10608               0-1.746922763E+003.5033327387E-01+
*       -2.052232119E-02               0
GRID*              10609               0-9.283217091E-01-6.489011479E-01+
*       -3.169686224E-02               0
GRID*              10610               0-9.648209727E-01-6.816357582E-01+
*       -6.212039232E-02               0
GRID*              10611               0-9.666257822E-01-6.489317268E-01+
*       -3.042353008E-02               0
GRID*              10612               0-1.021861951E+00-6.503096474E-01+
*       -2.179550602E-01               0
GRID*              10613               0-1.024799512E+00-6.814257715E-01+
*       -1.872480997E-01               0
GRID*              10614               01.4157332765E+006.7636383849E-02+
*       -1.876317851E-01               0
GRID*              10615               01.2428128375E+002.6278828869E-01+
*       1.4222761924E+00               0
GRID*              10616               01.2428111072E+003.3070039053E-01+
*       1.3941463732E+00               0
GRID*              10617               01.3770993675E+002.4930158164E-01+
*       9.6613839271E-01               0
GRID*              10618               01.3563383514E+002.2194282656E-01+
*       9.5465501217E-01               0
GRID*              10619               01.3770993675E+002.6608226656E-01+
*       9.1156804778E-01               0
GRID*              10620               01.3765619312E+001.4508021428E-01+
*       1.0296161470E+00               0
GRID*              10621               01.3559286069E+001.4505919061E-01+
*       1.0047906225E+00               0
GRID*              10622               01.3781166232E+001.6217524325E-01+
*       1.0203041954E+00               0
GRID*              10623               01.3781166232E+002.1261097761E-01+
*       9.9346790673E-01               0
GRID*              10624               0-1.087847812E+00-7.116682752E-01+
*       -9.521408026E-02               0
GRID*              10625               0-1.160500142E+00-7.116682752E-01+
*       -9.812982487E-02               0
GRID*              10626               0-1.513527641E+007.2945448486E-01+
*       -1.578759825E-01               0
GRID*              10627               01.8694924543E+00-1.872988872E-01+
*       -9.455088061E-02               0
GRID*              10628               01.8694924543E+00-1.122988872E-01+
*       -9.455088061E-02               0
GRID*              10629               0-4.588116454E-01-6.563610129E-01+
*       -3.125386494E-02               0
GRID*              10630               01.6379957300E+003.2029811811E-01+
*       -2.293134881E-01               0
GRID*              10631               01.6884398613E+003.2394878657E-01+
*       -2.293134881E-01               0
GRID*              10632               01.6125291056E+003.1817678657E-01+
*       -2.281446228E-01               0
GRID*              10633               0-1.169670310E+00-2.329968146E-01+
*       9.5176225210E-01               0
GRID*              10634               0-1.169670310E+00-1.936989690E-01+
*       9.7322239575E-01               0
GRID*              10635               0-1.170637345E+00-2.518881928E-01+
*       9.4063294989E-01               0
GRID*              10636               0-1.169329775E+001.2765755548E-01+
*       4.7493542191E-01               0
GRID*              10637               0-1.859917278E+005.3432272469E-02+
*       -1.561670431E-01               0
GRID*              10638               0-1.828612780E+006.1871712937E-02+
*       -1.882320825E-01               0
GRID*              10639               0-1.859917278E+00-2.156772753E-02+
*       -1.561670431E-01               0
GRID*              10640               0-1.169749752E+002.9792344224E-01+
*       6.6804004435E-01               0
GRID*              10641               0-1.169749744E+002.9103913011E-01+
*       6.0848477862E-01               0
GRID*              10642               0-1.708200080E+003.3523272125E-01+
*       -2.284028847E-01               0
GRID*              10643               0-1.694257254E+003.4921109821E-01+
*       -2.075113305E-01               0
GRID*              10644               0-1.689063617E+003.2808197440E-01+
*       -2.291084457E-01               0
GRID*              10645               0-1.629993309E+003.2356851385E-01+
*       -2.291084457E-01               0
GRID*              10646               01.8666438629E+007.4834599690E-02+
*       -9.372069362E-02               0
GRID*              10647               0-1.169824544E+003.0026462391E-01+
*       6.9739582923E-01               0
GRID*              10648               0-1.190179501E+002.8336559858E-01+
*       7.0891814365E-01               0
GRID*              10649               0-1.169104928E+003.0359391871E-01+
*       7.1555554015E-01               0
GRID*              10650               0-1.169104940E+002.9994332012E-01+
*       7.6144952888E-01               0
GRID*              10651               0-1.170707214E+002.9922679791E-01+
*       7.8376167980E-01               0
GRID*              10652               0-1.242556723E+007.2194142790E-01+
*       5.2255365588E-01               0
GRID*              10653               0-1.866708063E+007.4840487449E-02+
*       -9.324630907E-02               0
GRID*              10654               0-1.838274140E+001.1085642815E-01+
*       -6.253521481E-02               0
GRID*              10655               0-1.870316025E+001.1101594070E-01+
*       -9.428890574E-02               0
GRID*              10656               0-1.870316025E+001.8601594070E-01+
*       -9.428890574E-02               0
GRID*              10657               0-1.868663828E+002.2331935556E-01+
*       -9.428465708E-02               0
GRID*              10658               01.5202106694E+003.7176709183E-01+
*       -2.132640548E-02               0
GRID*              10659               01.5597105964E+003.5632725886E-01+
*       -2.132640548E-02               0
GRID*              10660               01.3675393272E+00-3.281375981E-01+
*       1.3123887336E+00               0
GRID*              10661               01.3357829590E+00-3.659656394E-01+
*       1.3248087959E+00               0
GRID*              10662               01.1701478635E+00-2.876855463E-01+
*       6.5525865397E-01               0
GRID*              10663               01.1915944002E+00-2.724584926E-01+
*       6.6852834497E-01               0
GRID*              10664               01.1701964890E+00-2.932985131E-01+
*       6.7243691830E-01               0
GRID*              10665               01.2414526558E+00-7.042098306E-01+
*       8.6367894051E-01               0
GRID*              10666               01.2104490653E+00-6.704688295E-01+
*       8.5578378951E-01               0
GRID*              10667               01.1699916308E+00-2.567187614E-01+
*       5.7139810371E-01               0
GRID*              10668               01.1699916320E+00-2.294135511E-01+
*       5.2154293012E-01               0
GRID*              10669               01.3673195889E+006.6620405225E-01+
*       5.2167960352E-01               0
GRID*              10670               0-1.556484034E+006.8191106274E-01+
*       -1.036724957E-01               0
GRID*              10671               0-1.617032617E+007.1951492943E-01+
*       -1.131660361E-01               0
GRID*              10672               0-1.538550129E+007.1951492943E-01+
*       -1.134404151E-01               0
GRID*              10673               0-1.570835276E+007.1951492943E-01+
*       -5.059404716E-02               0
GRID*              10674               0-1.655460625E+007.1803873910E-01+
*       -1.137499653E-01               0
GRID*              10675               0-1.673343083E+006.8029631947E-01+
*       -1.239012158E-01               0
GRID*              10676               0-1.672754914E+006.8180758128E-01+
*       -1.025758378E-01               0
GRID*              10677               0-1.699233457E+006.6152086544E-01+
*       -7.290488173E-02               0
GRID*              10678               0-1.609263284E+007.1803873910E-01+
*       -5.117797639E-02               0
GRID*              10679               0-1.663587291E+007.0243331007E-01+
*       -8.196243614E-02               0
GRID*              10680               0-1.585044857E+007.1883854068E-01+
*       -2.183039340E-02               0
GRID*              10681               0-1.671763284E+006.8678873910E-01+
*       -5.117797639E-02               0
GRID*              10682               0-1.647544857E+006.8758854068E-01+
*       -2.183039340E-02               0
GRID*              10683               0-1.504010324E+006.1754449041E-01+
*       -2.161397232E-02               0
GRID*              10684               0-1.524347711E+006.0692009942E-01+
*       -4.314519189E-02               0
GRID*              10685               01.4610118957E+005.1209052178E-01+
*       -2.279635795E-01               0
GRID*              10686               01.1101404715E+00-3.737355446E-01+
*       -1.259425126E-01               0
GRID*              10687               01.0878892232E+00-3.551421270E-01+
*       -1.873632709E-01               0
GRID*              10688               01.1300610024E+00-2.832092419E-01+
*       -1.873632709E-01               0
GRID*              10689               01.0888010027E+00-3.926312455E-01+
*       -1.885792418E-01               0
GRID*              10690               01.1682666778E+00-3.967123708E-01+
*       -1.885792418E-01               0
GRID*              10691               01.1954776622E+006.1019773137E-01+
*       -1.885424002E-01               0
GRID*              10692               0-1.507439864E+00-3.885076800E-01+
*       -2.076962065E-02               0
GRID*              10693               01.1795413021E+006.5994858490E-01+
*       2.2561061101E-01               0
GRID*              10694               01.1795413078E+006.6869036764E-01+
*       1.6391038502E-01               0
GRID*              10695               0-1.759662114E+00-3.488658906E-01+
*       -2.293968015E-01               0
GRID*              10696               0-1.714883957E+00-3.134032946E-01+
*       -2.293968015E-01               0
GRID*              10697               01.8697193790E+002.2614853216E-01+
*       -1.568924441E-01               0
GRID*              10698               01.8430480243E+002.5933299853E-01+
*       -1.880017499E-01               0
GRID*              10699               0-1.367883381E+00-5.623928359E-01+
*       1.0936489045E+00               0
GRID*              10700               0-1.367883381E+00-5.402755828E-01+
*       1.1414172025E+00               0
GRID*              10701               0-1.337358483E+00-5.603064512E-01+
*       1.1594161651E+00               0
GRID*              10702               0-1.367341065E+00-5.731930214E-01+
*       1.0677083231E+00               0
GRID*              10703               0-1.368225049E+00-5.210007129E-01+
*       1.1703341151E+00               0
GRID*              10704               0-1.368211699E+00-4.102308401E-01+
*       1.2222640280E+00               0
GRID*              10705               0-1.368211699E+00-3.866603995E-01+
*       1.2814352954E+00               0
GRID*              10706               0-1.497348757E+00-4.592729643E-01+
*       -6.450926704E-02               0
GRID*              10707               0-1.497357054E+00-4.978861159E-01+
*       -6.450982858E-02               0
GRID*              10708               0-1.481944646E+00-4.587839179E-01+
*       -4.340925402E-02               0
GRID*              10709               0-1.514160749E+00-5.196302499E-01+
*       -6.157535303E-02               0
GRID*              10710               0-1.481645052E+00-4.788779837E-01+
*       -4.275112817E-02               0
GRID*              10711               0-1.498748341E+00-4.805280519E-01+
*       -4.047477846E-02               0
GRID*              10712               0-1.481675200E+00-4.580707319E-01+
*       -2.056645215E-02               0
GRID*              10713               01.2427491365E+00-4.412117395E-01+
*       1.3241246329E+00               0
GRID*              10714               01.2427504850E+00-3.800933419E-01+
*       1.3649600372E+00               0
GRID*              10715               01.3774980846E+002.9830481933E-01+
*       6.6810455994E-01               0
GRID*              10716               01.3774980846E+002.9142050720E-01+
*       6.0854929421E-01               0
GRID*              10717               01.3772280242E+003.0032058429E-01+
*       6.9687761545E-01               0
GRID*              10718               01.3570518220E+002.8306656693E-01+
*       7.0818037378E-01               0
GRID*              10719               01.3785737454E+003.0323892668E-01+
*       7.1533598406E-01               0
GRID*              10720               01.3785737454E+002.9958832809E-01+
*       7.6122997280E-01               0
GRID*              10721               01.3768705154E+002.9860105630E-01+
*       7.8387790620E-01               0
GRID*              10722               0-1.376984288E+00-2.989064033E-01+
*       7.3813736964E-01               0
GRID*              10723               0-1.376984288E+00-2.955208295E-01+
*       6.9431634582E-01               0
GRID*              10724               0-1.356448613E+00-2.822701738E-01+
*       7.4906553073E-01               0
GRID*              10725               01.1700760427E+007.9538747347E-02+
*       4.5020798559E-01               0
GRID*              10726               01.1700760423E+001.2280918588E-01+
*       4.6976750192E-01               0
GRID*              10727               01.1907904076E+006.4539977871E-02+
*       4.6782498461E-01               0
GRID*              10728               01.3675901543E+00-6.387601269E-01+
*       8.0881005458E-01               0
GRID*              10729               01.3675901543E+00-6.298932899E-01+
*       8.7649938224E-01               0
GRID*              10730               01.3372063356E+00-6.741751929E-01+
*       7.9507766785E-01               0
GRID*              10731               01.3683661288E+00-6.401180803E-01+
*       7.8482757551E-01               0
GRID*              10732               01.3683661288E+00-6.468372571E-01+
*       7.1381750385E-01               0
GRID*              10733               0-1.376589476E+00-2.154335702E-01+
*       4.9858537807E-01               0
GRID*              10734               0-1.355912668E+00-1.896755389E-01+
*       5.1409040021E-01               0
GRID*              10735               0-1.378073140E+00-2.008886203E-01+
*       4.8627980078E-01               0
GRID*              10736               0-1.378073140E+00-1.473855335E-01+
*       4.6684470883E-01               0
GRID*              10737               01.2427444391E+00-7.109324824E-01+
*       8.3132566012E-01               0
GRID*              10738               01.1798115298E+00-6.461211481E-01+
*       7.9405843108E-01               0
GRID*              10739               01.2418573438E+00-3.502827526E-01+
*       1.3855469089E+00               0
GRID*              10740               01.3451518878E+00-7.124352115E-01+
*       -7.571393704E-02               0
GRID*              10741               01.3071299567E+00-7.124352115E-01+
*       -2.779080534E-02               0
GRID*              10742               01.3052586346E+00-7.124352115E-01+
*       3.1776283057E-02               0
GRID*              10743               0-1.849586958E+004.8674230186E-01+
*       -1.663477778E-01               0
GRID*              10744               0-1.882180854E+005.0214791647E-01+
*       -1.560160578E-01               0
GRID*              10745               0-1.882180854E+004.2973592451E-01+
*       -1.560160578E-01               0
GRID*              10746               0-1.848659259E+004.5171084576E-01+
*       -1.663360066E-01               0
GRID*              10747               0-1.847777825E+004.1737311698E-01+
*       -1.664814459E-01               0
GRID*              10748               0-1.881299420E+003.9539819573E-01+
*       -1.561614971E-01               0
GRID*              10749               0-1.817228701E+004.5643732600E-01+
*       -2.298258613E-01               0
GRID*              10750               0-1.798614148E+004.0878284840E-01+
*       -2.298258613E-01               0
GRID*              10751               0-1.866156052E+005.0336568173E-01+
*       -1.353317200E-01               0
GRID*              10752               0-1.866156052E+004.3095368977E-01+
*       -1.353317200E-01               0
GRID*              10753               0-1.833053427E+005.0875945269E-01+
*       -1.459320537E-01               0
GRID*              10754               0-1.817819717E+005.1537634137E-01+
*       -1.770928838E-01               0
GRID*              10755               0-1.865228352E+003.9592223367E-01+
*       -1.353199488E-01               0
GRID*              10756               0-1.820922763E+004.0124512738E-01+
*       -1.248915396E-01               0
GRID*              10757               0-1.377558633E+00-2.842266028E-02+
*       1.0473235507E+00               0
GRID*              10758               0-1.854444359E+003.7927020613E-01+
*       -1.145715908E-01               0
GRID*              10759               0-1.774309144E+003.6500682743E-01+
*       -2.110819269E-02               0
GRID*              10760               01.7981315181E+00-4.057441192E-01+
*       -2.187411113E-02               0
GRID*              10761               01.8189025037E+00-4.565798198E-01+
*       -2.187411113E-02               0
GRID*              10762               01.8157678085E+00-4.971361382E-01+
*       -2.187411113E-02               0
GRID*              10763               01.8355029419E+00-4.713331325E-01+
*       -5.309402437E-02               0
GRID*              10764               01.8351666020E+00-4.368418343E-01+
*       -5.237287052E-02               0
GRID*              10765               01.8338325315E+00-4.924450328E-01+
*       -5.200587049E-02               0
GRID*              10766               01.8647279765E+00-5.063259380E-01+
*       -6.135167260E-02               0
GRID*              10767               01.8516787222E+00-4.156997699E-01+
*       -8.437411113E-02               0
GRID*              10768               01.8516787222E+00-4.881117618E-01+
*       -8.437411113E-02               0
GRID*              10769               01.8825741672E+00-5.019926670E-01+
*       -9.371991324E-02               0
GRID*              10770               01.8825741672E+00-4.295806750E-01+
*       -9.371991324E-02               0
GRID*              10771               01.8130932753E+00-5.184562360E-01+
*       -2.190741683E-02               0
GRID*              10772               01.7982380039E+00-5.190826435E-01+
*       -4.291535009E-02               0
GRID*              10773               01.8311579983E+00-5.137651306E-01+
*       -5.203917618E-02               0
GRID*              10774               01.8490041890E+00-5.094318596E-01+
*       -8.440741683E-02               0
GRID*              10775               01.8809037568E+00-5.231045673E-01+
*       -9.263175936E-02               0
GRID*              10776               01.8659060964E+00-5.033511224E-01+
*       -1.148724954E-01               0
GRID*              10777               01.8331964167E+00-4.900904888E-01+
*       -1.458329749E-01               0
GRID*              10778               01.8321991528E+00-4.531302217E-01+
*       -1.259211966E-01               0
GRID*              10779               01.8650430040E+00-4.685503956E-01+
*       -1.360487012E-01               0
GRID*              10780               01.8659060964E+00-4.309391304E-01+
*       -1.148724954E-01               0
GRID*              10781               01.8646313014E+00-3.961918319E-01+
*       -1.144540602E-01               0
GRID*              10782               01.8309243578E+00-4.183829232E-01+
*       -1.255027613E-01               0
GRID*              10783               01.8196318219E+00-4.016692330E-01+
*       -1.042224627E-01               0
GRID*              10784               01.8822378273E+00-3.950893768E-01+
*       -9.299875939E-02               0
GRID*              10785               01.7857077360E+00-3.811011138E-01+
*       -2.102143714E-02               0
GRID*              10786               01.7681154242E+00-3.913592117E-01+
*       -4.146443301E-02               0
GRID*              10787               01.5973129322E+003.4262890587E-01+
*       -2.110385828E-02               0
GRID*              10788               01.5949314093E+003.5870933678E-01+
*       -4.268893915E-02               0
GRID*              10789               01.6300596446E+003.1501049766E-01+
*       -2.110385828E-02               0
GRID*              10790               01.6474655921E+003.0113332954E-01+
*       -2.207304584E-02               0
GRID*              10791               01.6807902899E+003.2831816395E-01+
*       -2.207304584E-02               0
GRID*              10792               01.2418906385E+00-6.322379582E-01+
*       1.0925052687E+00               0
GRID*              10793               01.3676582348E+00-6.256978662E-01+
*       9.1023022301E-01               0
GRID*              10794               01.1484289456E+00-2.471308086E-01+
*       -1.876172454E-01               0
GRID*              10795               01.3773660705E+00-2.102684199E-01+
*       5.2722487415E-01               0
GRID*              10796               01.3773660705E+00-2.540554784E-01+
*       5.6329447572E-01               0
GRID*              10797               01.3559115556E+00-2.421772459E-01+
*       5.8430957205E-01               0
GRID*              10798               01.2071529242E+00-3.995552457E-01+
*       -1.873225313E-01               0
GRID*              10799               0-1.843759614E+006.2557071276E-01+
*       -1.662030653E-01               0
GRID*              10800               0-1.873541956E+006.5609408981E-01+
*       -1.564911155E-01               0
GRID*              10801               0-1.765877175E+006.1556663995E-01+
*       -1.560468537E-01               0
GRID*              10802               0-1.828949722E+006.4154305035E-01+
*       -1.667042590E-01               0
GRID*              10803               0-1.799167380E+006.1101967330E-01+
*       -1.764162088E-01               0
GRID*              10804               0-1.847307681E+006.7701209687E-01+
*       -1.554711994E-01               0
GRID*              10805               0-1.805517070E+006.6412666158E-01+
*       -1.670854018E-01               0
GRID*              10806               0-1.825141642E+007.0155162820E-01+
*       -1.565768850E-01               0
GRID*              10807               0-1.872515673E+006.8000293028E-01+
*       -1.239800839E-01               0
GRID*              10808               0-1.827923439E+006.6545189082E-01+
*       -1.341932275E-01               0
GRID*              10809               0-1.765882894E+006.1556225488E-01+
*       -1.143792751E-01               0
GRID*              10810               0-1.848615929E+006.7069389624E-01+
*       -9.276877871E-02               0
GRID*              10811               0-1.805305269E+006.5813562305E-01+
*       -8.259879646E-02               0
GRID*              10812               0-1.826716731E+006.6284497672E-01+
*       -6.148008394E-02               0
GRID*              10813               0-1.781342190E+006.8636754497E-01+
*       -1.658048611E-01               0
GRID*              10814               0-1.728897750E+007.2379251160E-01+
*       -1.552825637E-01               0
GRID*              10815               0-1.800966762E+007.2379251160E-01+
*       -1.552963443E-01               0
GRID*              10816               01.6466048856E+006.8171353688E-01+
*       -5.042163467E-02               0
GRID*              10817               01.6343637707E+006.6603261501E-01+
*       -2.211822894E-02               0
GRID*              10818               01.6436072410E+006.5114254880E-01+
*       -4.441794462E-02               0
GRID*              10819               01.6371600845E+006.4135993379E-01+
*       -2.229971568E-02               0
GRID*              10820               01.1701140925E+003.0104280109E-01+
*       6.7538352753E-01               0
GRID*              10821               01.1701140746E+002.9379251185E-01+
*       6.2246012548E-01               0
GRID*              10822               0-1.461723483E+00-4.917835712E-01+
*       -2.287501642E-01               0
GRID*              10823               0-1.484594086E+00-5.017486221E-01+
*       -2.077628107E-01               0
GRID*              10824               0-1.482539604E+00-4.403292385E-01+
*       -2.287501642E-01               0
GRID*              10825               0-1.493493809E+00-4.145851532E-01+
*       -2.288183115E-01               0
GRID*              10826               0-1.516570024E+00-4.144145920E-01+
*       -2.076678742E-01               0
GRID*              10827               0-1.174227896E+00-6.482437371E-01+
*       -2.207830134E-01               0
GRID*              10828               0-1.097622420E+00-6.496677206E-01+
*       -2.207830134E-01               0
GRID*              10829               0-1.367620957E+002.5225234737E-01+
*       1.3716316192E+00               0
GRID*              10830               0-1.179435079E+003.8367310951E-01+
*       1.2697525326E+00               0
GRID*              10831               0-1.179435079E+003.3023733482E-01+
*       1.3086871157E+00               0
GRID*              10832               0-1.209362963E+004.0442724339E-01+
*       1.2955823382E+00               0
GRID*              10833               0-1.178677832E+004.1317023228E-01+
*       1.2492799264E+00               0
GRID*              10834               0-1.178677832E+004.5793411153E-01+
*       1.2156514231E+00               0
GRID*              10835               0-1.169399861E+00-3.016947179E-01+
*       8.3509793321E-01               0
GRID*              10836               0-1.169399867E+00-3.154335044E-01+
*       7.7901825258E-01               0
GRID*              10837               0-1.367092627E+00-3.740831114E-01+
*       1.3124087468E+00               0
GRID*              10838               0-1.336484373E+00-3.766091923E-01+
*       1.3389799794E+00               0
GRID*              10839               0-1.377708185E+001.5205950422E-01+
*       9.9902884399E-01               0
GRID*              10840               0-1.170183840E+002.8459334821E-02+
*       4.5455017624E-01               0
GRID*              10841               0-1.170183840E+00-1.135789624E-02+
*       4.5258050464E-01               0
GRID*              10842               0-1.191524989E+00-2.024909335E-02+
*       4.6915999926E-01               0
GRID*              10843               0-1.169808065E+004.7667398120E-02+
*       4.5570232726E-01               0
GRID*              10844               0-1.366575654E+006.5606806945E-01+
*       6.8374163886E-01               0
GRID*              10845               0-1.336200686E+006.8775403960E-01+
*       6.8264201464E-01               0
GRID*              10846               0-1.368374979E+006.5823816776E-01+
*       6.6107611635E-01               0
GRID*              10847               01.7670553213E+00-6.017128452E-01+
*       -6.382581860E-02               0
GRID*              10848               01.8104799370E+00-6.301107930E-01+
*       -1.041666805E-01               0
GRID*              10849               01.7874222243E+00-6.091734937E-01+
*       -4.282524518E-02               0
GRID*              10850               01.7660835487E+00-6.387071260E-01+
*       -1.354257699E-01               0
GRID*              10851               01.7660834457E+00-6.387071941E-01+
*       -9.375911070E-02               0
GRID*              10852               01.7853489943E+00-6.764315468E-01+
*       -1.028878664E-01               0
GRID*              10853               01.7619182796E+00-6.776335805E-01+
*       -1.244116090E-01               0
GRID*              10854               01.7934959693E+00-7.262009494E-01+
*       -8.371064959E-02               0
GRID*              10855               01.8163180078E+00-6.945702590E-01+
*       -5.243539840E-02               0
GRID*              10856               01.7974977646E+00-6.893398121E-01+
*       -7.321964564E-02               0
GRID*              10857               01.8181397019E+00-6.730199818E-01+
*       -5.116677289E-02               0
GRID*              10858               01.7739911484E+00-6.592299294E-01+
*       -4.179332251E-02               0
GRID*              10859               01.7813471989E+00-7.132926841E-01+
*       -1.133788704E-01               0
GRID*              10860               01.7267801591E+00-6.773777224E-01+
*       -1.477964679E-01               0
GRID*              10861               01.7256029030E+00-6.763295101E-01+
*       -1.249757314E-01               0
GRID*              10862               01.7850508867E+00-6.204080619E-01+
*       -2.066610707E-02               0
GRID*              10863               01.7960983026E+00-6.635800314E-01+
*       -2.112721544E-02               0
GRID*              10864               01.7749697489E+00-5.982836574E-01+
*       -4.041717074E-02               0
GRID*              10865               01.7290241973E+00-6.403860991E-01+
*       -1.870897283E-01               0
GRID*              10866               01.7131515223E+00-6.778546618E-01+
*       -1.779366838E-01               0
GRID*              10867               01.7042801807E+00-6.618777306E-01+
*       -2.071082545E-01               0
GRID*              10868               01.7494668989E+00-6.791587323E-01+
*       -1.773725613E-01               0
GRID*              10869               01.7493263008E+00-6.522275923E-01+
*       -2.079597348E-01               0
GRID*              10870               01.7836419996E+00-6.347188268E-01+
*       -2.292033462E-01               0
GRID*              10871               01.6923195657E+00-6.561597540E-01+
*       -2.292033462E-01               0
GRID*              10872               01.7750017906E+00-6.078282656E-01+
*       -2.087146142E-01               0
GRID*              10873               01.7976617532E+00-6.663881935E-01+
*       -2.075690996E-01               0
GRID*              10874               01.7978023513E+00-6.933193335E-01+
*       -1.769819261E-01               0
GRID*              10875               01.7825244550E+00-7.143408964E-01+
*       -1.361996069E-01               0
GRID*              10876               01.7104766425E+00-7.143408964E-01+
*       -1.361750921E-01               0
GRID*              10877               01.8176442155E+00-4.786742463E-01+
*       -2.296243833E-01               0
GRID*              10878               01.8032802902E+00-5.731296106E-01+
*       -2.296243833E-01               0
GRID*              10879               01.8023556450E+00-4.791234444E-01+
*       -2.082194853E-01               0
GRID*              10880               01.8824142472E+00-5.024240817E-01+
*       -1.557593720E-01               0
GRID*              10881               01.8824142472E+00-4.300120898E-01+
*       -1.557593720E-01               0
GRID*              10882               01.8179089401E+00-4.561566103E-01+
*       -2.285951020E-01               0
GRID*              10883               01.8344884140E+00-4.351040512E-01+
*       -1.991013960E-01               0
GRID*              10884               01.7997478827E+00-4.076313845E-01+
*       -2.285951020E-01               0
GRID*              10885               0-1.169504359E+002.1929403277E-01+
*       5.3090460917E-01               0
GRID*              10886               01.1696292275E+003.0682048907E-01+
*       7.4367418073E-01               0
GRID*              10887               01.1696292204E+003.0718282583E-01+
*       7.9108885507E-01               0
GRID*              10888               01.1900656603E+002.8570033190E-01+
*       7.9581788257E-01               0
GRID*              10889               01.1711709733E+003.0710255872E-01+
*       7.2023846848E-01               0
GRID*              10890               01.1922826422E+002.8590612031E-01+
*       7.1154812768E-01               0
GRID*              10891               01.1701396017E+002.8654110086E-01+
*       8.8166179303E-01               0
GRID*              10892               01.1701396152E+002.9858219062E-01+
*       8.3331552463E-01               0
GRID*              10893               01.1915833409E+002.6260276455E-01+
*       8.7920811191E-01               0
GRID*              10894               01.1697943309E+001.4414794278E-01+
*       4.7947446262E-01               0
GRID*              10895               01.1694643164E+001.1815935367E-02+
*       4.3974745367E-01               0
GRID*              10896               01.1694643169E+006.0535292174E-02+
*       4.4563730248E-01               0
GRID*              10897               01.1698711868E+00-1.164747003E-02+
*       4.3810204073E-01               0
GRID*              10898               01.1917466989E+00-2.057252475E-02+
*       4.5999574082E-01               0
GRID*              10899               0-4.577157489E-017.1806692882E-01+
*       -9.364745305E-02               0
GRID*              10900               0-6.094713495E-017.1878667794E-01+
*       -1.560981532E-01               0
GRID*              10901               0-1.556215751E+006.2905836001E-01+
*       -3.708421720E-02               0
GRID*              10902               0-1.515468805E+006.3359467894E-01+
*       -2.153121957E-02               0
GRID*              10903               0-1.575937099E+006.1812660413E-01+
*       -1.555299763E-02               0
GRID*              10904               0-1.518780225E+007.1239613331E-01+
*       -1.159248165E-01               0
GRID*              10905               0-1.364899678E+00-7.112287750E-01+
*       -9.939094433E-02               0
GRID*              10906               0-1.398073299E+00-6.786110258E-01+
*       -6.714353456E-02               0
GRID*              10907               0-6.098677964E-017.1734877949E-01+
*       -9.352304116E-02               0
GRID*              10908               0-1.451107569E+00-6.516760310E-01+
*       -3.406508146E-02               0
GRID*              10909               0-1.456239517E+00-6.840109306E-01+
*       -6.557084652E-02               0
GRID*              10910               0-1.459244931E+00-6.868991865E-01+
*       -1.907221411E-01               0
GRID*              10911               0-1.391232169E+00-6.532550673E-01+
*       -2.207339127E-01               0
GRID*              10912               0-1.455338360E+00-6.563145679E-01+
*       -2.207339127E-01               0
GRID*              10913               0-1.513248934E+00-6.504033819E-01+
*       -1.984732782E-01               0
GRID*              10914               0-1.482384238E+00-5.894309368E-01+
*       -1.757761869E-01               0
GRID*              10915               0-1.492477572E+00-6.560459618E-01+
*       -2.199882285E-01               0
GRID*              10916               0-1.540751999E+00-6.810994077E-01+
*       -2.199882285E-01               0
GRID*              10917               06.0809662064E-01-6.562117558E-01+
*       -2.186750756E-01               0
GRID*              10918               01.3770538432E+001.4414568594E-01+
*       4.8406374464E-01               0
GRID*              10919               01.3560855566E+001.3225481466E-01+
*       4.9806132773E-01               0
GRID*              10920               01.3770538432E+001.8581892435E-01+
*       5.0618917240E-01               0
GRID*              10921               01.3770493415E+002.0599338232E-01+
*       5.1770810629E-01               0
GRID*              10922               01.3562098498E+002.0208832435E-01+
*       5.4395756864E-01               0
GRID*              10923               0-1.601553762E+003.2226957525E-01+
*       -2.288790384E-01               0
GRID*              10924               0-1.169865918E+00-2.824722290E-01+
*       6.6954695202E-01               0
GRID*              10925               0-1.169865922E+00-3.085481236E-01+
*       7.1197420501E-01               0
GRID*              10926               0-1.191495071E+00-2.658380001E-01+
*       6.6479785965E-01               0
GRID*              10927               0-1.170379104E+00-2.772116090E-01+
*       6.5047172085E-01               0
GRID*              10928               0-1.170379104E+00-2.692349889E-01+
*       6.0220276918E-01               0
GRID*              10929               0-1.169792535E+00-2.641269610E-01+
*       5.7929794830E-01               0
GRID*              10930               0-1.191661208E+00-2.404111747E-01+
*       5.8422920558E-01               0
GRID*              10931               0-1.169350063E+00-1.886308263E-01+
*       5.0991173400E-01               0
GRID*              10932               0-1.169350064E+00-2.324178849E-01+
*       5.4598133558E-01               0
GRID*              10933               0-1.190614662E+00-1.717212069E-01+
*       5.2091283895E-01               0
GRID*              10934               0-1.170618625E+00-2.541768113E-01+
*       5.6361416718E-01               0
GRID*              10935               04.5707568422E-017.1838765191E-01+
*       -1.543664336E-01               0
GRID*              10936               01.6897454671E+00-3.251565920E-01+
*       -2.287375559E-01               0
GRID*              10937               01.6304209345E+00-3.201707854E-01+
*       -2.287375559E-01               0
GRID*              10938               0-1.496580828E+00-5.184498074E-01+
*       -6.288240754E-02               0
GRID*              10939               0-1.517268925E+00-5.580968301E-01+
*       -6.316334864E-02               0
GRID*              10940               0-1.469659924E+00-5.711204841E-01+
*       -9.378745909E-02               0
GRID*              10941               0-1.483977002E+00-5.379082554E-01+
*       -4.271170275E-02               0
GRID*              10942               0-1.480868826E+00-4.994416752E-01+
*       -4.112370713E-02               0
GRID*              10943               0-1.501556922E+00-5.390886979E-01+
*       -4.140464823E-02               0
GRID*              10944               0-1.213073516E+00-7.118355666E-01+
*       -7.652935932E-02               0
GRID*              10945               0-1.246135951E+00-7.118355666E-01+
*       -2.886910913E-02               0
GRID*              10946               01.3771180719E+00-1.886124380E-01+
*       5.1007837639E-01               0
GRID*              10947               01.3561283300E+00-1.716818798E-01+
*       5.2123410855E-01               0
GRID*              10948               01.8292543616E+006.4249917507E-01+
*       -8.453135943E-02               0
GRID*              10949               01.8311173189E+006.6737533494E-01+
*       -1.148954992E-01               0
GRID*              10950               01.8533347101E+006.4365685193E-01+
*       -1.153152335E-01               0
GRID*              10951               01.8196958794E+006.1301888176E-01+
*       -1.046008590E-01               0
GRID*              10952               01.8201241715E+006.1324473954E-01+
*       -1.267857928E-01               0
GRID*              10953               01.8087061169E+006.3041182386E-01+
*       -1.263065893E-01               0
GRID*              10954               01.8102898120E+006.2448610787E-01+
*       -1.989705593E-01               0
GRID*              10955               01.8388191866E+006.2655939858E-01+
*       -1.681257849E-01               0
GRID*              10956               01.8209108158E+006.1542778276E-01+
*       -1.474619150E-01               0
GRID*              10957               01.7942600715E+006.1173656205E-01+
*       -1.779975519E-01               0
GRID*              10958               01.8319005782E+005.9803484065E-01+
*       -1.257561848E-01               0
GRID*              10959               01.8655394090E+006.2867281083E-01+
*       -1.364705593E-01               0
GRID*              10960               01.7988717574E+006.4165319220E-01+
*       -1.984913558E-01               0
GRID*              10961               01.8294998720E+006.6834439102E-01+
*       -1.371376260E-01               0
GRID*              10962               01.8056755095E+006.9129743354E-01+
*       -1.360748397E-01               0
GRID*              10963               01.8541213544E+006.4583989515E-01+
*       -1.359913558E-01               0
GRID*              10964               01.8274011320E+006.4372648290E-01+
*       -1.676465814E-01               0
GRID*              10965               0-1.377693683E+001.4434639238E-01+
*       4.7973815000E-01               0
GRID*              10966               0-1.358639432E+00-6.514523895E-01+
*       -2.212268924E-01               0
GRID*              10967               0-1.179701613E+00-6.435491428E-01+
*       7.5148771261E-01               0
GRID*              10968               0-1.179701645E+00-6.502683196E-01+
*       6.8047764095E-01               0
GRID*              10969               0-1.211456841E+00-6.831045000E-01+
*       6.7918033310E-01               0
GRID*              10970               0-1.181278153E+00-6.412405563E-01+
*       7.8602822242E-01               0
GRID*              10971               0-1.212375395E+00-6.755098011E-01+
*       7.9801867704E-01               0
GRID*              10972               0-1.063487243E+007.1932077942E-01+
*       -1.585958942E-01               0
GRID*              10973               0-1.024854032E+006.8986531675E-01+
*       -1.882880097E-01               0
GRID*              10974               0-1.026569672E+007.2054453733E-01+
*       -1.556396520E-01               0
GRID*              10975               0-9.513612992E-017.2054453733E-01+
*       -1.552680925E-01               0
GRID*              10976               0-1.180676645E+00-3.557802015E-01+
*       1.2913961066E+00               0
GRID*              10977               0-1.211389900E+00-3.647541158E-01+
*       1.3254752659E+00               0
GRID*              10978               0-1.179463203E+00-3.271193229E-01+
*       1.3119993888E+00               0
GRID*              10979               0-1.178877393E+00-5.443540449E-01+
*       1.1004576493E+00               0
GRID*              10980               0-1.178877393E+00-4.943850435E-01+
*       1.1272146230E+00               0
GRID*              10981               0-1.178877393E+00-4.840801823E-01+
*       1.1907501844E+00               0
GRID*              10982               0-1.179999390E+00-4.795095505E-01+
*       1.2224077801E+00               0
GRID*              10983               06.0984996142E-01-6.521760300E-01+
*       -3.111960051E-02               0
GRID*              10984               01.3673740047E+006.6169006807E-01+
*       6.6344587352E-01               0
GRID*              10985               01.3779889315E+002.3570898056E-01+
*       9.7997376193E-01               0
GRID*              10986               01.1808416738E+006.7409302918E-01+
*       1.3302011152E-01               0
GRID*              10987               01.2110485725E+006.9829106328E-01+
*       1.2767508824E-01               0
GRID*              10988               01.1789569555E+006.7312613531E-01+
*       9.7911104546E-02               0
GRID*              10989               01.1695518836E+00-4.930094844E-02+
*       1.0446297024E+00               0
GRID*              10990               01.1695518836E+00-9.418440367E-02+
*       1.0374700372E+00               0
GRID*              10991               01.1697415771E+00-2.780687614E-02+
*       1.0474469257E+00               0
GRID*              10992               01.5268755774E-017.1871679676E-01+
*       -9.376588268E-02               0
GRID*              10993               03.0468406436E-017.1870877961E-01+
*       -1.562621226E-01               0
GRID*              10994               01.3772954327E+00-2.660143650E-01+
*       5.7969800622E-01               0
GRID*              10995               01.3772954327E+00-2.739909852E-01+
*       6.2796695788E-01               0
GRID*              10996               01.3772059387E+002.8176324442E-01+
*       8.6802012723E-01               0
GRID*              10997               01.3566135969E+002.5917011826E-01+
*       8.7042925353E-01               0
GRID*              10998               01.3781576058E+002.7403597932E-01+
*       8.8472557892E-01               0
GRID*              10999               01.7958294509E+00-6.177275795E-01+
*       -2.295112680E-01               0
GRID*              11000               01.5791664389E+003.4874445358E-01+
*       -2.158508088E-02               0
GRID*              11001               01.3371523066E+006.8631533326E-01+
*       1.3608406444E-01               0
GRID*              11002               01.3680533162E+006.5476352384E-01+
*       1.1007345346E-01               0
GRID*              11003               01.3678489379E+006.5438237815E-01+
*       1.4515738870E-01               0
GRID*              11004               01.8501414879E+006.7912035808E-01+
*       -9.400064045E-02               0
GRID*              11005               01.8741284652E+006.8158941909E-01+
*       -1.261462702E-01               0
GRID*              11006               01.8474082428E+006.7947600684E-01+
*       -1.578014958E-01               0
GRID*              11007               01.7786378787E+006.8612057921E-01+
*       -1.669101853E-01               0
GRID*              11008               01.7984209278E+007.2418746371E-01+
*       -1.566712468E-01               0
GRID*              11009               01.8720297252E+006.5697151097E-01+
*       -1.566552256E-01               0
GRID*              11010               0-1.828754378E+00-6.427019833E-01+
*       -1.653302252E-01               0
GRID*              11011               0-1.847477227E+00-6.792428748E-01+
*       -1.560241408E-01               0
GRID*              11012               0-1.870755863E+00-6.554837634E-01+
*       -1.572018956E-01               0
GRID*              11013               0-1.837040249E+00-6.248173552E-01+
*       -1.676758454E-01               0
GRID*              11014               0-1.795038764E+00-6.120355750E-01+
*       -1.758041750E-01               0
GRID*              11015               0-1.828589626E+00-6.659392793E-01+
*       -1.128393936E-01               0
GRID*              11016               0-1.805640396E+00-6.626742794E-01+
*       -8.218796805E-02               0
GRID*              11017               0-1.785473074E+00-6.524050831E-01+
*       -1.246027306E-01               0
GRID*              11018               0-1.829783916E+00-6.670132895E-01+
*       -1.353363088E-01               0
GRID*              11019               0-1.872900468E+00-6.805474857E-01+
*       -1.235729719E-01               0
GRID*              11020               0-1.824705747E+00-6.731189448E-01+
*       -6.107297187E-02               0
GRID*              11021               0-1.848852543E+00-6.772722587E-01+
*       -9.166336996E-02               0
GRID*              11022               0-1.853371084E+00-6.446277382E-01+
*       -1.351365662E-01               0
GRID*              11023               0-1.809060242E+00-6.300195318E-01+
*       -1.244029880E-01               0
GRID*              11024               0-1.819655470E+00-6.139613299E-01+
*       -1.456105160E-01               0
GRID*              11025               01.8506851585E+00-4.152765604E-01+
*       -1.660951020E-01               0
GRID*              11026               01.8250109550E+00-4.121072546E-01+
*       -1.977095269E-01               0
GRID*              11027               01.8568789995E+00-3.906054974E-01+
*       -1.896207188E-01               0
GRID*              11028               01.8650430040E+00-3.961384037E-01+
*       -1.360487012E-01               0
GRID*              11029               01.8141057281E+00-3.884932278E-01+
*       -1.985487012E-01               0
GRID*              11030               01.8393688005E+00-3.929690979E-01+
*       -1.676631260E-01               0
GRID*              11031               01.8204594639E+00-4.000009760E-01+
*       -1.462868228E-01               0
GRID*              11032               01.8200435244E+00-4.016158048E-01+
*       -1.258171036E-01               0
GRID*              11033               0-1.782483549E+006.3612126378E-01+
*       -2.278400212E-01               0
GRID*              11034               0-1.745864021E+006.6246821686E-01+
*       -1.977049759E-01               0
GRID*              11035               0-1.709158328E+006.8880786276E-01+
*       -1.654120101E-01               0
GRID*              11036               0-1.675693754E+007.1225758037E-01+
*       -1.352952283E-01               0
GRID*              11037               0-1.747762766E+007.1225758037E-01+
*       -1.353090089E-01               0
GRID*              11038               0-1.692988043E+006.7602642256E-01+
*       -1.241211009E-01               0
GRID*              11039               0-1.727526901E+006.7567228792E-01+
*       -1.246631296E-01               0
GRID*              11040               0-1.691586444E+006.7525728072E-01+
*       -1.671127909E-01               0
GRID*              11041               0-1.725051018E+006.5180756311E-01+
*       -1.972295727E-01               0
GRID*              11042               0-1.694516989E+007.2366035410E-01+
*       -1.574369436E-01               0
GRID*              11043               0-1.710409679E+006.8666005444E-01+
*       -1.892545062E-01               0
GRID*              11044               0-1.673703986E+007.1299970034E-01+
*       -1.569615404E-01               0
GRID*              11045               0-4.556763770E-01-6.559089661E-01+
*       -2.187566974E-01               0
GRID*              11046               0-1.498603667E+00-6.027752510E-01+
*       -2.295303335E-01               0
GRID*              11047               0-1.473917473E+00-5.410218031E-01+
*       -2.295303335E-01               0
GRID*              11048               0-1.519375029E+00-5.971326711E-01+
*       -2.080153833E-01               0
GRID*              11049               0-1.462069216E+00-5.119194983E-01+
*       -2.290126465E-01               0
GRID*              11050               0-1.378214273E+00-2.986604849E-01+
*       7.5773743603E-01               0
GRID*              11051               0-1.378214273E+00-2.927306151E-01+
*       8.0083503068E-01               0
GRID*              11052               0-1.376944207E+00-2.893174719E-01+
*       8.2135024753E-01               0
GRID*              11053               0-1.355315564E+00-2.705821486E-01+
*       8.2814280834E-01               0
GRID*              11054               01.2135334385E+00-6.585270624E-01+
*       -2.207531319E-01               0
GRID*              11055               0-1.377305240E+00-2.876358846E-01+
*       6.5491009167E-01               0
GRID*              11056               0-1.356841583E+00-2.720579516E-01+
*       6.6820271421E-01               0
GRID*              11057               01.7970769031E+00-6.026337595E-01+
*       -1.975106367E-02               0
GRID*              11058               01.8069619427E+00-5.586647020E-01+
*       -1.975106367E-02               0
GRID*              11059               0-1.179320505E+001.9996701624E-01+
*       1.3927242679E+00               0
GRID*              11060               0-1.180220316E+00-1.955996338E-01+
*       1.3569937524E+00               0
GRID*              11061               0-1.511537910E+00-6.467262100E-01+
*       -5.237988717E-02               0
GRID*              11062               0-1.487492907E+00-6.509224601E-01+
*       -3.150576506E-02               0
GRID*              11063               01.1797222645E+006.5779833565E-01+
*       6.6161596622E-01               0
GRID*              11064               01.5215603154E+007.1142567888E-01+
*       -1.362660274E-01               0
GRID*              11065               01.5404544131E+006.7335210687E-01+
*       -1.245689110E-01               0
GRID*              11066               01.5589676372E+006.8088311894E-01+
*       -1.248437813E-01               0
GRID*              11067               01.5730235141E+006.8580095701E-01+
*       -2.471156708E-02               0
GRID*              11068               01.5106653779E+006.5135091323E-01+
*       -2.471156708E-02               0
GRID*              11069               01.5588733009E+006.8138386804E-01+
*       -1.036607619E-01               0
GRID*              11070               01.5829651491E+006.6578636178E-01+
*       -7.399266150E-02               0
GRID*              11071               01.5214659791E+007.1192642799E-01+
*       -1.150830080E-01               0
GRID*              11072               01.4910264432E+006.6482074612E-01+
*       -1.012681666E-01               0
GRID*              11073               01.4971769739E+007.1719593730E-01+
*       -9.534040964E-02               0
GRID*              11074               01.4674356027E+006.6496572641E-01+
*       -1.085069469E-01               0
GRID*              11075               01.5153729069E+006.8424689431E-01+
*       -5.666191449E-02               0
GRID*              11076               01.5689946830E+006.4962464044E-01+
*       -2.162570873E-02               0
GRID*              11077               01.5066365468E+006.1517459666E-01+
*       -2.162570873E-02               0
GRID*              11078               01.5349349162E+006.4792559745E-01+
*       -4.633727581E-02               0
GRID*              11079               01.5175793003E+005.9440084205E-01+
*       -4.384006321E-02               0
GRID*              11080               01.4933097621E+005.9782615783E-01+
*       -2.221435448E-02               0
GRID*              11081               0-1.181129778E+00-5.888115571E-01+
*       1.0581436324E+00               0
GRID*              11082               0-1.212698918E+00-5.914078246E-01+
*       1.1045367094E+00               0
GRID*              11083               0-1.169779707E+00-3.206081275E-01+
*       7.5226973910E-01               0
GRID*              11084               0-1.192293017E+00-2.962096843E-01+
*       7.4571998268E-01               0
GRID*              11085               0-1.180685895E+005.0527211817E-01+
*       1.1740499134E+00               0
GRID*              11086               0-1.211872586E+005.0324348890E-01+
*       1.2167866535E+00               0
GRID*              11087               0-1.368141693E+00-3.444642756E-01+
*       1.3331684491E+00               0
GRID*              11088               0-1.368415888E+00-6.376894125E-01+
*       8.5255647902E-01               0
GRID*              11089               0-1.368415888E+00-6.247368965E-01+
*       9.1645069176E-01               0
GRID*              11090               0-1.368075017E+00-6.193616701E-01+
*       9.4686472374E-01               0
GRID*              11091               0-1.170091099E+00-3.110200464E-02+
*       4.5335410006E-01               0
GRID*              11092               0-1.170091100E+00-7.268507926E-02+
*       4.6006897355E-01               0
GRID*              11093               0-1.336554555E+00-6.081327543E-01+
*       8.0784144706E-01               0
GRID*              11094               0-1.367721777E+00-2.073609246E-01+
*       1.3732769931E+00               0
GRID*              11095               0-1.210262763E+00-6.604388763E-01+
*       9.2067965474E-01               0
GRID*              11096               0-1.179732388E+00-6.210766701E-01+
*       9.4355642227E-01               0
GRID*              11097               01.1703219892E+00-2.152169567E-01+
*       4.9844519877E-01               0
GRID*              11098               01.1911190726E+00-1.894494333E-01+
*       5.1467132219E-01               0
GRID*              11099               01.1695470373E+00-2.008791283E-01+
*       4.8700090206E-01               0
GRID*              11100               0-1.556035344E+00-6.322698604E-01+
*       -2.047297312E-02               0
GRID*              11101               0-1.660075797E+00-6.667260776E-01+
*       -2.047297312E-02               0
GRID*              11102               0-1.651236980E+00-6.518742994E-01+
*       -4.063648160E-02               0
GRID*              11103               0-1.681603048E+00-6.726482168E-01+
*       -2.016350848E-02               0
GRID*              11104               0-1.737562368E+00-6.510121401E-01+
*       -2.016350848E-02               0
GRID*              11105               0-1.171263269E+00-3.215991838E-01+
*       7.3352556278E-01               0
GRID*              11106               0-1.243001428E+00-7.169068644E-01+
*       6.5627329871E-01               0
GRID*              11107               0-1.242985806E+00-7.169068644E-01+
*       5.8829240101E-01               0
GRID*              11108               0-1.241594083E+00-7.164974447E-01+
*       5.5475941050E-01               0
GRID*              11109               0-1.209710382E+00-6.853067689E-01+
*       5.5279875371E-01               0
GRID*              11110               0-1.655065191E+00-7.167942373E-01+
*       -1.348705978E-01               0
GRID*              11111               0-1.633835511E+00-6.808160746E-01+
*       -1.238393398E-01               0
GRID*              11112               0-1.671435505E+00-6.793080404E-01+
*       -1.452702122E-01               0
GRID*              11113               0-1.636182316E+00-6.836907674E-01+
*       -1.040076799E-01               0
GRID*              11114               0-1.655236432E+00-6.864631675E-01+
*       -1.247716074E-01               0
GRID*              11115               0-1.636011075E+00-7.140218372E-01+
*       -1.141066704E-01               0
GRID*              11116               0-1.558676668E+00-7.140218372E-01+
*       -1.149276599E-01               0
GRID*              11117               01.7072051081E+00-6.767567921E-01+
*       -7.278158734E-02               0
GRID*              11118               01.7235621361E+00-6.394234116E-01+
*       -6.361974982E-02               0
GRID*              11119               01.6956038669E+00-6.611836600E-01+
*       -4.353999798E-02               0
GRID*              11120               01.6736768099E+00-7.129017119E-01+
*       -1.133874373E-01               0
GRID*              11121               01.6613718934E+00-6.968696717E-01+
*       -8.170969784E-02               0
GRID*              11122               01.6703832271E+00-6.812663041E-01+
*       -1.033238302E-01               0
GRID*              11123               01.6899803265E+00-6.759385379E-01+
*       -1.250088132E-01               0
GRID*              11124               01.5077456046E+00-6.456800650E-01+
*       -1.973282912E-01               0
GRID*              11125               01.4849640650E+00-6.494354237E-01+
*       -2.184144865E-01               0
GRID*              11126               01.4534939915E+00-6.819452181E-01+
*       -1.899513680E-01               0
GRID*              11127               01.4493309295E+00-6.494903963E-01+
*       -2.215368815E-01               0
GRID*              11128               01.3873833224E+00-6.564232234E-01+
*       -2.215368815E-01               0
GRID*              11129               01.8531270749E+003.8030180355E-01+
*       -1.144235173E-01               0
GRID*              11130               01.8078859567E+003.8655537803E-01+
*       -1.247327686E-01               0
GRID*              11131               01.8199263008E+004.0297720587E-01+
*       -1.046340341E-01               0
GRID*              11132               01.2465740273E+007.1224887151E-01+
*       -2.803589725E-02               0
GRID*              11133               01.2447273735E+007.1224887151E-01+
*       3.1531143773E-02               0
GRID*              11134               01.3774797312E+00-2.769147320E-01+
*       6.5232453058E-01               0
GRID*              11135               01.3573878782E+00-2.658710826E-01+
*       6.6819879762E-01               0
GRID*              11136               01.3672501512E+00-1.956656925E-01+
*       1.3570231942E+00               0
GRID*              11137               01.3054392252E+007.1101433699E-01+
*       6.2042093579E-02               0
GRID*              11138               0-1.882841646E+00-3.974131105E-01+
*       -1.566302803E-01               0
GRID*              11139               0-1.849978610E+00-4.200128796E-01+
*       -1.673233797E-01               0
GRID*              11140               0-1.801828687E+00-4.072506773E-01+
*       -2.288370345E-01               0
GRID*              11141               0-1.817603239E+00-4.570918879E-01+
*       -2.288370345E-01               0
GRID*              11142               0-1.801926863E+00-4.803444161E-01+
*       -2.085889409E-01               0
GRID*              11143               0-1.801634694E+00-5.348047450E-01+
*       -1.574283708E-01               0
GRID*              11144               0-1.818829972E+00-4.947524498E-01+
*       -1.779320552E-01               0
GRID*              11145               0-1.818733710E+00-5.165760938E-01+
*       -1.788469271E-01               0
GRID*              11146               0-1.850798389E+00-4.891991791E-01+
*       -2.269719952E-01               0
GRID*              11147               0-1.835218275E+00-4.906280633E-01+
*       -2.058090297E-01               0
GRID*              11148               0-1.867673385E+00-4.718071316E-01+
*       -1.961022756E-01               0
GRID*              11149               0-1.820812829E+00-4.020187541E-01+
*       -1.456185323E-01               0
GRID*              11150               0-1.865886911E+00-3.965470815E-01+
*       -1.356930993E-01               0
GRID*              11151               0-1.865886911E+00-4.689590734E-01+
*       -1.356930993E-01               0
GRID*              11152               0-1.772768042E+00-3.924879289E-01+
*       -2.074874287E-01               0
GRID*              11153               0-1.792611856E+00-3.823900967E-01+
*       -2.293306673E-01               0
GRID*              11154               01.8655491734E+003.9662271475E-01+
*       -1.152105168E-01               0
GRID*              11155               01.8203080553E+004.0287628923E-01+
*       -1.255197680E-01               0
GRID*              11156               01.8321053783E+004.1871758261E-01+
*       -1.262974475E-01               0
GRID*              11157               01.8655491734E+004.6903470670E-01+
*       -1.152105168E-01               0
GRID*              11158               01.8302441405E+003.7592999106E-01+
*       -1.645591628E-01               0
GRID*              11159               01.8535088294E+003.8020088691E-01+
*       -1.353092513E-01               0
GRID*              11160               01.8200650343E+004.0229575477E-01+
*       -1.463961820E-01               0
GRID*              11161               01.7968003454E+003.9802485893E-01+
*       -1.756460935E-01               0
GRID*              11162               0-1.673782310E+00-6.821827332E-01+
*       -1.254385523E-01               0
GRID*              11163               0-1.673611069E+00-7.125138030E-01+
*       -1.355375427E-01               0
GRID*              11164               01.1706254630E+00-3.082970669E-02+
*       4.3813430593E-01               0
GRID*              11165               01.1706254646E+00-7.969761975E-02+
*       4.4596630038E-01               0
GRID*              11166               01.1698246010E+00-1.033645059E-01+
*       4.5094380176E-01               0
GRID*              11167               01.5234142405E-017.1871915172E-01+
*       -1.562712531E-01               0
GRID*              11168               0-1.179936638E+004.7991522764E-01+
*       1.1989298544E+00               0
GRID*              11169               01.3651575194E+00-7.116991011E-01+
*       -9.995185729E-02               0
GRID*              11170               01.5145126399E+00-6.334074048E-01+
*       -2.176285576E-02               0
GRID*              11171               0-1.196372373E+00-7.115505403E-01+
*       -9.969577290E-02               0
GRID*              11172               0-6.273586849E-067.1872212691E-01+
*       -1.562674008E-01               0
GRID*              11173               0-1.520890450E+00-7.120620443E-01+
*       -1.155051983E-01               0
GRID*              11174               0-1.538780297E+00-6.735745151E-01+
*       -1.257888772E-01               0
GRID*              11175               0-1.517558032E+00-5.938751692E-01+
*       -4.237044404E-02               0
GRID*              11176               0-1.573075333E+00-6.385427924E-01+
*       -6.340533357E-02               0
GRID*              11177               0-1.865450353E+00-5.045881585E-01+
*       -1.357620509E-01               0
GRID*              11178               0-1.850282093E+00-5.065701877E-01+
*       -1.752340462E-01               0
GRID*              11179               0-1.833893789E+00-5.106945741E-01+
*       -1.473570717E-01               0
GRID*              11180               0-1.833457760E+00-5.109972746E-01+
*       -1.249612161E-01               0
GRID*              11181               0-1.866757354E+00-5.251804124E-01+
*       -1.141991652E-01               0
GRID*              11182               0-1.835200790E+00-5.312868279E-01+
*       -1.257941859E-01               0
GRID*              11183               0-1.833477770E+00-5.643681171E-01+
*       -1.470689706E-01               0
GRID*              11184               0-1.866757354E+00-5.953372258E-01+
*       -1.141991652E-01               0
GRID*              11185               0-1.867193383E+00-5.248777119E-01+
*       -1.365950207E-01               0
GRID*              11186               0-1.883581687E+00-5.207533255E-01+
*       -1.644719952E-01               0
GRID*              11187               01.5186512947E+00-7.114381377E-01+
*       -1.362078584E-01               0
GRID*              11188               01.5035825426E+00-6.132252432E-01+
*       -2.289138047E-01               0
GRID*              11189               0-1.565723288E+00-6.937561199E-01+
*       -2.194169353E-01               0
GRID*              11190               01.3560876843E+00-6.598333199E-01+
*       -2.212221308E-01               0
GRID*              11191               0-9.412947580E-016.9275490976E-01+
*       -1.199334620E-01               0
GRID*              11192               0-9.147187596E-017.1782546441E-01+
*       -1.547204685E-01               0
GRID*              11193               0-9.046522184E-016.9003583684E-01+
*       -1.193858379E-01               0
GRID*              11194               0-1.209934967E+006.8332516969E-01+
*       8.0348008259E-01               0
GRID*              11195               0-1.179587030E+006.5171051036E-01+
*       7.9628823841E-01               0
GRID*              11196               0-1.179587061E+006.5720690307E-01+
*       7.2276329053E-01               0
GRID*              11197               0-1.179097924E+006.5246801047E-01+
*       8.1875447367E-01               0
GRID*              11198               01.8675815620E+007.4106724952E-02+
*       -1.560978011E-01               0
GRID*              11199               0-1.503907070E+00-3.988752209E-01+
*       -2.288495627E-01               0
GRID*              11200               01.6173136402E+007.1945744006E-01+
*       -1.145367803E-01               0
GRID*              11201               01.5399792032E+007.1945744006E-01+
*       -1.153578783E-01               0
GRID*              11202               01.5396619121E+006.7897738500E-01+
*       -7.640451290E-02               0
GRID*              11203               01.5581751362E+006.8650839706E-01+
*       -7.667938317E-02               0
GRID*              11204               01.5932909393E+007.0513138136E-01+
*       -7.540405038E-02               0
GRID*              11205               01.6542602652E+007.1868071133E-01+
*       -1.145883695E-01               0
GRID*              11206               01.6302375644E+007.0435465264E-01+
*       -7.545563960E-02               0
GRID*              11207               01.6476609220E+006.9863747818E-01+
*       -7.385786895E-02               0
GRID*              11208               01.5989641210E+006.6678786920E-01+
*       -2.013000696E-02               0
GRID*              11209               01.5649043543E+006.6508882621E-01+
*       -4.484157404E-02               0
GRID*              11210               01.6082075913E+006.5189780300E-01+
*       -4.242972264E-02               0
GRID*              11211               01.6173827875E+006.8953387510E-01+
*       -4.573594997E-02               0
GRID*              11212               01.5822669844E+006.7091089080E-01+
*       -4.701128277E-02               0
GRID*              11213               01.6163267511E+006.7260993379E-01+
*       -2.229971568E-02               0
GRID*              11214               01.6081393173E+007.0442394130E-01+
*       -2.343623428E-02               0
GRID*              11215               01.6000201574E+006.8371181051E-01+
*       -4.356624124E-02               0
GRID*              11216               01.6354198071E+006.8295655631E-01+
*       -4.555446322E-02               0
GRID*              11217               01.7897460945E+00-3.849528871E-01+
*       -2.289790339E-01               0
GRID*              11218               01.2432014115E+007.1103095388E-01+
*       6.1821205059E-02               0
GRID*              11219               01.8724091613E+003.6967913255E-01+
*       -1.563628404E-01               0
GRID*              11220               01.8724091613E+002.9520547634E-01+
*       -1.563628404E-01               0
GRID*              11221               01.8563557457E+003.9156009659E-01+
*       -1.874226666E-01               0
GRID*              11222               01.8389653661E+003.9177400041E-01+
*       -1.674497711E-01               0
GRID*              11223               01.8720785928E+002.5818446637E-01+
*       -1.561093059E-01               0
GRID*              11224               0-1.782324748E+007.1257503338E-01+
*       -1.356800558E-01               0
GRID*              11225               0-1.762088883E+006.7598974093E-01+
*       -1.250341765E-01               0
GRID*              11226               0-1.865487053E+006.2803432279E-01+
*       -1.354852890E-01               0
GRID*              11227               0-1.831967794E+005.9755824197E-01+
*       -1.253958805E-01               0
GRID*              11228               0-1.821369672E+006.1315804032E-01+
*       -1.250040173E-01               0
GRID*              11229               0-1.820894819E+006.1348328333E-01+
*       -1.456984325E-01               0
GRID*              11230               0-1.800877200E+005.5343599494E-01+
*       -1.858827361E-01               0
GRID*              11231               0-1.833341272E+005.4887811684E-01+
*       -1.756497193E-01               0
GRID*              11232               0-1.865647323E+005.2416506729E-01+
*       -1.356003337E-01               0
GRID*              11233               01.7740632274E+00-3.642941088E-01+
*       -2.044299587E-02               0
GRID*              11234               01.7170536445E+00-3.351751421E-01+
*       -2.044299587E-02               0
GRID*              11235               01.3777816609E+001.2757976946E-01+
*       4.7444993127E-01               0
GRID*              11236               01.3777816609E+008.6556276387E-02+
*       4.6458073149E-01               0
GRID*              11237               0-1.853675866E+00-3.794189850E-01+
*       -1.349254330E-01               0
GRID*              11238               0-1.808655524E+00-3.847142543E-01+
*       -1.238862504E-01               0
GRID*              11239               0-1.781790435E+00-3.660784147E-01+
*       -2.281567613E-01               0
GRID*              11240               0-1.367695451E+006.6084419591E-01+
*       2.2659375096E-01               0
GRID*              11241               0-1.170014550E+00-1.734088610E-01+
*       4.9754481169E-01               0
GRID*              11242               0-1.170014550E+00-1.309380992E-01+
*       4.7937513452E-01               0
GRID*              11243               0-1.169789456E+00-1.097612404E-01+
*       4.7110285237E-01               0
GRID*              11244               0-1.190855500E+00-9.742531316E-02+
*       4.8521103150E-01               0
GRID*              11245               01.8537504680E+00-3.794247135E-01+
*       -1.147684025E-01               0
GRID*              11246               01.8091669280E+00-3.832872858E-01+
*       -1.250065241E-01               0
GRID*              11247               01.5824752835E+00-3.251770682E-01+
*       -2.283637866E-01               0
GRID*              11248               01.5406950152E+00-3.680880146E-01+
*       -2.283637866E-01               0
GRID*              11249               01.5984540416E+00-3.438398296E-01+
*       -2.071378872E-01               0
GRID*              11250               01.6017045072E+00-3.187303191E-01+
*       -2.287741006E-01               0
GRID*              11251               01.1698616575E+003.0385456349E-01+
*       7.0118555283E-01               0
GRID*              11252               01.1694317183E+006.5242615108E-02+
*       1.0507748012E+00               0
GRID*              11253               01.6741612659E+00-7.130368260E-01+
*       -1.367392145E-01               0
GRID*              11254               01.6662356904E+00-6.971095184E-01+
*       -1.688065197E-01               0
GRID*              11255               01.6561447872E+00-6.817868235E-01+
*       -1.991802952E-01               0
GRID*              11256               01.6472734456E+00-6.658098922E-01+
*       -2.283518659E-01               0
GRID*              11257               01.6375839101E+00-6.859606428E-01+
*       -1.984638160E-01               0
GRID*              11258               01.6541435367E+00-6.498493494E-01+
*       -2.073364007E-01               0
GRID*              11259               01.6319156952E+00-7.028226898E-01+
*       -2.196262245E-01               0
GRID*              11260               01.6286948831E+00-6.715394521E-01+
*       -2.289845348E-01               0
GRID*              11261               0-1.874850204E+006.4977588918E-01+
*       -9.378869477E-02               0
GRID*              11262               0-1.830732823E+006.3489960672E-01+
*       -8.330742303E-02               0
GRID*              11263               0-1.828398292E+006.6512664781E-01+
*       -1.134988122E-01               0
GRID*              11264               0-1.844117308E+006.2113476746E-01+
*       -8.489717119E-02               0
GRID*              11265               0-1.782940014E+006.5153507032E-01+
*       -5.144461925E-02               0
GRID*              11266               0-1.753808964E+006.6661193920E-01+
*       -5.183292700E-02               0
GRID*              11267               0-1.745983751E+006.8760991594E-01+
*       -3.032590672E-02               0
GRID*              11268               0-1.804351476E+006.5624442399E-01+
*       -3.032590672E-02               0
GRID*              11269               0-1.367614894E+006.5494309538E-01+
*       5.2308625814E-01               0
GRID*              11270               01.3786580945E+00-2.828021885E-01+
*       6.7109508026E-01               0
GRID*              11271               0-1.817506977E+00-4.789155319E-01+
*       -2.297519064E-01               0
GRID*              11272               0-1.835122013E+00-5.124517074E-01+
*       -2.067239016E-01               0
GRID*              11273               0-1.800879566E+00-5.547656347E-01+
*       -1.867057530E-01               0
GRID*              11274               0-1.806350875E+00-5.822735577E-01+
*       -2.073283019E-01               0
GRID*              11275               0-1.832722642E+00-5.843290067E-01+
*       -1.763463527E-01               0
GRID*              11276               0-1.783410521E+00-6.221796467E-01+
*       -2.289558990E-01               0
GRID*              11277               01.1691864144E+003.0429318147E-01+
*       8.0943426982E-01               0
GRID*              11278               01.7667430312E+00-6.379205559E-01+
*       -1.562497846E-01               0
GRID*              11279               01.5200860781E+00-3.891750327E-01+
*       -2.286319555E-01               0
GRID*              11280               01.6482769958E+00-6.816517093E-01+
*       -5.082851802E-02               0
GRID*              11281               01.6366757545E+00-6.660785773E-01+
*       -2.158692866E-02               0
GRID*              11282               01.8654598964E+005.2406844380E-01+
*       -1.147540459E-01               0
GRID*              11283               01.8505614796E+004.8942235646E-01+
*       -8.443853299E-02               0
GRID*              11284               01.8324929634E+005.0872161605E-01+
*       -1.044163287E-01               0
GRID*              11285               01.8329495815E+005.0870960877E-01+
*       -1.254226879E-01               0
GRID*              11286               01.7999123643E+005.3423873143E-01+
*       -1.565940444E-01               0
GRID*              11287               01.8322553585E+005.6407391513E-01+
*       -1.472316288E-01               0
GRID*              11288               01.8321758460E+005.2962636155E-01+
*       -1.255151154E-01               0
GRID*              11289               01.8654598964E+005.9422525725E-01+
*       -1.147540459E-01               0
GRID*              11290               01.8332726996E+004.8806563355E-01+
*       -1.253309246E-01               0
GRID*              11291               01.8662396326E+005.0341246130E-01+
*       -1.356686419E-01               0
GRID*              11292               01.8662396326E+004.3100046935E-01+
*       -1.356686419E-01               0
GRID*              11293               01.8334595172E+004.7186852513E-01+
*       -1.981686419E-01               0
GRID*              11294               01.8501862170E+004.5288143339E-01+
*       -1.667284682E-01               0
GRID*              11295               01.8498767205E+004.8788675624E-01+
*       -1.675285202E-01               0
GRID*              11296               01.8182892859E+004.9467679550E-01+
*       -1.773586303E-01               0
GRID*              11297               01.8329555821E+005.0897037905E-01+
*       -1.464297114E-01               0
GRID*              11298               01.8175155504E+005.1559354828E-01+
*       -1.774510578E-01               0
GRID*              11299               01.8657830145E+005.0342446858E-01+
*       -1.146622827E-01               0
GRID*              11300               0-1.169815995E+00-9.304102955E-02+
*       4.6431253154E-01               0
GRID*              11301               0-1.378151837E+00-1.071776865E-02+
*       4.3686674932E-01               0
GRID*              11302               0-1.378151837E+003.8001588161E-02+
*       4.4275659813E-01               0
GRID*              11303               0-1.854157714E+006.4453388376E-01+
*       -1.352131435E-01               0
GRID*              11304               0-1.810040332E+006.2965760129E-01+
*       -1.247318718E-01               0
GRID*              11305               0-1.725270945E+006.8120163992E-01+
*       -5.335023248E-02               0
GRID*              11306               0-1.709269740E+007.1784418763E-01+
*       -6.262767194E-02               0
GRID*              11307               0-1.717445732E+007.0219961666E-01+
*       -3.184321220E-02               0
GRID*              11308               0-1.865034334E+00-6.284185150E-01+
*       -1.354739498E-01               0
GRID*              11309               0-1.820723492E+00-6.138103086E-01+
*       -1.247403716E-01               0
GRID*              11310               0-1.800742616E+00-5.683280169E-01+
*       -9.287271951E-02               0
GRID*              11311               0-1.832585892E+00-5.978907889E-01+
*       -1.241800199E-01               0
GRID*              11312               0-1.821990663E+00-6.139489908E-01+
*       -1.029724918E-01               0
GRID*              11313               0-1.854439105E+00-6.444767169E-01+
*       -1.142664217E-01               0
GRID*              11314               0-1.806244384E+00-6.370481760E-01+
*       -5.176642174E-02               0
GRID*              11315               0-1.830391181E+00-6.412014899E-01+
*       -8.235681982E-02               0
GRID*              11316               01.6828470793E+00-3.409580155E-01+
*       -4.241974251E-02               0
GRID*              11317               01.6707325707E+00-3.154615630E-01+
*       -2.145060344E-02               0
GRID*              11318               01.6268441322E+00-3.361380116E-01+
*       -2.145060344E-02               0
GRID*              11319               01.6897508821E+00-3.212945300E-01+
*       -2.096913907E-02               0
GRID*              11320               01.8180283966E+004.5579577058E-01+
*       -2.281513312E-01               0
GRID*              11321               01.8347550964E+004.3680867883E-01+
*       -1.967111574E-01               0
GRID*              11322               01.7991711493E+004.0638500232E-01+
*       -2.281513312E-01               0
GRID*              11323               01.8028581653E+004.7860404095E-01+
*       -2.073413196E-01               0
GRID*              11324               01.7955500039E+005.7600574103E-01+
*       -2.291899884E-01               0
GRID*              11325               01.8180194855E+004.7849169437E-01+
*       -2.291899884E-01               0
GRID*              11326               01.8344366887E+004.9450992547E-01+
*       -1.985498666E-01               0
GRID*              11327               01.3777602056E+00-1.733879223E-01+
*       4.9769943890E-01               0
GRID*              11328               01.3777602056E+00-1.309171604E-01+
*       4.7952976174E-01               0
GRID*              11329               0-1.843665537E+00-6.248600412E-01+
*       -8.346516754E-02               0
GRID*              11330               0-1.874702023E+00-6.558096963E-01+
*       -9.309039808E-02               0
GRID*              11331               0-1.866301505E+00-6.285571971E-01+
*       -1.137060700E-01               0
GRID*              11332               0-1.781266395E+00-6.593734285E-01+
*       -5.230059018E-02               0
GRID*              11333               0-1.800331746E+00-6.698180938E-01+
*       -3.118559400E-02               0
GRID*              11334               0-1.761972626E+00-6.651203360E-01+
*       -5.190115803E-02               0
GRID*              11335               0-1.764001385E+00-6.395300837E-01+
*       -2.071556403E-02               0
GRID*              11336               0-1.744936034E+00-6.290854183E-01+
*       -4.183056021E-02               0
GRID*              11337               01.7839406771E+006.2211359227E-01+
*       -2.290403279E-01               0
GRID*              11338               01.7679109366E+006.0936404645E-01+
*       -2.080673205E-01               0
GRID*              11339               01.8007893819E+005.5341061554E-01+
*       -1.859262684E-01               0
GRID*              11340               01.8330588642E+005.4905901593E-01+
*       -1.758543630E-01               0
GRID*              11341               0-1.520461787E+00-7.115124707E-01+
*       -1.370635864E-01               0
GRID*              11342               0-1.509342363E+00-6.198187633E-01+
*       -2.284850498E-01               0
GRID*              11343               01.8826965320E+004.6824026842E-01+
*       -1.560598262E-01               0
GRID*              11344               01.8826965320E+003.9582827646E-01+
*       -1.560598262E-01               0
GRID*              11345               01.8508085120E+004.1492771479E-01+
*       -1.656513312E-01               0
GRID*              11346               01.8823870354E+005.0324559127E-01+
*       -1.568598783E-01               0
GRID*              11347               01.6545641665E+00-7.183645922E-01+
*       -1.150542315E-01               0
GRID*              11348               0-1.675105585E+007.1376884219E-01+
*       -1.139698504E-01               0
GRID*              11349               0-1.747174597E+007.1376884219E-01+
*       -1.139836309E-01               0
GRID*              11350               0-1.683232252E+006.9816341315E-01+
*       -8.218232119E-02               0
GRID*              11351               0-1.781713456E+007.1341470755E-01+
*       -1.145256597E-01               0
GRID*              11352               0-1.785740602E+006.2005966243E-01+
*       -2.111871252E-02               0
GRID*              11353               0-1.727372877E+006.5142515438E-01+
*       -2.111871252E-02               0
GRID*              11354               0-1.854632566E+006.4420864075E-01+
*       -1.145187283E-01               0
GRID*              11355               0-1.821113308E+006.1373255993E-01+
*       -1.044293198E-01               0
GRID*              11356               0-1.691408244E+006.8251884219E-01+
*       -5.139786145E-02               0
GRID*              11357               0-1.682240622E+007.0314457097E-01+
*       -3.078445974E-02               0
GRID*              11358               01.6050132773E+00-3.460146087E-01+
*       -2.146945071E-02               0
GRID*              11359               01.1699530975E+002.2918499883E-01+
*       5.4444619655E-01               0
GRID*              11360               01.1912545595E+002.0860445652E-01+
*       5.5224151013E-01               0
GRID*              11361               09.0788456375E-01-6.393985871E-01+
*       -3.105110454E-02               0
GRID*              11362               09.1376581100E-01-6.555731779E-01+
*       -2.184728167E-01               0
GRID*              11363               09.8989359963E-01-6.562645517E-01+
*       -2.184728167E-01               0
GRID*              11364               01.8653061524E+003.9604218029E-01+
*       -1.360869307E-01               0
GRID*              11365               01.7884504486E+003.8306709371E-01+
*       -2.297368309E-01               0
GRID*              11366               01.6201530187E+00-7.027179573E-01+
*       -3.088117982E-02               0
GRID*              11367               01.8651111168E+006.2844695304E-01+
*       -1.142856255E-01               0
GRID*              11368               01.8741486233E+006.5587924947E-01+
*       -9.254990900E-02               0
GRID*              11369               01.8824879931E+005.0329763167E-01+
*       -9.258100443E-02               0
GRID*              11370               0-1.180551642E+006.5920249087E-01+
*       6.8600462613E-01               0
GRID*              11371               0-1.853729606E+00-3.792425817E-01+
*       -1.139608175E-01               0
GRID*              11372               0-1.799973564E+00-5.538028034E-01+
*       -6.379403864E-02               0
GRID*              11373               01.3680428445E+004.1314544033E-01+
*       1.2502230709E+00               0
GRID*              11374               0-1.377121305E+00-2.847016515E-01+
*       8.3979702503E-01               0
GRID*              11375               0-1.246277669E+007.1120158194E-01+
*       -2.839493523E-02               0
GRID*              11376               01.3681698953E+00-3.876422672E-01+
*       1.2757245864E+00               0
GRID*              11377               01.3681698953E+00-4.514280719E-01+
*       1.2476273427E+00               0
GRID*              11378               01.0644772910E+007.1710549073E-01+
*       -1.581069764E-01               0
GRID*              11379               01.1695146533E+00-2.049298556E-01+
*       9.8801712643E-01               0
GRID*              11380               01.1700514127E+002.1696476405E-01+
*       5.3086453123E-01               0
GRID*              11381               01.4969833977E+00-5.531625245E-01+
*       -6.377349825E-02               0
GRID*              11382               0-1.867445449E+008.3439440468E-02+
*       -1.570650395E-01               0
GRID*              11383               01.7820752087E+007.1193311551E-01+
*       -1.354059064E-01               0
GRID*              11384               01.3052750775E+00-7.118875795E-01+
*       6.1394221578E-02               0
GRID*              11385               0-8.758040286E-01-4.911734391E-01+
*       -6.294745305E-02               0
GRID*              11386               01.7999287686E+00-5.538216535E-01+
*       -1.862531813E-01               0
GRID*              11387               0-1.059897712E+00-6.496488498E-01+
*       -2.192930396E-01               0
GRID*              11388               0-1.376726869E+00-1.208698516E-01+
*       4.5796082274E-01               0
GRID*              11389               0-1.355246954E+00-1.047218494E-01+
*       4.7691126397E-01               0
GRID*              11390               01.3677526333E+00-6.504484781E-01+
*       6.8098760663E-01               0
GRID*              11391               0-1.378286291E+00-2.929476337E-01+
*       6.7245984984E-01               0
GRID*              11392               01.3669935794E+00-3.559734500E-01+
*       1.2903402918E+00               0
GRID*              11393               0-1.367446222E+00-6.432734948E-01+
*       3.7564238645E-01               0
GRID*              11394               01.3681523528E+00-6.556440946E-01+
*       5.1677507851E-01               0
GRID*              11395               0-1.180319088E+00-5.688610110E-01+
*       1.0875337489E+00               0
GRID*              11396               01.8120728487E+00-5.374464566E-01+
*       -2.100793326E-02               0
GRID*              11397               01.1701936867E+002.7775515958E-01+
*       8.9894409799E-01               0
GRID*              11398               0-1.657411996E+00-7.196689301E-01+
*       -1.150389379E-01               0
GRID*              11399               0-1.729720747E+00-7.196689301E-01+
*       -1.150534577E-01               0
GRID*              11400               0-1.764133722E+00-7.182205243E-01+
*       -1.145064041E-01               0
GRID*              11401               0-1.744440515E+00-6.818734634E-01+
*       -1.040408196E-01               0
GRID*              11402               01.8704581425E+00-2.240168017E-01+
*       -9.298881465E-02               0
GRID*              11403               01.8541664075E+00-3.778098847E-01+
*       -1.352381216E-01               0
GRID*              11404               01.8314616003E+00-3.763648689E-01+
*       -1.650512592E-01               0
GRID*              11405               01.8333456426E+00-3.611319768E-01+
*       -1.730416433E-01               0
GRID*              11406               01.2422664273E+002.2899235901E-01+
*       1.4358000421E+00               0
GRID*              11407               01.3779104558E+002.1891205958E-01+
*       5.3095266604E-01               0
GRID*              11408               0-1.366951369E+00-7.113320364E-02+
*       1.3980443278E+00               0
GRID*              11409               0-1.377270033E+00-1.034924759E-01+
*       4.5085503596E-01               0
GRID*              11410               0-1.698241827E+006.6650202326E-01+
*       -2.150702028E-02               0
GRID*              11411               0-1.684556660E+006.5030017453E-01+
*       -4.151937180E-02               0
GRID*              11412               01.3777444540E+00-9.328711123E-02+
*       4.6473527687E-01               0
GRID*              11413               01.3567627789E+00-9.808494643E-02+
*       4.8541525363E-01               0
GRID*              11414               0-1.242789032E+00-7.191091931E-01+
*       4.1074190704E-01               0
GRID*              11415               0-1.242872166E+00-7.191091931E-01+
*       4.8495404111E-01               0
GRID*              11416               0-1.241827473E+00-7.188093242E-01+
*       5.2067894200E-01               0
GRID*              11417               0-1.179847207E+00-6.301054221E-01+
*       8.7823974452E-01               0
GRID*              11418               0-1.179847225E+00-6.389722591E-01+
*       8.1055041687E-01               0
GRID*              11419               0-1.378109751E+006.0985542366E-02+
*       4.4626364868E-01               0
GRID*              11420               0-1.865230689E+006.2860884240E-01+
*       -1.149105915E-01               0
GRID*              11421               0-1.612228056E+00-3.158692034E-01+
*       -2.289592539E-01               0
GRID*              11422               01.6973413554E+003.4202527341E-01+
*       -2.119817935E-02               0
GRID*              11423               01.7722210132E+006.3796197149E-01+
*       -2.290269926E-01               0
GRID*              11424               0-1.180007978E+003.0188491281E-01+
*       1.3272977918E+00               0
GRID*              11425               0-1.598926210E+00-3.429624427E-01+
*       -2.121408723E-02               0
GRID*              11426               01.3766866998E+006.5833337031E-02+
*       4.5972760326E-01               0
GRID*              11427               01.3683364804E+008.1027590626E-02+
*       1.3932366346E+00               0
GRID*              11428               0-1.782165051E+00-7.136529392E-01+
*       -1.147013833E-01               0
GRID*              11429               0-1.789090237E+003.8543482502E-01+
*       -2.289567560E-01               0
GRID*              11430               01.3777682724E+00-1.101747920E-01+
*       4.7088432917E-01               0
GRID*              11431               0-1.860231791E+00-5.777443988E-02+
*       -1.563354871E-01               0
GRID*              11432               01.0273480023E+00-6.573836699E-01+
*       -2.181383508E-01               0
GRID*              11433               0-1.783295154E+00-6.337831761E-01+
*       -2.111499618E-02               0
GRID*              11434               0-1.481375606E+00-4.781647977E-01+
*       -1.990832631E-02               0
GRID*              11435               01.8654658971E+005.2432921408E-01+
*       -1.357610695E-01               0
GRID*              11436               0-1.676731447E+006.7129815127E-01+
*       -2.001235152E-02               0
GRID*              11437               0-1.179280323E+00-6.263315464E-01+
*       9.1106185003E-01               0
GRID*              11438               01.6674894422E+007.1085599032E-01+
*       -5.322264885E-02               0
GRID*              11439               0-1.165182511E+001.7579047198E-01+
*       9.5319936393E-01               0
GRID*              11440               0-1.223304117E+002.0820135819E-01+
*       9.9628037488E-01               0
GRID*              11441               0-1.165182511E+002.2938900939E-01+
*       9.7620015585E-01               0
GRID*              11442               0-1.161358786E+001.1799222148E-01+
*       9.8938968769E-01               0
GRID*              11443               0-1.203023739E+001.5026639676E-01+
*       9.7075502212E-01               0
GRID*              11444               0-1.219480392E+001.8267136563E-01+
*       1.0138406066E+00               0
GRID*              11445               0-1.164488831E+002.3625496219E-01+
*       9.6728141963E-01               0
GRID*              11446               0-1.206847464E+001.7579638933E-01+
*       9.5319479037E-01               0
GRID*              11447               0-1.180921394E+002.0257623595E-01+
*       9.5202443302E-01               0
GRID*              11448               01.3123763361E+00-7.256449082E-01+
*       2.1571133452E-01               0
GRID*              11449               0-1.883125894E+00-2.169346871E-01+
*       -1.654122885E-01               0
GRID*              11450               0-1.211833344E+008.6652908665E-02+
*       1.0063264311E+00               0
GRID*              11451               0-1.246877114E+008.1661764443E-02+
*       1.0670863358E+00               0
GRID*              11452               0-1.198967605E+007.1132596428E-02+
*       1.0256929867E+00               0
GRID*              11453               0-1.177548831E+006.5908952223E-02+
*       1.0486006810E+00               0
GRID*              11454               0-1.164583734E+005.3956284080E-02+
*       1.0518390675E+00               0
GRID*              11455               0-1.241292127E+005.8886363197E-02+
*       1.0660737636E+00               0
GRID*              11456               0-1.190749391E+006.6739459885E-02+
*       1.0183107718E+00               0
GRID*              11457               0-1.177784294E+005.4786791742E-02+
*       1.0215491583E+00               0
GRID*              11458               0-1.656044407E-016.9542691638E-01+
*       -1.163634942E-01               0
GRID*              11459               0-1.202993828E+00-6.836105853E-02+
*       1.0061371409E+00               0
GRID*              11460               0-1.217401818E+00-4.386196900E-02+
*       1.0117880401E+00               0
GRID*              11461               0-1.175735561E+00-4.386366725E-02+
*       1.0117878299E+00               0
GRID*              11462               0-1.185409229E+002.4969618177E-02+
*       1.0428718750E+00               0
GRID*              11463               0-1.190791747E+003.8869592686E-03+
*       1.0509897554E+00               0
GRID*              11464               0-1.182653030E+002.3171670567E-03+
*       1.0424495856E+00               0
GRID*              11465               0-1.174405158E+00-4.499787602E-02+
*       1.0228084053E+00               0
GRID*              11466               0-1.390526632E+006.7504784730E-01+
*       -1.660176954E-01               0
GRID*              11467               0-1.355879977E+006.8984178043E-01+
*       -1.360448984E-01               0
GRID*              11468               0-1.178078581E+009.3259066728E-02+
*       1.0252651747E+00               0
GRID*              11469               0-1.163773344E+001.4040449574E-01+
*       1.0285057769E+00               0
GRID*              11470               0-1.186296794E+009.7652203271E-02+
*       1.0326473896E+00               0
GRID*              11471               01.1693906456E+006.6025114247E-01+
*       8.1416608266E-01               0
GRID*              11472               01.1943832538E+006.9931133631E-01+
*       8.1607811513E-01               0
GRID*              11473               01.4731878986E+006.6234392628E-01+
*       -2.183204490E-02               0
GRID*              11474               01.4778954275E+006.9523990737E-01+
*       -5.378239230E-02               0
GRID*              11475               01.5014862680E+006.9509492707E-01+
*       -4.654361198E-02               0
GRID*              11476               0-2.942253201E-01-6.629077312E-01+
*       -2.505560260E-02               0
GRID*              11477               0-1.214636477E+00-5.186226895E-02+
*       1.4409285177E+00               0
GRID*              11478               0-1.171470764E+006.7414525588E-01+
*       3.9250421372E-01               0
GRID*              11479               0-1.227090341E+006.6417874499E-01+
*       3.5061036716E-01               0
GRID*              11480               07.7326456546E-01-6.562998468E-01+
*       -2.405304451E-02               0
GRID*              11481               04.4708964084E-016.6307647646E-01+
*       -2.504916058E-02               0
GRID*              11482               0-1.176143239E+001.5097333751E-01+
*       9.8850282869E-01               0
GRID*              11483               0-1.161358786E+001.5342328246E-01+
*       1.0205966763E+00               0
GRID*              11484               01.1954248367E+006.2254599065E-01+
*       1.0530007281E+00               0
GRID*              11485               0-1.176382182E+001.3163151129E-01+
*       1.0039727333E+00               0
GRID*              11486               0-1.176973904E+009.5890890505E-02+
*       1.0135306748E+00               0
GRID*              11487               0-1.203615131E+008.2259772121E-02+
*       9.9894421623E-01               0
GRID*              11488               0-1.177486859E+001.2899968751E-01+
*       1.0157072332E+00               0
GRID*              11489               0-1.375084860E+006.5724277729E-01+
*       8.1502615766E-01               0
GRID*              11490               0-1.170375829E+00-6.971319699E-02+
*       1.3930752449E+00               0
GRID*              11491               01.6214900225E+007.1928363035E-01+
*       -5.463735340E-02               0
GRID*              11492               0-1.183369281E+007.7562192988E-02+
*       1.0225617305E+00               0
GRID*              11493               0-1.177661322E+001.3752075920E-02+
*       1.0274965116E+00               0
GRID*              11494               0-1.169966252E+00-1.633223785E-02+
*       1.0660694040E+00               0
GRID*              11495               0-1.170470533E+002.4942543723E-01+
*       9.6652670386E-01               0
GRID*              11496               0-1.877155817E+00-2.305536905E-01+
*       -1.558118146E-01               0
GRID*              11497               0-1.180641482E+00-5.704421560E-02+
*       1.3824821388E+00               0
GRID*              11498               01.3770119904E+00-3.218714720E-01+
*       7.3320210872E-01               0
GRID*              11499               01.6204339860E+007.0235968904E-01+
*       -3.120111911E-02               0
GRID*              11500               01.8730757441E+00-3.707780066E-01+
*       -1.566144248E-01               0
GRID*              11501               0-1.493513029E+00-5.980714194E-01+
*       -2.149632192E-02               0
GRID*              11502               01.4870745375E+006.5149589352E-01+
*       -3.195034741E-02               0
GRID*              11503               0-1.170168721E+007.6731685326E-02+
*       1.0528516397E+00               0
GRID*              11504               0-1.898749948E+00-7.500000000E-02+
*       -1.250000000E-01               0
GRID*              11505               0-1.898749948E+00-2.250000000E-01+
*       -1.250000000E-01               0
GRID*              11506               0-1.898749948E+00-5.187712963E-01+
*       -1.250000000E-01               0
GRID*              11507               0-1.898749948E+00-6.590849232E-01+
*       -1.250000000E-01               0
GRID*              11508               0-1.898749948E+00-3.739473124E-01+
*       -1.250000000E-01               0
GRID*              11509               0-1.898749948E+007.5000000000E-02+
*       -1.250000000E-01               0
GRID*              11510               0-1.898749948E+002.2500000000E-01+
*       -1.250000000E-01               0
GRID*              11511               0-1.898749948E+005.1877129633E-01+
*       -1.250000000E-01               0
GRID*              11512               0-1.898749948E+006.5908492322E-01+
*       -1.250000000E-01               0
GRID*              11513               0-1.898749948E+003.7394731242E-01+
*       -1.250000000E-01               0
GRID*              11514               0-1.898749948E+00-1.875000000E-01+
*       -6.250000000E-02               0
GRID*              11515               0-1.898749948E+00-2.625000000E-01+
*       -6.250000000E-02               0
GRID*              11516               0-1.898749948E+00-1.125000000E-01+
*       -1.875000000E-01               0
GRID*              11517               0-1.898749948E+00-3.750000000E-02+
*       -1.875000000E-01               0
GRID*              11518               0-1.898749948E+00-1.500000000E-01+
*       -1.250000000E-01               0
GRID*              11519               0-1.898749948E+00-1.125000000E-01+
*       -6.250000000E-02               0
GRID*              11520               0-1.898749948E+00-1.875000000E-01+
*       -1.875000000E-01               0
GRID*              11521               0-1.898749948E+00-5.593856482E-01+
*       -6.250000000E-02               0
GRID*              11522               0-1.898749948E+00-4.843856482E-01+
*       -6.250000000E-02               0
GRID*              11523               0-1.898749948E+00-6.295424616E-01+
*       -1.875000000E-01               0
GRID*              11524               0-1.898749948E+00-5.889281098E-01+
*       -1.250000000E-01               0
GRID*              11525               0-1.898749948E+00-5.593856482E-01+
*       -1.875000000E-01               0
GRID*              11526               0-1.898749948E+00-7.045424616E-01+
*       -1.875000000E-01               0
GRID*              11527               0-1.898749948E+00-7.045424616E-01+
*       -1.250000000E-01               0
GRID*              11528               0-1.898749948E+00-6.295424616E-01+
*       -6.250000000E-02               0
GRID*              11529               0-1.898749948E+00-7.045424616E-01+
*       -6.250000000E-02               0
GRID*              11530               0-1.898749948E+00-3.369736562E-01+
*       -1.875000000E-01               0
GRID*              11531               0-1.898749948E+00-4.119736562E-01+
*       -1.875000000E-01               0
GRID*              11532               0-1.898749948E+00-2.625000000E-01+
*       -1.875000000E-01               0
GRID*              11533               0-1.898749948E+00-2.994736562E-01+
*       -1.250000000E-01               0
GRID*              11534               0-1.898749948E+00-3.369736562E-01+
*       -6.250000000E-02               0
GRID*              11535               0-1.898749948E+00-4.119736562E-01+
*       -6.250000000E-02               0
GRID*              11536               0-1.898749948E+00-4.843856482E-01+
*       -1.875000000E-01               0
GRID*              11537               0-1.898749948E+00-4.463593044E-01+
*       -1.250000000E-01               0
GRID*              11538               0-1.898749948E+003.7500000000E-02+
*       -6.250000000E-02               0
GRID*              11539               0-1.898749948E+001.1250000000E-01+
*       -6.250000000E-02               0
GRID*              11540               0-1.898749948E+00-3.750000000E-02+
*       -6.250000000E-02               0
GRID*              11541               0-1.898749948E+000.0000000000E+00+
*       -1.250000000E-01               0
GRID*              11542               0-1.898749948E+003.7500000000E-02+
*       -1.875000000E-01               0
GRID*              11543               0-1.898749948E+001.1250000000E-01+
*       -1.875000000E-01               0
GRID*              11544               0-1.898749948E+001.8750000000E-01+
*       -1.875000000E-01               0
GRID*              11545               0-1.898749948E+002.6250000000E-01+
*       -1.875000000E-01               0
GRID*              11546               0-1.898749948E+001.5000000000E-01+
*       -1.250000000E-01               0
GRID*              11547               0-1.898749948E+001.8750000000E-01+
*       -6.250000000E-02               0
GRID*              11548               0-1.898749948E+005.5938564817E-01+
*       -1.875000000E-01               0
GRID*              11549               0-1.898749948E+004.8438564817E-01+
*       -1.875000000E-01               0
GRID*              11550               0-1.898749948E+006.2954246161E-01+
*       -6.250000000E-02               0
GRID*              11551               0-1.898749948E+005.8892810978E-01+
*       -1.250000000E-01               0
GRID*              11552               0-1.898749948E+005.5938564817E-01+
*       -6.250000000E-02               0
GRID*              11553               0-1.898749948E+007.0454246161E-01+
*       -6.250000000E-02               0
GRID*              11554               0-1.898749948E+007.0454246161E-01+
*       -1.250000000E-01               0
GRID*              11555               0-1.898749948E+006.2954246161E-01+
*       -1.875000000E-01               0
GRID*              11556               0-1.898749948E+007.0454246161E-01+
*       -1.875000000E-01               0
GRID*              11557               0-1.898749948E+003.3697365621E-01+
*       -6.250000000E-02               0
GRID*              11558               0-1.898749948E+004.1197365621E-01+
*       -6.250000000E-02               0
GRID*              11559               0-1.898749948E+002.6250000000E-01+
*       -6.250000000E-02               0
GRID*              11560               0-1.898749948E+002.9947365621E-01+
*       -1.250000000E-01               0
GRID*              11561               0-1.898749948E+003.3697365621E-01+
*       -1.875000000E-01               0
GRID*              11562               0-1.898749948E+004.1197365621E-01+
*       -1.875000000E-01               0
GRID*              11563               0-1.898749948E+004.8438564817E-01+
*       -6.250000000E-02               0
GRID*              11564               0-1.898749948E+004.4635930438E-01+
*       -1.250000000E-01               0
GRID*              11565               0-1.722188867E+00-3.988495623E-01+
*       -1.666674203E-01               0
GRID*              11566               0-1.767616558E+00-4.613254010E-01+
*       -1.666667010E-01               0
GRID*              11567               0-1.767632570E+00-5.386253626E-01+
*       -1.666667002E-01               0
GRID*              11568               0-1.722241289E+00-6.011118905E-01+
*       -1.666677404E-01               0
GRID*              11569               0-1.648800449E+00-6.249999898E-01+
*       -1.666666667E-01               0
GRID*              11570               0-1.575289923E+00-6.011365819E-01+
*       -1.666666794E-01               0
GRID*              11571               0-1.529871808E+00-5.386361041E-01+
*       -1.666670749E-01               0
GRID*              11572               0-1.529857106E+00-4.614097859E-01+
*       -1.666659498E-01               0
GRID*              11573               0-1.575249256E+00-3.988929777E-01+
*       -1.666666397E-01               0
GRID*              11574               0-1.722200305E+00-3.988583324E-01+
*       -8.333226318E-02               0
GRID*              11575               0-1.767616957E+00-4.613266041E-01+
*       -8.333329964E-02               0
GRID*              11576               0-1.767632170E+00-5.386265628E-01+
*       -8.333329897E-02               0
GRID*              11577               0-1.722229754E+00-6.011207351E-01+
*       -8.333256772E-02               0
GRID*              11578               0-1.648800449E+00-6.249999898E-01+
*       -8.333333333E-02               0
GRID*              11579               0-1.575290129E+00-6.011367178E-01+
*       -8.333336099E-02               0
GRID*              11580               0-1.529872751E+00-5.386383821E-01+
*       -8.333405344E-02               0
GRID*              11581               0-1.529856157E+00-4.614120790E-01+
*       -8.333293036E-02               0
GRID*              11582               0-1.575249054E+00-3.988931118E-01+
*       -8.333332113E-02               0
GRID*              11583               0-1.722200195E+00-3.988582485E-01+
*       -1.249989474E-01               0
GRID*              11584               0-1.749859131E+00-4.265032617E-01+
*       -8.333279181E-02               0
GRID*              11585               0-1.749861585E+00-4.265066156E-01+
*       -1.249998964E-01               0
GRID*              11586               0-1.767616728E+00-4.613259144E-01+
*       -1.250000053E-01               0
GRID*              11587               0-1.749865131E+00-4.265114620E-01+
*       -1.666671957E-01               0
GRID*              11588               0-1.773749945E+00-4.999746854E-01+
*       -8.333333336E-02               0
GRID*              11589               0-1.773749945E+00-4.999746855E-01+
*       -1.250000000E-01               0
GRID*              11590               0-1.767632331E+00-5.386260796E-01+
*       -1.249999930E-01               0
GRID*              11591               0-1.773749945E+00-4.999746856E-01+
*       -1.666666667E-01               0
GRID*              11592               0-1.749894860E+00-5.734476328E-01+
*       -8.333280575E-02               0
GRID*              11593               0-1.749891248E+00-5.734525719E-01+
*       -1.250001170E-01               0
GRID*              11594               0-1.722241114E+00-6.011120243E-01+
*       -1.250010457E-01               0
GRID*              11595               0-1.749888869E+00-5.734558262E-01+
*       -1.666672085E-01               0
GRID*              11596               0-1.687396462E+00-6.188753202E-01+
*       -8.333311522E-02               0
GRID*              11597               0-1.687397614E+00-6.188748837E-01+
*       -1.249996611E-01               0
GRID*              11598               0-1.648800449E+00-6.249999898E-01+
*       -1.250000000E-01               0
GRID*              11599               0-1.687396612E+00-6.188752634E-01+
*       -1.666664329E-01               0
GRID*              11600               0-1.610138596E+00-6.188867161E-01+
*       -8.333314034E-02               0
GRID*              11601               0-1.610137392E+00-6.188862056E-01+
*       -1.249996506E-01               0
GRID*              11602               0-1.575290061E+00-6.011366728E-01+
*       -1.250000227E-01               0
GRID*              11603               0-1.610613884E+00-6.174315321E-01+
*       -1.666663469E-01               0
GRID*              11604               0-1.547644640E+00-5.735014660E-01+
*       -1.250006976E-01               0
GRID*              11605               0-1.547643619E+00-5.735001764E-01+
*       -1.666671792E-01               0
GRID*              11606               0-1.547641396E+00-5.734973698E-01+
*       -8.333344318E-02               0
GRID*              11607               0-1.529872683E+00-5.386382173E-01+
*       -1.250006976E-01               0
GRID*              11608               0-1.523749950E+00-5.000252748E-01+
*       -1.250000000E-01               0
GRID*              11609               0-1.523749950E+00-5.000252747E-01+
*       -1.666666667E-01               0
GRID*              11610               0-1.523749950E+00-5.000252748E-01+
*       -8.333333335E-02               0
GRID*              11611               0-1.529857024E+00-4.614099832E-01+
*       -1.249993101E-01               0
GRID*              11612               0-1.547614881E+00-4.265394644E-01+
*       -1.249993040E-01               0
GRID*              11613               0-1.547611723E+00-4.265434498E-01+
*       -1.666665427E-01               0
GRID*              11614               0-1.547613848E+00-4.265407680E-01+
*       -8.333282447E-02               0
GRID*              11615               0-1.575249187E+00-3.988930234E-01+
*       -1.249999781E-01               0
GRID*              11616               0-1.687348349E+00-3.811090389E-01+
*       -1.666668822E-01               0
GRID*              11617               0-1.687346943E+00-3.811085070E-01+
*       -2.083334014E-01               0
GRID*              11618               0-1.722189722E+00-3.988502182E-01+
*       -2.083339508E-01               0
GRID*              11619               0-1.687348550E+00-3.811091148E-01+
*       -8.333356986E-02               0
GRID*              11620               0-1.687349500E+00-3.811094740E-01+
*       -1.250003362E-01               0
GRID*              11621               0-1.687344606E+00-3.811076230E-01+
*       -4.166648942E-02               0
GRID*              11622               0-1.722196057E+00-3.988550760E-01+
*       -4.166627356E-02               0
GRID*              11623               0-1.749860832E+00-4.265055864E-01+
*       -4.166642840E-02               0
GRID*              11624               0-1.767616853E+00-4.613262901E-01+
*       -4.166665063E-02               0
GRID*              11625               0-1.773749945E+00-4.999746854E-01+
*       -4.166666670E-02               0
GRID*              11626               0-1.767632284E+00-5.386262216E-01+
*       -4.166665152E-02               0
GRID*              11627               0-1.749893326E+00-5.734497309E-01+
*       -4.166641269E-02               0
GRID*              11628               0-1.722230688E+00-6.011200184E-01+
*       -4.166604994E-02               0
GRID*              11629               0-1.687395041E+00-6.188758589E-01+
*       -4.166659768E-02               0
GRID*              11630               0-1.648800449E+00-6.249999898E-01+
*       -4.166666667E-02               0
GRID*              11631               0-1.610616057E+00-6.174324595E-01+
*       -4.166662768E-02               0
GRID*              11632               0-1.575289864E+00-6.011365434E-01+
*       -4.166667489E-02               0
GRID*              11633               0-1.547638739E+00-5.734940147E-01+
*       -4.166629516E-02               0
GRID*              11634               0-1.529869777E+00-5.386311977E-01+
*       -4.166640294E-02               0
GRID*              11635               0-1.523749950E+00-5.000252749E-01+
*       -4.166666668E-02               0
GRID*              11636               0-1.529855307E+00-4.614141325E-01+
*       -4.166654486E-02               0
GRID*              11637               0-1.547611973E+00-4.265431347E-01+
*       -4.166649748E-02               0
GRID*              11638               0-1.575248938E+00-3.988931887E-01+
*       -4.166666294E-02               0
GRID*              11639               0-1.610091191E+00-3.811286505E-01+
*       -4.166676647E-02               0
GRID*              11640               0-1.610088614E+00-3.811297408E-01+
*       -8.333376760E-02               0
GRID*              11641               0-1.610089219E+00-3.811294847E-01+
*       -1.250003557E-01               0
GRID*              11642               0-1.610090443E+00-3.811289668E-01+
*       -1.666668635E-01               0
GRID*              11643               0-1.575248990E+00-3.988931541E-01+
*       -2.083333260E-01               0
GRID*              11644               0-1.610091514E+00-3.811285137E-01+
*       -2.083333911E-01               0
GRID*              11645               0-1.529854171E+00-4.614168768E-01+
*       -2.083335875E-01               0
GRID*              11646               0-1.547608991E+00-4.265468969E-01+
*       -2.083337040E-01               0
GRID*              11647               0-1.529870947E+00-5.386340246E-01+
*       -2.083334569E-01               0
GRID*              11648               0-1.523749950E+00-5.000252747E-01+
*       -2.083333333E-01               0
GRID*              11649               0-1.575289802E+00-6.011365023E-01+
*       -2.083333372E-01               0
GRID*              11650               0-1.547641732E+00-5.734977943E-01+
*       -2.083335040E-01               0
GRID*              11651               0-1.648800449E+00-6.249999898E-01+
*       -2.083333333E-01               0
GRID*              11652               0-1.610615735E+00-6.174323171E-01+
*       -2.083332540E-01               0
GRID*              11653               0-1.722237034E+00-6.011151532E-01+
*       -2.083337287E-01               0
GRID*              11654               0-1.687392679E+00-6.188767542E-01+
*       -2.083335124E-01               0
GRID*              11655               0-1.767632467E+00-5.386256711E-01+
*       -2.083333495E-01               0
GRID*              11656               0-1.749890577E+00-5.734534902E-01+
*       -2.083335705E-01               0
GRID*              11657               0-1.767616670E+00-4.613257392E-01+
*       -2.083333486E-01               0
GRID*              11658               0-1.773749945E+00-4.999746856E-01+
*       -2.083333333E-01               0
GRID*              11659               0-1.749863583E+00-4.265093457E-01+
*       -2.083335863E-01               0
GRID*              11660               0-1.722188869E+006.0115043560E-01+
*       -1.666674203E-01               0
GRID*              11661               0-1.767616553E+005.3867459445E-01+
*       -1.666667010E-01               0
GRID*              11662               0-1.767632573E+004.6137463343E-01+
*       -1.666667002E-01               0
GRID*              11663               0-1.722241286E+003.9888810744E-01+
*       -1.666677404E-01               0
GRID*              11664               0-1.648800449E+003.7500001022E-01+
*       -1.666666667E-01               0
GRID*              11665               0-1.575289926E+003.9886341301E-01+
*       -1.666666794E-01               0
GRID*              11666               0-1.529871817E+004.6136389100E-01+
*       -1.666670750E-01               0
GRID*              11667               0-1.529857097E+005.3859020912E-01+
*       -1.666659498E-01               0
GRID*              11668               0-1.575249253E+006.0110701678E-01+
*       -1.666666397E-01               0
GRID*              11669               0-1.722200307E+006.0114166546E-01+
*       -8.333226318E-02               0
GRID*              11670               0-1.767616954E+005.3867339198E-01+
*       -8.333329964E-02               0
GRID*              11671               0-1.767632175E+004.6137343267E-01+
*       -8.333329897E-02               0
GRID*              11672               0-1.722229751E+003.9887926279E-01+
*       -8.333256772E-02               0
GRID*              11673               0-1.648800449E+003.7500001021E-01+
*       -8.333333333E-02               0
GRID*              11674               0-1.575290132E+003.9886327653E-01+
*       -8.333336099E-02               0
GRID*              11675               0-1.529872760E+004.6136161294E-01+
*       -8.333405344E-02               0
GRID*              11676               0-1.529856148E+005.3858791620E-01+
*       -8.333293036E-02               0
GRID*              11677               0-1.575249050E+006.0110688314E-01+
*       -8.333332113E-02               0
GRID*              11678               0-1.722200198E+006.0114174943E-01+
*       -1.249989474E-01               0
GRID*              11679               0-1.749861593E+005.7349339017E-01+
*       -1.249998964E-01               0
GRID*              11680               0-1.749865137E+005.7348854266E-01+
*       -1.666671957E-01               0
GRID*              11681               0-1.749859140E+005.7349674484E-01+
*       -8.333279181E-02               0
GRID*              11682               0-1.767616724E+005.3867408137E-01+
*       -1.250000053E-01               0
GRID*              11683               0-1.773749945E+005.0002531207E-01+
*       -8.333333336E-02               0
GRID*              11684               0-1.773749945E+005.0002531200E-01+
*       -1.250000000E-01               0
GRID*              11685               0-1.767632335E+004.6137391617E-01+
*       -1.249999930E-01               0
GRID*              11686               0-1.773749945E+005.0002531193E-01+
*       -1.666666667E-01               0
GRID*              11687               0-1.749894854E+004.2655237175E-01+
*       -8.333280575E-02               0
GRID*              11688               0-1.749891241E+004.2654743389E-01+
*       -1.250001170E-01               0
GRID*              11689               0-1.722241111E+003.9888797360E-01+
*       -1.250010457E-01               0
GRID*              11690               0-1.749888860E+004.2654418040E-01+
*       -1.666672085E-01               0
GRID*              11691               0-1.687396466E+003.8112467457E-01+
*       -8.333311522E-02               0
GRID*              11692               0-1.687397618E+003.8112511034E-01+
*       -1.249996611E-01               0
GRID*              11693               0-1.648800449E+003.7500001022E-01+
*       -1.250000000E-01               0
GRID*              11694               0-1.687396616E+003.8112473131E-01+
*       -1.666664329E-01               0
GRID*              11695               0-1.610138603E+003.8111330672E-01+
*       -8.333314034E-02               0
GRID*              11696               0-1.610137399E+003.8111381642E-01+
*       -1.249996506E-01               0
GRID*              11697               0-1.575290064E+003.9886332171E-01+
*       -1.250000227E-01               0
GRID*              11698               0-1.610136790E+003.8111407415E-01+
*       -1.666662382E-01               0
GRID*              11699               0-1.547641389E+004.2650261929E-01+
*       -8.333344318E-02               0
GRID*              11700               0-1.547644634E+004.2649852402E-01+
*       -1.250006976E-01               0
GRID*              11701               0-1.529872692E+004.6136177769E-01+
*       -1.250006976E-01               0
GRID*              11702               0-1.547643612E+004.2649981334E-01+
*       -1.666671792E-01               0
GRID*              11703               0-1.523749950E+004.9997471988E-01+
*       -8.333333335E-02               0
GRID*              11704               0-1.523749950E+004.9997471993E-01+
*       -1.250000000E-01               0
GRID*              11705               0-1.529857015E+005.3859001185E-01+
*       -1.249993101E-01               0
GRID*              11706               0-1.523749950E+004.9997471998E-01+
*       -1.666666667E-01               0
GRID*              11707               0-1.547613855E+005.7345922167E-01+
*       -8.333282447E-02               0
GRID*              11708               0-1.547614888E+005.7346052562E-01+
*       -1.249993040E-01               0
GRID*              11709               0-1.575249184E+006.0110697124E-01+
*       -1.249999781E-01               0
GRID*              11710               0-1.547611730E+005.7345653930E-01+
*       -1.666665427E-01               0
GRID*              11711               0-1.686878153E+006.1743696773E-01+
*       -2.083333844E-01               0
GRID*              11712               0-1.687348346E+006.1889095593E-01+
*       -1.666668822E-01               0
GRID*              11713               0-1.722189725E+006.0114977968E-01+
*       -2.083339508E-01               0
GRID*              11714               0-1.687349496E+006.1889052007E-01+
*       -1.250003362E-01               0
GRID*              11715               0-1.687348546E+006.1889087992E-01+
*       -8.333356986E-02               0
GRID*              11716               0-1.687344603E+006.1889237427E-01+
*       -4.166648942E-02               0
GRID*              11717               0-1.722196060E+006.0114492194E-01+
*       -4.166627356E-02               0
GRID*              11718               0-1.749860840E+005.7349441963E-01+
*       -4.166642840E-02               0
GRID*              11719               0-1.767616849E+005.3867370577E-01+
*       -4.166665063E-02               0
GRID*              11720               0-1.773749945E+005.0002531214E-01+
*       -4.166666670E-02               0
GRID*              11721               0-1.767632288E+004.6137377411E-01+
*       -4.166665152E-02               0
GRID*              11722               0-1.749893319E+004.2655027421E-01+
*       -4.166641269E-02               0
GRID*              11723               0-1.722230686E+003.9887997956E-01+
*       -4.166604994E-02               0
GRID*              11724               0-1.687395044E+003.8112413680E-01+
*       -4.166659768E-02               0
GRID*              11725               0-1.648800449E+003.7500001021E-01+
*       -4.166666667E-02               0
GRID*              11726               0-1.610139654E+003.8111286214E-01+
*       -4.166661008E-02               0
GRID*              11727               0-1.575289842E+003.9886346867E-01+
*       -4.166667303E-02               0
GRID*              11728               0-1.547638730E+004.2650597367E-01+
*       -4.166629516E-02               0
GRID*              11729               0-1.529869787E+004.6136879774E-01+
*       -4.166640294E-02               0
GRID*              11730               0-1.523749950E+004.9997471983E-01+
*       -4.166666668E-02               0
GRID*              11731               0-1.529855298E+005.3858586281E-01+
*       -4.166654486E-02               0
GRID*              11732               0-1.547611980E+005.7345685449E-01+
*       -4.166649748E-02               0
GRID*              11733               0-1.575248934E+006.0110680657E-01+
*       -4.166666294E-02               0
GRID*              11734               0-1.610568242E+006.1741687663E-01+
*       -4.166674152E-02               0
GRID*              11735               0-1.610088607E+006.1887028077E-01+
*       -8.333376760E-02               0
GRID*              11736               0-1.610089213E+006.1887053726E-01+
*       -1.250003557E-01               0
GRID*              11737               0-1.610090436E+006.1887105593E-01+
*       -1.666668635E-01               0
GRID*              11738               0-1.575248986E+006.0110684103E-01+
*       -2.083333260E-01               0
GRID*              11739               0-1.610091507E+006.1887150986E-01+
*       -2.083333911E-01               0
GRID*              11740               0-1.529854161E+005.3858311865E-01+
*       -2.083335875E-01               0
GRID*              11741               0-1.547609000E+005.7345309144E-01+
*       -2.083337040E-01               0
GRID*              11742               0-1.529870957E+004.6136597066E-01+
*       -2.083334569E-01               0
GRID*              11743               0-1.523749950E+004.9997472001E-01+
*       -2.083333333E-01               0
GRID*              11744               0-1.575289806E+003.9886349290E-01+
*       -2.083333372E-01               0
GRID*              11745               0-1.547641725E+004.2650219489E-01+
*       -2.083335040E-01               0
GRID*              11746               0-1.648800449E+003.7500001022E-01+
*       -2.083333333E-01               0
GRID*              11747               0-1.610139259E+003.8111302915E-01+
*       -2.083332254E-01               0
GRID*              11748               0-1.722237031E+003.9888484468E-01+
*       -2.083337287E-01               0
GRID*              11749               0-1.687392681E+003.8112324303E-01+
*       -2.083335124E-01               0
GRID*              11750               0-1.767632470E+004.6137432483E-01+
*       -2.083333495E-01               0
GRID*              11751               0-1.749890569E+004.2654651581E-01+
*       -2.083335705E-01               0
GRID*              11752               0-1.767616666E+005.3867425645E-01+
*       -2.083333486E-01               0
GRID*              11753               0-1.773749945E+005.0002531189E-01+
*       -2.083333333E-01               0
GRID*              11754               0-1.749863589E+005.7349065946E-01+
*       -2.083335863E-01               0
GRID*              11755               0-1.807152063E+006.2476901610E-01+
*       0.0000000000E+00               0
GRID*              11756               0-1.495131417E+006.4421906993E-01+
*       0.0000000000E+00               0
GRID*              11757               0-1.826926064E+005.3682293198E-01+
*       0.0000000000E+00               0
GRID*              11758               0-1.504827504E+003.6282076378E-01+
*       0.0000000000E+00               0
GRID*              11759               0-1.793093384E+00-3.630015366E-01+
*       0.0000000000E+00               0
GRID*              11760               0-1.772402174E+00-7.582480952E-02+
*       0.0000000000E+00               0
GRID*              11761               0-1.650265828E+00-9.157585520E-04+
*       0.0000000000E+00               0
GRID*              11762               0-1.527500858E+007.4682570981E-02+
*       0.0000000000E+00               0
GRID*              11763               0-1.659160727E+001.4910479765E-01+
*       0.0000000000E+00               0
GRID*              11764               0-1.784115678E+002.2130402047E-01+
*       0.0000000000E+00               0
GRID*              11765               0-1.777354500E+007.4253929082E-02+
*       0.0000000000E+00               0
GRID*              11766               0-1.535917230E+002.3719760818E-01+
*       0.0000000000E+00               0
GRID*              11767               0-1.589868201E+003.3715330618E-01+
*       0.0000000000E+00               0
GRID*              11768               0-1.677640554E+002.9579383252E-01+
*       0.0000000000E+00               0
GRID*              11769               0-1.791648375E+003.5402602936E-01+
*       0.0000000000E+00               0
GRID*              11770               0-1.523449647E+00-7.568268642E-02+
*       0.0000000000E+00               0
GRID*              11771               0-1.766413499E+00-2.342435399E-01+
*       0.0000000000E+00               0
GRID*              11772               0-1.646461115E+00-1.486041424E-01+
*       0.0000000000E+00               0
GRID*              11773               0-1.527320197E+00-2.345679248E-01+
*       0.0000000000E+00               0
GRID*              11774               0-1.713696041E+00-3.317953784E-01+
*       0.0000000000E+00               0
GRID*              11775               0-1.647051887E+00-2.774276175E-01+
*       0.0000000000E+00               0
GRID*              11776               0-1.502541931E+00-3.635527123E-01+
*       0.0000000000E+00               0
GRID*              11777               0-1.581554278E+00-3.326660200E-01+
*       0.0000000000E+00               0
GRID*              11778               0-1.482360959E+00-6.185875606E-01+
*       0.0000000000E+00               0
GRID*              11779               0-1.802360505E+00-6.442278415E-01+
*       0.0000000000E+00               0
GRID*              11780               0-1.464302465E+00-4.557074778E-01+
*       0.0000000000E+00               0
GRID*              11781               0-1.833191161E+004.5568701990E-01+
*       0.0000000000E+00               0
GRID*              11782               0-1.464310287E+004.5568340317E-01+
*       0.0000000000E+00               0
GRID*              11783               0-1.833183352E+00-4.556630037E-01+
*       0.0000000000E+00               0
GRID*              11784               0-1.690441865E+00-6.874999949E-01+
*       0.0000000000E+00               0
GRID*              11785               0-1.690416614E+006.8750000000E-01+
*       0.0000000000E+00               0
GRID*              11786               0-1.852951005E+006.8738450805E-01+
*       0.0000000000E+00               0
GRID*              11787               0-1.769617672E+006.8738450805E-01+
*       0.0000000000E+00               0
GRID*              11788               0-1.852951005E+006.1238450805E-01+
*       0.0000000000E+00               0
GRID*              11789               0-1.530274016E+006.9710953497E-01+
*       0.0000000000E+00               0
GRID*              11790               0-1.446940682E+006.9710953497E-01+
*       0.0000000000E+00               0
GRID*              11791               0-1.446940682E+006.2210953497E-01+
*       0.0000000000E+00               0
GRID*              11792               0-1.535190153E+006.2266292269E-01+
*       0.0000000000E+00               0
GRID*              11793               0-1.512493193E+005.9140205618E-01+
*       0.0000000000E+00               0
GRID*              11794               0-1.787384408E+005.8172150233E-01+
*       0.0000000000E+00               0
GRID*              11795               0-1.764672849E+006.1295791107E-01+
*       0.0000000000E+00               0
GRID*              11796               0-1.862838006E+004.9341146599E-01+
*       0.0000000000E+00               0
GRID*              11797               0-1.862838006E+005.6841146599E-01+
*       0.0000000000E+00               0
GRID*              11798               0-1.817039064E+005.8079597404E-01+
*       0.0000000000E+00               0
GRID*              11799               0-1.797271409E+005.3774846027E-01+
*       0.0000000000E+00               0
GRID*              11800               0-1.797279219E+004.9909848589E-01+
*       0.0000000000E+00               0
GRID*              11801               0-1.451788726E+004.0641038189E-01+
*       0.0000000000E+00               0
GRID*              11802               0-1.451788726E+003.3141038189E-01+
*       0.0000000000E+00               0
GRID*              11803               0-1.517349065E+004.1209378506E-01+
*       0.0000000000E+00               0
GRID*              11804               0-1.540058630E+003.8084214425E-01+
*       0.0000000000E+00               0
GRID*              11805               0-1.845921666E+00-4.065007683E-01+
*       0.0000000000E+00               0
GRID*              11806               0-1.845921666E+00-3.315007683E-01+
*       0.0000000000E+00               0
GRID*              11807               0-1.780355071E+00-4.121637720E-01+
*       0.0000000000E+00               0
GRID*              11808               0-1.757643507E+00-3.809273673E-01+
*       0.0000000000E+00               0
GRID*              11809               0-1.835576061E+00-3.791240476E-02+
*       0.0000000000E+00               0
GRID*              11810               0-1.835576061E+00-1.129124048E-01+
*       0.0000000000E+00               0
GRID*              11811               0-1.838052224E+003.7126964541E-02+
*       0.0000000000E+00               0
GRID*              11812               0-1.838052224E+001.1212696454E-01+
*       0.0000000000E+00               0
GRID*              11813               0-1.774878337E+00-7.854402214E-04+
*       0.0000000000E+00               0
GRID*              11814               0-1.711334001E+00-3.837028404E-02+
*       0.0000000000E+00               0
GRID*              11815               0-1.713810164E+003.6669085265E-02+
*       0.0000000000E+00               0
GRID*              11816               0-1.841432813E+001.8565201023E-01+
*       0.0000000000E+00               0
GRID*              11817               0-1.841432813E+002.6065201023E-01+
*       0.0000000000E+00               0
GRID*              11818               0-1.780735089E+001.4777897477E-01+
*       0.0000000000E+00               0
GRID*              11819               0-1.654713278E+007.4094519548E-02+
*       0.0000000000E+00               0
GRID*              11820               0-1.588883343E+003.6883406214E-02+
*       0.0000000000E+00               0
GRID*              11821               0-1.593330793E+001.1189368431E-01+
*       0.0000000000E+00               0
GRID*              11822               0-1.718257614E+001.1167936336E-01+
*       0.0000000000E+00               0
GRID*              11823               0-1.721638202E+001.8520440906E-01+
*       0.0000000000E+00               0
GRID*              11824               0-1.467333589E+001.9359880409E-01+
*       0.0000000000E+00               0
GRID*              11825               0-1.467333589E+002.6859880409E-01+
*       0.0000000000E+00               0
GRID*              11826               0-1.531709044E+001.5594008958E-01+
*       0.0000000000E+00               0
GRID*              11827               0-1.597538978E+001.9315120292E-01+
*       0.0000000000E+00               0
GRID*              11828               0-1.463125403E+001.1234128549E-01+
*       0.0000000000E+00               0
GRID*              11829               0-1.668400640E+002.2244931509E-01+
*       0.0000000000E+00               0
GRID*              11830               0-1.730878116E+002.5854892650E-01+
*       0.0000000000E+00               0
GRID*              11831               0-1.520372367E+003.0000918598E-01+
*       0.0000000000E+00               0
GRID*              11832               0-1.606778892E+002.6649572035E-01+
*       0.0000000000E+00               0
GRID*              11833               0-1.562892716E+002.8717545718E-01+
*       0.0000000000E+00               0
GRID*              11834               0-1.547347853E+003.4998703498E-01+
*       0.0000000000E+00               0
GRID*              11835               0-1.633754377E+003.1647356935E-01+
*       0.0000000000E+00               0
GRID*              11836               0-1.582578979E+003.6800841545E-01+
*       0.0000000000E+00               0
GRID*              11837               0-1.619334325E+003.5607665817E-01+
*       0.0000000000E+00               0
GRID*              11838               0-1.779640375E+004.0770003458E-01+
*       0.0000000000E+00               0
GRID*              11839               0-1.756941482E+003.7645449247E-01+
*       0.0000000000E+00               0
GRID*              11840               0-1.845199161E+004.0201301468E-01+
*       0.0000000000E+00               0
GRID*              11841               0-1.845199161E+003.2701301468E-01+
*       0.0000000000E+00               0
GRID*              11842               0-1.787882026E+002.8766502492E-01+
*       0.0000000000E+00               0
GRID*              11843               0-1.734644464E+003.2490993094E-01+
*       0.0000000000E+00               0
GRID*              11844               0-1.663220501E+003.3539692135E-01+
*       0.0000000000E+00               0
GRID*              11845               0-1.699937572E+003.4733839405E-01+
*       0.0000000000E+00               0
GRID*              11846               0-1.463125403E+003.7341285490E-02+
*       0.0000000000E+00               0
GRID*              11847               0-1.461099797E+00-3.784134321E-02+
*       0.0000000000E+00               0
GRID*              11848               0-1.461099797E+00-1.128413432E-01+
*       0.0000000000E+00               0
GRID*              11849               0-1.525475253E+00-5.000577211E-04+
*       0.0000000000E+00               0
GRID*              11850               0-1.586857737E+00-3.829922249E-02+
*       0.0000000000E+00               0
GRID*              11851               0-1.832581723E+00-1.921217700E-01+
*       0.0000000000E+00               0
GRID*              11852               0-1.832581723E+00-2.671217700E-01+
*       0.0000000000E+00               0
GRID*              11853               0-1.769407836E+00-1.550341747E-01+
*       0.0000000000E+00               0
GRID*              11854               0-1.648363472E+00-7.475995045E-02+
*       0.0000000000E+00               0
GRID*              11855               0-1.584955381E+00-1.121434144E-01+
*       0.0000000000E+00               0
GRID*              11856               0-1.709431644E+00-1.122144759E-01+
*       0.0000000000E+00               0
GRID*              11857               0-1.706437307E+00-1.914238411E-01+
*       0.0000000000E+00               0
GRID*              11858               0-1.463035072E+00-1.922839624E-01+
*       0.0000000000E+00               0
GRID*              11859               0-1.463035072E+00-2.672839624E-01+
*       0.0000000000E+00               0
GRID*              11860               0-1.525384922E+00-1.551253056E-01+
*       0.0000000000E+00               0
GRID*              11861               0-1.586890656E+00-1.915860336E-01+
*       0.0000000000E+00               0
GRID*              11862               0-1.779753442E+00-2.986225383E-01+
*       0.0000000000E+00               0
GRID*              11863               0-1.646756501E+00-2.130158799E-01+
*       0.0000000000E+00               0
GRID*              11864               0-1.587186042E+00-2.559977712E-01+
*       0.0000000000E+00               0
GRID*              11865               0-1.706732693E+00-2.558355787E-01+
*       0.0000000000E+00               0
GRID*              11866               0-1.740054770E+00-2.830194591E-01+
*       0.0000000000E+00               0
GRID*              11867               0-1.753394713E+00-3.473984575E-01+
*       0.0000000000E+00               0
GRID*              11868               0-1.680373964E+00-3.046114979E-01+
*       0.0000000000E+00               0
GRID*              11869               0-1.717944836E+00-3.653242882E-01+
*       0.0000000000E+00               0
GRID*              11870               0-1.681222994E+00-3.533976892E-01+
*       0.0000000000E+00               0
GRID*              11871               0-1.516198457E+00-4.124838339E-01+
*       0.0000000000E+00               0
GRID*              11872               0-1.538895411E+00-3.812229657E-01+
*       0.0000000000E+00               0
GRID*              11873               0-1.450645939E+00-4.067763561E-01+
*       0.0000000000E+00               0
GRID*              11874               0-1.450645939E+00-3.317763561E-01+
*       0.0000000000E+00               0
GRID*              11875               0-1.514931064E+00-2.990603185E-01+
*       0.0000000000E+00               0
GRID*              11876               0-1.554437237E+00-2.836169724E-01+
*       0.0000000000E+00               0
GRID*              11877               0-1.542048104E+00-3.481093661E-01+
*       0.0000000000E+00               0
GRID*              11878               0-1.614303082E+00-3.050468187E-01+
*       0.0000000000E+00               0
GRID*              11879               0-1.578401584E+00-3.657796196E-01+
*       0.0000000000E+00               0
GRID*              11880               0-1.647900917E+00-3.262138088E-01+
*       0.0000000000E+00               0
GRID*              11881               0-1.615152113E+00-3.538330100E-01+
*       0.0000000000E+00               0
GRID*              11882               0-1.440555453E+00-6.842937803E-01+
*       0.0000000000E+00               0
GRID*              11883               0-1.523888787E+00-6.842937803E-01+
*       0.0000000000E+00               0
GRID*              11884               0-1.440555453E+00-6.092937803E-01+
*       0.0000000000E+00               0
GRID*              11885               0-1.767221893E+00-6.971139207E-01+
*       0.0000000000E+00               0
GRID*              11886               0-1.850555226E+00-6.971139207E-01+
*       0.0000000000E+00               0
GRID*              11887               0-1.850555226E+00-6.221139207E-01+
*       0.0000000000E+00               0
GRID*              11888               0-1.762297549E+00-6.226724444E-01+
*       0.0000000000E+00               0
GRID*              11889               0-1.784996438E+00-5.914268988E-01+
*       0.0000000000E+00               0
GRID*              11890               0-1.506115787E+00-5.786103761E-01+
*       0.0000000000E+00               0
GRID*              11891               0-1.528825357E+00-6.098620153E-01+
*       0.0000000000E+00               0
GRID*              11892               0-1.440555453E+00-5.342937803E-01+
*       0.0000000000E+00               0
GRID*              11893               0-1.483422198E+00-4.096300950E-01+
*       0.0000000000E+00               0
GRID*              11894               0-1.431526206E+00-4.528537389E-01+
*       0.0000000000E+00               0
GRID*              11895               0-1.497078723E+00-4.585612167E-01+
*       0.0000000000E+00               0
GRID*              11896               0-1.497086539E+00-4.971703347E-01+
*       0.0000000000E+00               0
GRID*              11897               0-1.473331712E+00-5.371475192E-01+
*       0.0000000000E+00               0
GRID*              11898               0-1.830058613E+004.9625497594E-01+
*       0.0000000000E+00               0
GRID*              11899               0-1.800411768E+004.5853052985E-01+
*       0.0000000000E+00               0
GRID*              11900               0-1.865970554E+004.5284350995E-01+
*       0.0000000000E+00               0
GRID*              11901               0-1.812419768E+004.0485652463E-01+
*       0.0000000000E+00               0
GRID*              11902               0-1.497090457E+004.5852510476E-01+
*       0.0000000000E+00               0
GRID*              11903               0-1.497082628E+004.9713422280E-01+
*       0.0000000000E+00               0
GRID*              11904               0-1.484568896E+004.0925208348E-01+
*       0.0000000000E+00               0
GRID*              11905               0-1.431530117E+004.5284170159E-01+
*       0.0000000000E+00               0
GRID*              11906               0-1.431530117E+005.2784170159E-01+
*       0.0000000000E+00               0
GRID*              11907               0-1.800400055E+00-4.584945055E-01+
*       0.0000000000E+00               0
GRID*              11908               0-1.800407861E+00-4.971444799E-01+
*       0.0000000000E+00               0
GRID*              11909               0-1.813138368E+00-4.093322701E-01+
*       0.0000000000E+00               0
GRID*              11910               0-1.865966650E+00-4.528315018E-01+
*       0.0000000000E+00               0
GRID*              11911               0-1.865966650E+00-5.278315018E-01+
*       0.0000000000E+00               0
GRID*              11912               0-1.817771929E+00-5.499454226E-01+
*       0.0000000000E+00               0
GRID*              11913               0-1.479720852E+005.4995123655E-01+
*       0.0000000000E+00               0
GRID*              11914               0-1.727951005E+006.2488450805E-01+
*       0.0000000000E+00               0
GRID*              11915               0-1.565580704E+00-6.217937752E-01+
*       0.0000000000E+00               0
GRID*              11916               0-1.725580477E+00-6.346139157E-01+
*       0.0000000000E+00               0
GRID*              11917               0-1.571940682E+006.3460953497E-01+
*       0.0000000000E+00               0
GRID*              11918               0-1.627929239E+00-7.187499975E-01+
*       0.0000000000E+00               0
GRID*              11919               0-1.711262573E+00-7.187499975E-01+
*       0.0000000000E+00               0
GRID*              11920               0-1.746401185E+00-6.658639182E-01+
*       0.0000000000E+00               0
GRID*              11921               0-1.669621157E+00-6.562499924E-01+
*       0.0000000000E+00               0
GRID*              11922               0-1.586401412E+00-6.530437777E-01+
*       0.0000000000E+00               0
GRID*              11923               0-1.711249948E+007.1875000000E-01+
*       0.0000000000E+00               0
GRID*              11924               0-1.627916614E+007.1875000000E-01+
*       0.0000000000E+00               0
GRID*              11925               0-1.748784339E+006.5613450805E-01+
*       0.0000000000E+00               0
GRID*              11926               0-1.669583281E+006.5625000000E-01+
*       0.0000000000E+00               0
GRID*              11927               0-1.592774016E+006.6585953497E-01+
*       0.0000000000E+00               0
GRID*              11928               0-1.398749948E+006.2301332144E-01+
*       5.2306527314E-01               0
GRID*              11929               0-1.398749948E+005.0996621505E-01+
*       5.9673946850E-01               0
GRID*              11930               0-1.398749948E+004.1345274859E-01+
*       6.5844017738E-01               0
GRID*              11931               0-1.398749948E+003.2505100189E-01+
*       7.0987589363E-01               0
GRID*              11932               0-1.398749948E+00-6.188267807E-01+
*       5.3775658852E-01               0
GRID*              11933               0-1.398749948E+00-5.011350941E-01+
*       6.2279094566E-01               0
GRID*              11934               0-1.398749948E+00-3.996493064E-01+
*       6.9268899944E-01               0
GRID*              11935               0-1.398749948E+00-3.152967143E-01+
*       7.4680927494E-01               0
GRID*              11936               0-1.398749948E+008.7019103116E-02+
*       1.4146723616E-01               0
GRID*              11937               0-1.398749948E+004.2483214526E-02+
*       2.9651985501E-01               0
GRID*              11938               0-1.398749948E+00-2.190465196E-02+
*       4.1624060585E-01               0
GRID*              11939               0-1.398749948E+006.2351443726E-01+
*       3.7470718208E-01               0
GRID*              11940               0-1.398749948E+004.8287513757E-01+
*       4.5740601360E-01               0
GRID*              11941               0-1.398749948E+003.4222121806E-01+
*       4.8741974693E-01               0
GRID*              11942               0-1.398749948E+002.3754530636E-01+
*       5.2306921765E-01               0
GRID*              11943               0-1.398749948E+004.1077831149E-01+
*       5.6244544041E-01               0
GRID*              11944               0-1.398749948E+003.1055042343E-01+
*       6.0402908952E-01               0
GRID*              11945               0-1.398749948E+007.5534061650E-02+
*       4.2802030346E-01               0
GRID*              11946               0-1.398749948E+001.5954159942E-01+
*       3.5898308496E-01               0
GRID*              11947               0-1.398749948E+001.5929727498E-01+
*       2.4876896500E-01               0
GRID*              11948               0-1.398749948E+002.4535523107E-01+
*       1.4389408723E-01               0
GRID*              11949               0-1.398749948E+006.3144453572E-01+
*       2.2665657980E-01               0
GRID*              11950               0-1.398749948E+004.9933766172E-01+
*       2.9684683755E-01               0
GRID*              11951               0-1.398749948E+003.6858561729E-01+
*       3.6238779815E-01               0
GRID*              11952               0-1.398749948E+002.5465607885E-01+
*       4.1618244899E-01               0
GRID*              11953               0-1.398749948E+001.6207493872E-01+
*       4.6713933611E-01               0
GRID*              11954               0-1.398749948E+002.6068562360E-01+
*       2.9369461311E-01               0
GRID*              11955               0-1.398749948E+003.7698574509E-01+
*       2.2289827123E-01               0
GRID*              11956               0-1.398749948E+003.7675867582E-01+
*       1.0003710456E-01               0
GRID*              11957               0-1.398749948E+005.1199392396E-01+
*       1.3554061747E-01               0
GRID*              11958               0-1.398749948E+006.4892810121E-01+
*       1.0325612782E-01               0
GRID*              11959               0-1.398749948E+00-3.085255667E-01+
*       6.5916722730E-01               0
GRID*              11960               0-1.398749948E+00-2.228959988E-01+
*       1.2827613886E-01               0
GRID*              11961               0-1.398749948E+00-1.736519008E-01+
*       2.4072573917E-01               0
GRID*              11962               0-1.398749948E+00-9.116980236E-02+
*       3.1733518200E-01               0
GRID*              11963               0-1.398749948E+00-7.227062953E-02+
*       1.6029645497E-01               0
GRID*              11964               0-1.398749948E+00-2.012813428E-01+
*       3.4314717925E-01               0
GRID*              11965               0-1.398749948E+00-2.266466517E-01+
*       4.7077477864E-01               0
GRID*              11966               0-1.398749948E+00-2.812570723E-01+
*       5.7048512582E-01               0
GRID*              11967               0-1.398749948E+00-1.196404781E-01+
*       4.3190459474E-01               0
GRID*              11968               0-1.398749948E+00-3.600998227E-01+
*       1.2284537013E-01               0
GRID*              11969               0-1.398749948E+00-2.815686322E-01+
*       2.3918500854E-01               0
GRID*              11970               0-1.398749948E+00-4.986943812E-01+
*       1.2304290414E-01               0
GRID*              11971               0-1.398749948E+00-4.094504901E-01+
*       2.4172985304E-01               0
GRID*              11972               0-1.398749948E+00-3.223979912E-01+
*       3.5535549158E-01               0
GRID*              11973               0-1.398749948E+00-3.595688654E-01+
*       4.7447572382E-01               0
GRID*              11974               0-1.398749948E+00-3.889031418E-01+
*       5.8651616237E-01               0
GRID*              11975               0-1.398749948E+00-4.871597700E-01+
*       4.9435327737E-01               0
GRID*              11976               0-1.398749948E+00-6.081071297E-01+
*       3.7519992438E-01               0
GRID*              11977               0-1.398749948E+00-4.539290708E-01+
*       3.6421238332E-01               0
GRID*              11978               0-1.398749948E+00-5.423253521E-01+
*       2.4401624713E-01               0
GRID*              11979               0-1.398749948E+00-6.565006651E-01+
*       2.3701755257E-01               0
GRID*              11980               0-1.398749948E+00-6.315756954E-01+
*       1.2685473348E-01               0
GRID*              11981               0-1.398749948E+00-1.753685920E-02+
*       1.0650814164E+00               0
GRID*              11982               0-1.398749948E+00-6.517617335E-02+
*       1.1435416779E+00               0
GRID*              11983               0-1.398749948E+00-1.258959332E-01+
*       1.2405878711E+00               0
GRID*              11984               0-1.398749948E+00-2.040459052E-01+
*       1.3422437371E+00               0
GRID*              11985               0-1.398749948E+003.0169349589E-01+
*       9.0139777911E-01               0
GRID*              11986               0-1.398749948E+004.3379546834E-01+
*       8.8896454661E-01               0
GRID*              11987               0-1.398749948E+005.8643279531E-01+
*       9.0732538481E-01               0
GRID*              11988               0-1.398749948E+006.2655219761E-01+
*       6.6217574057E-01               0
GRID*              11989               0-1.398749948E+003.2577567540E-01+
*       8.0470524231E-01               0
GRID*              11990               0-1.398749948E+004.2062972681E-01+
*       7.6381536410E-01               0
GRID*              11991               0-1.398749948E+005.1636604375E-01+
*       7.1381446163E-01               0
GRID*              11992               0-1.398749948E+006.2023507150E-01+
*       7.8946324897E-01               0
GRID*              11993               0-1.398749948E+005.1547011677E-01+
*       8.1147161190E-01               0
GRID*              11994               0-1.398749948E+00-7.112514248E-02+
*       1.3662329820E+00               0
GRID*              11995               0-1.398749948E+004.5482680803E-01+
*       1.1392491989E+00               0
GRID*              11996               0-1.398749948E+003.0892376526E-01+
*       1.1155615800E+00               0
GRID*              11997               0-1.398749948E+001.8675435186E-01+
*       1.0974511998E+00               0
GRID*              11998               0-1.398749948E+008.0437933778E-02+
*       1.0677000600E+00               0
GRID*              11999               0-1.398749948E+007.3072404572E-03+
*       1.2502586911E+00               0
GRID*              12000               0-1.398749948E+001.1088576329E-01+
*       1.1775590435E+00               0
GRID*              12001               0-1.398749948E+002.2935621546E-02+
*       1.1387754664E+00               0
GRID*              12002               0-1.398749948E+002.2842878956E-01+
*       1.2124860658E+00               0
GRID*              12003               0-1.398749948E+003.6631907452E-01+
*       1.2433672171E+00               0
GRID*              12004               0-1.398749948E+002.6423566919E-01+
*       1.3393538258E+00               0
GRID*              12005               0-1.398749948E+001.3360038801E-01+
*       1.3044628520E+00               0
GRID*              12006               0-1.398749948E+004.2174951920E-02+
*       1.3806440444E+00               0
GRID*              12007               0-1.398749948E+002.4086638665E-01+
*       9.9634495980E-01               0
GRID*              12008               0-1.398749948E+001.4990140053E-01+
*       1.0169308781E+00               0
GRID*              12009               0-1.398749948E+003.7746266768E-01+
*       1.0109625140E+00               0
GRID*              12010               0-1.398749948E+005.2794068933E-01+
*       1.0250503764E+00               0
GRID*              12011               0-1.398749948E+00-1.073037697E-01+
*       1.0507620860E+00               0
GRID*              12012               0-1.398749948E+00-6.212612793E-01+
*       6.7730490972E-01               0
GRID*              12013               0-1.398749948E+00-2.128834825E-01+
*       1.0109762520E+00               0
GRID*              12014               0-1.398749948E+00-3.371616802E-01+
*       9.9502139404E-01               0
GRID*              12015               0-1.398749948E+00-4.560847890E-01+
*       9.7005495151E-01               0
GRID*              12016               0-1.398749948E+00-5.862237829E-01+
*       9.3816115441E-01               0
GRID*              12017               0-1.398749948E+00-2.974469768E-01+
*       1.1026404111E+00               0
GRID*              12018               0-1.398749948E+00-2.551588245E-01+
*       1.2176203116E+00               0
GRID*              12019               0-1.398749948E+00-1.772540802E-01+
*       1.1276559132E+00               0
GRID*              12020               0-1.398749948E+00-5.452043506E-01+
*       1.0567985566E+00               0
GRID*              12021               0-1.398749948E+00-4.205941700E-01+
*       1.0776079801E+00               0
GRID*              12022               0-1.398749948E+00-3.419381946E-01+
*       1.3065972166E+00               0
GRID*              12023               0-1.398749948E+00-3.890790757E-01+
*       1.1882546818E+00               0
GRID*              12024               0-1.398749948E+00-5.009698445E-01+
*       1.1523351526E+00               0
GRID*              12025               0-1.398749948E+00-3.034369748E-01+
*       8.3300446423E-01               0
GRID*              12026               0-1.398749948E+00-3.739609843E-01+
*       8.9451604045E-01               0
GRID*              12027               0-1.398749948E+00-2.727892402E-01+
*       9.1797629566E-01               0
GRID*              12028               0-1.398749948E+00-6.121288149E-01+
*       8.1037272895E-01               0
GRID*              12029               0-1.398749948E+00-4.864811115E-01+
*       8.5840236857E-01               0
GRID*              12030               0-1.398749948E+00-3.959582846E-01+
*       7.9478023753E-01               0
GRID*              12031               0-1.398749948E+00-5.021417744E-01+
*       7.4286586689E-01               0
GRID*              12032               0-1.398749948E+006.8675721863E-01+
*       4.1235359104E-01               0
GRID*              12033               0-1.398749948E+006.8675721863E-01+
*       3.3735359104E-01               0
GRID*              12034               0-1.398749948E+006.2326387935E-01+
*       4.4888622761E-01               0
GRID*              12035               0-1.398749948E+005.5319478741E-01+
*       4.1605659784E-01               0
GRID*              12036               0-1.398749948E+005.5294422950E-01+
*       4.9023564337E-01               0
GRID*              12037               0-1.398749948E+006.8650666072E-01+
*       4.8653263657E-01               0
GRID*              12038               0-1.398749948E+004.4682672453E-01+
*       5.0992572700E-01               0
GRID*              12039               0-1.398749948E+004.1254817781E-01+
*       4.7241288026E-01               0
GRID*              12040               0-1.398749948E+003.7649976477E-01+
*       5.2493259367E-01               0
GRID*              12041               0-1.398749948E+004.9642067631E-01+
*       5.2707274105E-01               0
GRID*              12042               0-1.398749948E+005.6648976825E-01+
*       5.5990237082E-01               0
GRID*              12043               0-1.398749948E+004.6037226327E-01+
*       5.7959245446E-01               0
GRID*              12044               0-1.398749948E+003.6200158601E-01+
*       6.3123463345E-01               0
GRID*              12045               0-1.398749948E+003.1780071266E-01+
*       6.5695249158E-01               0
GRID*              12046               0-1.398749948E+003.6925187524E-01+
*       6.8415803551E-01               0
GRID*              12047               0-1.398749948E+004.1211553004E-01+
*       6.1044280890E-01               0
GRID*              12048               0-1.398749948E+004.6170948182E-01+
*       6.2758982294E-01               0
GRID*              12049               0-1.398749948E+003.6066436746E-01+
*       5.8323726497E-01               0
GRID*              12050               0-1.398749948E+003.2638582074E-01+
*       5.4572441822E-01               0
GRID*              12051               0-1.398749948E+002.7404786489E-01+
*       5.6354915358E-01               0
GRID*              12052               0-1.398749948E+002.8988326221E-01+
*       5.0524448229E-01               0
GRID*              12053               0-1.398749948E+002.8197176133E-01+
*       6.9309368753E-01               0
GRID*              12054               0-1.398749948E+002.8752550095E-01+
*       7.2993794682E-01               0
GRID*              12055               0-1.398749948E+002.2205168544E-01+
*       5.6612021507E-01               0
GRID*              12056               0-1.398749948E+001.9670798201E-01+
*       5.3880683170E-01               0
GRID*              12057               0-1.398749948E+002.5855424397E-01+
*       6.0660015101E-01               0
GRID*              12058               0-1.398749948E+002.7472147210E-01+
*       6.4017028548E-01               0
GRID*              12059               0-1.398749948E+001.9767761553E-01+
*       7.1947043616E-02               0
GRID*              12060               0-1.398749948E+002.7267761553E-01+
*       7.1947043616E-02               0
GRID*              12061               0-1.398749948E+001.6618716709E-01+
*       1.4268066170E-01               0
GRID*              12062               0-1.398749948E+001.2315818905E-01+
*       1.9511810058E-01               0
GRID*              12063               0-1.398749948E+002.0232625303E-01+
*       1.9633152612E-01               0
GRID*              12064               0-1.398749948E+001.1850955156E-01+
*       7.0733618079E-02               0
GRID*              12065               0-1.398749948E+00-1.611190487E-03+
*       4.5847083700E-01               0
GRID*              12066               0-1.398749948E+00-3.876739546E-02+
*       4.6125466520E-01               0
GRID*              12067               0-1.398749948E+002.6814704843E-02+
*       4.2213045466E-01               0
GRID*              12068               0-1.398749948E+004.7108166320E-02+
*       4.6436068580E-01               0
GRID*              12069               0-1.398749948E+001.0089024475E-01+
*       2.7264441000E-01               0
GRID*              12070               0-1.398749948E+001.0101240697E-01+
*       3.2775146999E-01               0
GRID*              12071               0-1.398749948E+001.5941943720E-01+
*       3.0387602498E-01               0
GRID*              12072               0-1.398749948E+006.4751158821E-02+
*       2.1899354558E-01               0
GRID*              12073               0-1.398749948E+005.9008638088E-02+
*       3.6227007924E-01               0
GRID*              12074               0-1.398749948E+001.0289281281E-02+
*       3.5638023043E-01               0
GRID*              12075               0-1.398749948E+001.1753783053E-01+
*       3.9350169421E-01               0
GRID*              12076               0-1.398749948E+001.5897279819E-01+
*       5.1084189093E-01               0
GRID*              12077               0-1.398749948E+001.2670454054E-01+
*       4.9221179613E-01               0
GRID*              12078               0-1.398749948E+006.9072226786E-01+
*       2.6332828990E-01               0
GRID*              12079               0-1.398749948E+006.2747948649E-01+
*       3.0068188094E-01               0
GRID*              12080               0-1.398749948E+006.9072226786E-01+
*       1.8832828990E-01               0
GRID*              12081               0-1.398749948E+001.9981012254E-01+
*       4.9510427688E-01               0
GRID*              12082               0-1.398749948E+002.4610069261E-01+
*       4.6962583332E-01               0
GRID*              12083               0-1.398749948E+002.0836550879E-01+
*       4.4166089255E-01               0
GRID*              12084               0-1.398749948E+002.9843864845E-01+
*       4.5180109796E-01               0
GRID*              12085               0-1.398749948E+005.6142604949E-01+
*       3.3577700982E-01               0
GRID*              12086               0-1.398749948E+005.6539109872E-01+
*       2.6175170867E-01               0
GRID*              12087               0-1.398749948E+003.5540341768E-01+
*       4.2490377254E-01               0
GRID*              12088               0-1.398749948E+003.1162084807E-01+
*       3.8928512357E-01               0
GRID*              12089               0-1.398749948E+004.2573037743E-01+
*       4.0989690587E-01               0
GRID*              12090               0-1.398749948E+004.9110639964E-01+
*       3.7712642557E-01               0
GRID*              12091               0-1.398749948E+004.3396163951E-01+
*       3.2961731785E-01               0
GRID*              12092               0-1.398749948E+008.3434102002E-02+
*       4.7265227980E-01               0
GRID*              12093               0-1.398749948E+002.5767085123E-01+
*       3.5493853105E-01               0
GRID*              12094               0-1.398749948E+003.1463562045E-01+
*       3.2804120563E-01               0
GRID*              12095               0-1.398749948E+001.1880450019E-01+
*       4.4757981979E-01               0
GRID*              12096               0-1.398749948E+001.6080826907E-01+
*       4.1306121053E-01               0
GRID*              12097               0-1.398749948E+002.1011361151E-01+
*       3.2633884903E-01               0
GRID*              12098               0-1.398749948E+002.0999144929E-01+
*       2.7123178905E-01               0
GRID*              12099               0-1.398749948E+002.0709883913E-01+
*       3.8758276698E-01               0
GRID*              12100               0-1.398749948E+003.7278568119E-01+
*       2.9264303469E-01               0
GRID*              12101               0-1.398749948E+004.3816170340E-01+
*       2.5987255439E-01               0
GRID*              12102               0-1.398749948E+003.1883568434E-01+
*       2.5829644217E-01               0
GRID*              12103               0-1.398749948E+002.5302042734E-01+
*       2.1879435017E-01               0
GRID*              12104               0-1.398749948E+003.1117048808E-01+
*       1.8339617923E-01               0
GRID*              12105               0-1.398749948E+003.3837933791E-01+
*       5.0018552278E-02               0
GRID*              12106               0-1.398749948E+004.1337933791E-01+
*       5.0018552278E-02               0
GRID*              12107               0-1.398749948E+003.1105695345E-01+
*       1.2196559589E-01               0
GRID*              12108               0-1.398749948E+003.7687221045E-01+
*       1.6146768789E-01               0
GRID*              12109               0-1.398749948E+005.0566579284E-01+
*       2.1619372751E-01               0
GRID*              12110               0-1.398749948E+005.7171922984E-01+
*       1.8109859863E-01               0
GRID*              12111               0-1.398749948E+004.4448983452E-01+
*       1.7921944435E-01               0
GRID*              12112               0-1.398749948E+004.4437629989E-01+
*       1.1778886101E-01               0
GRID*              12113               0-1.398749948E+004.8099696198E-01+
*       6.7770308734E-02               0
GRID*              12114               0-1.398749948E+005.5599696198E-01+
*       6.7770308734E-02               0
GRID*              12115               0-1.398749948E+006.2446405061E-01+
*       5.1628063912E-02               0
GRID*              12116               0-1.398749948E+006.9946405061E-01+
*       5.1628063912E-02               0
GRID*              12117               0-1.398749948E+006.9946405061E-01+
*       1.2662806391E-01               0
GRID*              12118               0-1.398749948E+006.4018631847E-01+
*       1.6495635381E-01               0
GRID*              12119               0-1.398749948E+005.8046101259E-01+
*       1.1939837265E-01               0
GRID*              12120               0-1.398749948E+00-2.812507564E-01+
*       7.2977454971E-01               0
GRID*              12121               0-1.398749948E+00-2.812507561E-01+
*       7.6703472713E-01               0
GRID*              12122               0-1.398749948E+00-2.778651826E-01+
*       6.8595352589E-01               0
GRID*              12123               0-1.398749948E+00-2.668829512E-01+
*       6.5034854272E-01               0
GRID*              12124               0-1.398749948E+00-3.119111405E-01+
*       7.0298825112E-01               0
GRID*              12125               0-1.398749948E+00-3.540874366E-01+
*       6.7592811337E-01               0
GRID*              12126               0-1.398749948E+00-3.574730104E-01+
*       7.1974913719E-01               0
GRID*              12127               0-1.398749948E+00-1.864479994E-01+
*       6.4138069428E-02               0
GRID*              12128               0-1.398749948E+00-2.614479994E-01+
*       6.4138069428E-02               0
GRID*              12129               0-1.398749948E+00-1.475833141E-01+
*       1.4428629691E-01               0
GRID*              12130               0-1.398749948E+00-1.982739498E-01+
*       1.8450093901E-01               0
GRID*              12131               0-1.398749948E+00-1.229612652E-01+
*       2.0051109707E-01               0
GRID*              12132               0-1.398749948E+00-1.111353148E-01+
*       8.0148227483E-02               0
GRID*              12133               0-1.398749948E+00-3.613531476E-02+
*       8.0148227483E-02               0
GRID*              12134               0-1.398749948E+004.3509551558E-02+
*       7.0733618079E-02               0
GRID*              12135               0-1.398749948E+007.3742367952E-03+
*       1.5088184556E-01               0
GRID*              12136               0-1.398749948E+00-1.489370750E-02+
*       2.2840815499E-01               0
GRID*              12137               0-1.398749948E+00-2.434329392E-02+
*       3.0692751851E-01               0
GRID*              12138               0-1.398749948E+00-5.653722716E-02+
*       3.6678789393E-01               0
GRID*              12139               0-1.398749948E+00-8.172021594E-02+
*       2.3881581848E-01               0
GRID*              12140               0-1.398749948E+00-1.324108516E-01+
*       2.7903046059E-01               0
GRID*              12141               0-1.398749948E+00-7.077256502E-02+
*       4.2407260029E-01               0
GRID*              12142               0-1.398749948E+00-8.763530852E-02+
*       4.6908665965E-01               0
GRID*              12143               0-1.398749948E+00-1.054051402E-01+
*       3.7461988837E-01               0
GRID*              12144               0-1.398749948E+00-1.462255726E-01+
*       3.3024118063E-01               0
GRID*              12145               0-1.398749948E+00-1.874666218E-01+
*       2.9193645921E-01               0
GRID*              12146               0-1.398749948E+00-1.604609104E-01+
*       3.8752588699E-01               0
GRID*              12147               0-1.398749948E+00-1.731435649E-01+
*       4.5133968669E-01               0
GRID*              12148               0-1.398749948E+00-2.139639972E-01+
*       4.0696097894E-01               0
GRID*              12149               0-1.398749948E+00-2.532487040E-01+
*       6.0600749197E-01               0
GRID*              12150               0-1.398749948E+00-2.948913195E-01+
*       6.1482617656E-01               0
GRID*              12151               0-1.398749948E+00-1.223202390E-01+
*       4.8269911850E-01               0
GRID*              12152               0-1.398749948E+00-2.322597310E-01+
*       5.7522119294E-01               0
GRID*              12153               0-1.398749948E+00-2.049545207E-01+
*       5.2536601936E-01               0
GRID*              12154               0-1.398749948E+00-2.539518620E-01+
*       5.2062995223E-01               0
GRID*              12155               0-1.398749948E+00-1.758233258E-01+
*       5.0213421045E-01               0
GRID*              12156               0-1.398749948E+00-3.300499113E-01+
*       6.1422685063E-02               0
GRID*              12157               0-1.398749948E+00-2.914979107E-01+
*       1.2556075449E-01               0
GRID*              12158               0-1.398749948E+00-4.050499113E-01+
*       6.1422685063E-02               0
GRID*              12159               0-1.398749948E+00-2.276102665E-01+
*       2.3995537385E-01               0
GRID*              12160               0-1.398749948E+00-2.414249875E-01+
*       2.9116609389E-01               0
GRID*              12161               0-1.398749948E+00-2.522323155E-01+
*       1.8373057370E-01               0
GRID*              12162               0-1.398749948E+00-3.208342274E-01+
*       1.8101518933E-01               0
GRID*              12163               0-1.398749948E+00-2.618396670E-01+
*       3.4925133541E-01               0
GRID*              12164               0-1.398749948E+00-2.745223214E-01+
*       4.1306513511E-01               0
GRID*              12165               0-1.398749948E+00-4.743471906E-01+
*       6.1521452070E-02               0
GRID*              12166               0-1.398749948E+00-5.493471906E-01+
*       6.1521452070E-02               0
GRID*              12167               0-1.398749948E+00-4.293971019E-01+
*       1.2294413713E-01               0
GRID*              12168               0-1.398749948E+00-4.540724356E-01+
*       1.8238637859E-01               0
GRID*              12169               0-1.398749948E+00-3.847751564E-01+
*       1.8228761158E-01               0
GRID*              12170               0-1.398749948E+00-3.019833117E-01+
*       2.9727025006E-01               0
GRID*              12171               0-1.398749948E+00-3.455095612E-01+
*       2.4045743079E-01               0
GRID*              12172               0-1.398749948E+00-3.659242406E-01+
*       2.9854267231E-01               0
GRID*              12173               0-1.398749948E+00-3.487143543E-01+
*       6.2284169484E-01               0
GRID*              12174               0-1.398749948E+00-3.942762241E-01+
*       6.3960258091E-01               0
GRID*              12175               0-1.398749948E+00-2.931077585E-01+
*       4.7262525123E-01               0
GRID*              12176               0-1.398749948E+00-3.204129688E-01+
*       5.2248042482E-01               0
GRID*              12177               0-1.398749948E+00-3.409834283E-01+
*       4.1491560770E-01               0
GRID*              12178               0-1.398749948E+00-3.350801070E-01+
*       5.7850064410E-01               0
GRID*              12179               0-1.398749948E+00-3.742360036E-01+
*       5.3049594310E-01               0
GRID*              12180               0-1.398749948E+00-6.790535648E-01+
*       4.1259996219E-01               0
GRID*              12181               0-1.398749948E+00-6.790535648E-01+
*       3.3759996219E-01               0
GRID*              12182               0-1.398749948E+00-6.844133904E-01+
*       4.9387829426E-01               0
GRID*              12183               0-1.398749948E+00-6.134669552E-01+
*       4.5647825645E-01               0
GRID*              12184               0-1.398749948E+00-4.450191179E-01+
*       6.0465355402E-01               0
GRID*              12185               0-1.398749948E+00-4.503922002E-01+
*       6.5773997255E-01               0
GRID*              12186               0-1.398749948E+00-4.380314559E-01+
*       5.4043471987E-01               0
GRID*              12187               0-1.398749948E+00-4.941474320E-01+
*       5.5857211152E-01               0
GRID*              12188               0-1.398749948E+00-5.529932754E-01+
*       5.1605493295E-01               0
GRID*              12189               0-1.398749948E+00-5.476334499E-01+
*       4.3477660088E-01               0
GRID*              12190               0-1.398749948E+00-5.599809374E-01+
*       5.8027376709E-01               0
GRID*              12191               0-1.398749948E+00-4.233643177E-01+
*       4.8441450060E-01               0
GRID*              12192               0-1.398749948E+00-4.067489681E-01+
*       4.1934405357E-01               0
GRID*              12193               0-1.398749948E+00-4.705444204E-01+
*       4.2928283035E-01               0
GRID*              12194               0-1.398749948E+00-3.881635310E-01+
*       3.5978393745E-01               0
GRID*              12195               0-1.398749948E+00-4.316897805E-01+
*       3.0297111818E-01               0
GRID*              12196               0-1.398749948E+00-4.758879211E-01+
*       2.4287305009E-01               0
GRID*              12197               0-1.398749948E+00-5.205098666E-01+
*       1.8352957564E-01               0
GRID*              12198               0-1.398749948E+00-4.981272115E-01+
*       3.0411431523E-01               0
GRID*              12199               0-1.398749948E+00-5.310181003E-01+
*       3.6970615385E-01               0
GRID*              12200               0-1.398749948E+00-5.752162409E-01+
*       3.0960808576E-01               0
GRID*              12201               0-1.398749948E+00-7.032503326E-01+
*       2.6850877629E-01               0
GRID*              12202               0-1.398749948E+00-7.032503326E-01+
*       1.9350877629E-01               0
GRID*              12203               0-1.398749948E+00-6.323038974E-01+
*       3.0610873848E-01               0
GRID*              12204               0-1.398749948E+00-5.994130086E-01+
*       2.4051689985E-01               0
GRID*              12205               0-1.398749948E+00-6.907878477E-01+
*       1.3842736674E-01               0
GRID*              12206               0-1.398749948E+00-6.440381803E-01+
*       1.8193614303E-01               0
GRID*              12207               0-1.398749948E+00-6.907878477E-01+
*       6.3427366740E-02               0
GRID*              12208               0-1.398749948E+00-6.157878477E-01+
*       6.3427366740E-02               0
GRID*              12209               0-1.398749948E+00-5.651350383E-01+
*       1.2494881881E-01               0
GRID*              12210               0-1.398749948E+00-5.869505238E-01+
*       1.8543549031E-01               0
GRID*              12211               0-1.398749948E+006.8827609880E-01+
*       6.3108787028E-01               0
GRID*              12212               0-1.398749948E+006.8827609880E-01+
*       7.0608787028E-01               0
GRID*              12213               0-1.398749948E+006.2478275952E-01+
*       5.9262050685E-01               0
GRID*              12214               0-1.398749948E+005.6825920633E-01+
*       6.2945760453E-01               0
GRID*              12215               0-1.398749948E+006.8650666072E-01+
*       5.6153263657E-01               0
GRID*              12216               0-1.398749948E+002.8788783770E-01+
*       7.7735262116E-01               0
GRID*              12217               0-1.398749948E+002.8233409808E-01+
*       8.1419688044E-01               0
GRID*              12218               0-1.398749948E+003.2541333865E-01+
*       7.5729056797E-01               0
GRID*              12219               0-1.398749948E+003.7320270111E-01+
*       7.8426030321E-01               0
GRID*              12220               0-1.398749948E+003.7284036435E-01+
*       7.3684562887E-01               0
GRID*              12221               0-1.398749948E+004.1704123770E-01+
*       7.1112777074E-01               0
GRID*              12222               0-1.398749948E+005.1316612940E-01+
*       6.5527696506E-01               0
GRID*              12223               0-1.398749948E+005.7145912068E-01+
*       6.8799510110E-01               0
GRID*              12224               0-1.398749948E+004.6490939617E-01+
*       6.8612731951E-01               0
GRID*              12225               0-1.398749948E+004.6849788528E-01+
*       7.3881491287E-01               0
GRID*              12226               0-1.398749948E+002.7029300833E-01+
*       8.6254314883E-01               0
GRID*              12227               0-1.398749948E+002.5412578009E-01+
*       8.9611328318E-01               0
GRID*              12228               0-1.398749948E+006.8511753575E-01+
*       7.6973162449E-01               0
GRID*              12229               0-1.398749948E+006.2339363456E-01+
*       7.2581949477E-01               0
GRID*              12230               0-1.398749948E+006.7791165767E-01+
*       8.4289041666E-01               0
GRID*              12231               0-1.398749948E+006.0333393341E-01+
*       8.4839431689E-01               0
GRID*              12232               0-1.398749948E+006.6101051957E-01+
*       9.0182148457E-01               0
GRID*              12233               0-1.398749948E+005.6830055763E-01+
*       7.5163885530E-01               0
GRID*              12234               0-1.398749948E+003.1373458565E-01+
*       8.5305151071E-01               0
GRID*              12235               0-1.398749948E+003.7978557187E-01+
*       8.4683489446E-01               0
GRID*              12236               0-1.398749948E+004.2721259758E-01+
*       8.2638995536E-01               0
GRID*              12237               0-1.398749948E+003.6774448212E-01+
*       8.9518116286E-01               0
GRID*              12238               0-1.398749948E+005.5095145604E-01+
*       8.5939849836E-01               0
GRID*              12239               0-1.398749948E+004.7463279256E-01+
*       8.5021807926E-01               0
GRID*              12240               0-1.398749948E+005.1011413182E-01+
*       8.9814496571E-01               0
GRID*              12241               0-1.398749948E+004.6804992179E-01+
*       7.8764348800E-01               0
GRID*              12242               0-1.398749948E+005.1591808026E-01+
*       7.6264303677E-01               0
GRID*              12243               0-1.398749948E+005.6785259414E-01+
*       8.0046743044E-01               0
GRID*              12244               0-1.398749948E+00-1.087214127E-01+
*       1.4259107904E+00               0
GRID*              12245               0-1.398749948E+00-3.556257124E-02+
*       1.4331160149E+00               0
GRID*              12246               0-1.398749948E+00-1.375855238E-01+
*       1.3542383596E+00               0
GRID*              12247               0-1.398749948E+00-9.851053784E-02+
*       1.3034104265E+00               0
GRID*              12248               0-1.398749948E+00-1.649709192E-01+
*       1.2914158041E+00               0
GRID*              12249               0-1.398749948E+00-1.751817941E-01+
*       1.4139161679E+00               0
GRID*              12250               0-1.398749948E+00-2.455291959E-01+
*       1.3925765987E+00               0
GRID*              12251               0-1.398749948E+009.5661848532E-02+
*       1.1226295518E+00               0
GRID*              12252               0-1.398749948E+001.4882005757E-01+
*       1.1375051217E+00               0
GRID*              12253               0-1.398749948E+001.3359614282E-01+
*       1.0825756299E+00               0
GRID*              12254               0-1.398749948E+005.1686777662E-02+
*       1.1032377632E+00               0
GRID*              12255               0-1.398749948E+006.6910692416E-02+
*       1.1581672550E+00               0
GRID*              12256               0-1.398749948E+002.6993811734E-03+
*       1.1019284414E+00               0
GRID*              12257               0-1.398749948E+00-4.135651627E-02+
*       1.1043115471E+00               0
GRID*              12258               0-1.398749948E+00-2.112027590E-02+
*       1.1411585722E+00               0
GRID*              12259               0-1.398749948E+003.1450537289E-02+
*       1.0663907382E+00               0
GRID*              12260               0-1.398749948E+00-5.929434637E-02+
*       1.2454232811E+00               0
GRID*              12261               0-1.398749948E+00-3.190895101E-02+
*       1.3082458366E+00               0
GRID*              12262               0-1.398749948E+001.5121431002E-02+
*       1.1945170788E+00               0
GRID*              12263               0-1.398749948E+005.9096501871E-02+
*       1.2139088673E+00               0
GRID*              12264               0-1.398749948E+00-2.893446645E-02+
*       1.1969001845E+00               0
GRID*              12265               0-1.398749948E+00-9.553605327E-02+
*       1.1920647745E+00               0
GRID*              12266               0-1.398749948E+002.0759157071E-01+
*       1.1549686328E+00               0
GRID*              12267               0-1.398749948E+002.6867627741E-01+
*       1.1640238229E+00               0
GRID*              12268               0-1.398749948E+002.4783905856E-01+
*       1.1065063899E+00               0
GRID*              12269               0-1.398749948E+001.6965727642E-01+
*       1.1950225547E+00               0
GRID*              12270               0-1.398749948E+004.9257826119E-01+
*       1.2097894491E+00               0
GRID*              12271               0-1.398749948E+004.1057294127E-01+
*       1.1913082080E+00               0
GRID*              12272               0-1.398749948E+004.4832439443E-01+
*       1.2618484583E+00               0
GRID*              12273               0-1.398749948E+005.3921447747E-01+
*       1.1529634220E+00               0
GRID*              12274               0-1.398749948E+003.3762141989E-01+
*       1.1794643986E+00               0
GRID*              12275               0-1.398749948E+002.9737393204E-01+
*       1.2279266415E+00               0
GRID*              12276               0-1.398749948E+003.8187528664E-01+
*       1.1274053894E+00               0
GRID*              12277               0-1.398749948E+003.9149811955E-01+
*       1.3084843392E+00               0
GRID*              12278               0-1.398749948E+003.4045641689E-01+
*       1.3564776435E+00               0
GRID*              12279               0-1.398749948E+002.7562407790E-01+
*       1.3911316430E+00               0
GRID*              12280               0-1.398749948E+003.1527737185E-01+
*       1.2913605215E+00               0
GRID*              12281               0-1.398749948E+002.4633222938E-01+
*       1.2759199458E+00               0
GRID*              12282               0-1.398749948E+001.2224307565E-01+
*       1.2410109478E+00               0
GRID*              12283               0-1.398749948E+007.0453814232E-02+
*       1.2773607715E+00               0
GRID*              12284               0-1.398749948E+001.8101458879E-01+
*       1.2584744589E+00               0
GRID*              12285               0-1.398749948E+001.9891802860E-01+
*       1.3219083389E+00               0
GRID*              12286               0-1.398749948E+002.4741096189E-02+
*       1.3154513677E+00               0
GRID*              12287               0-1.398749948E+008.7887669964E-02+
*       1.3425534482E+00               0
GRID*              12288               0-1.398749948E+00-1.447509528E-02+
*       1.3734385132E+00               0
GRID*              12289               0-1.398749948E+002.1087475960E-02+
*       1.4403215461E+00               0
GRID*              12290               0-1.398749948E+009.4246317409E-02+
*       1.4331163216E+00               0
GRID*              12291               0-1.398749948E+002.0527667604E-01+
*       1.4124712123E+00               0
GRID*              12292               0-1.398749948E+001.3995903545E-01+
*       1.3950257254E+00               0
GRID*              12293               0-1.398749948E+002.1381036926E-01+
*       1.0468980798E+00               0
GRID*              12294               0-1.398749948E+002.7489507596E-01+
*       1.0559532699E+00               0
GRID*              12295               0-1.398749948E+004.9560103231E-02+
*       1.0334994953E+00               0
GRID*              12296               0-1.398749948E+008.5886039872E-02+
*       1.0252079026E+00               0
GRID*              12297               0-1.398749948E+005.7270674192E-04+
*       1.0321901735E+00               0
GRID*              12298               0-1.398749948E+001.9538389359E-01+
*       1.0066379189E+00               0
GRID*              12299               0-1.398749948E+001.6832787620E-01+
*       1.0571910389E+00               0
GRID*              12300               0-1.398749948E+001.9836852385E-01+
*       9.7090025913E-01               0
GRID*              12301               0-1.398749948E+001.5288603079E-01+
*       9.8119321825E-01               0
GRID*              12302               0-1.398749948E+002.2371222547E-01+
*       9.4358687353E-01               0
GRID*              12303               0-1.398749948E+001.2061777325E-01+
*       9.9982331166E-01               0
GRID*              12304               0-1.398749948E+001.1516966716E-01+
*       1.0423154690E+00               0
GRID*              12305               0-1.398749948E+002.7127994127E-01+
*       9.4887136945E-01               0
GRID*              12306               0-1.398749948E+003.3957808179E-01+
*       9.5618014653E-01               0
GRID*              12307               0-1.398749948E+004.0562906801E-01+
*       9.4996353028E-01               0
GRID*              12308               0-1.398749948E+003.0916452717E-01+
*       1.0036537369E+00               0
GRID*              12309               0-1.398749948E+003.4319321647E-01+
*       1.0632620470E+00               0
GRID*              12310               0-1.398749948E+006.3967081915E-01+
*       9.7216882104E-01               0
GRID*              12311               0-1.398749948E+005.7577141812E-01+
*       1.0958640108E+00               0
GRID*              12312               0-1.398749948E+004.9138374868E-01+
*       1.0821497876E+00               0
GRID*              12313               0-1.398749948E+006.1042476616E-01+
*       1.0310313168E+00               0
GRID*              12314               0-1.398749948E+005.5718674232E-01+
*       9.6618788059E-01               0
GRID*              12315               0-1.398749948E+004.8086807883E-01+
*       9.5700746149E-01               0
GRID*              12316               0-1.398749948E+004.1614473786E-01+
*       1.0751058564E+00               0
GRID*              12317               0-1.398749948E+004.5270167851E-01+
*       1.0180064452E+00               0
GRID*              12318               0-1.398749948E+00-6.844133904E-01+
*       5.6887829426E-01               0
GRID*              12319               0-1.398749948E+00-6.200440300E-01+
*       6.0753074912E-01               0
GRID*              12320               0-1.398749948E+00-5.611981867E-01+
*       6.5004792769E-01               0
GRID*              12321               0-1.398749948E+00-6.856306396E-01+
*       6.3865245486E-01               0
GRID*              12322               0-1.398749948E+00-6.856306396E-01+
*       7.1365245486E-01               0
GRID*              12323               0-1.398749948E+00-1.212151268E-01+
*       1.1355987956E+00               0
GRID*              12324               0-1.398749948E+00-8.623997151E-02+
*       1.0971518820E+00               0
GRID*              12325               0-1.398749948E+00-1.422789249E-01+
*       1.0892089996E+00               0
GRID*              12326               0-1.398749948E+00-1.905273788E-01+
*       1.2291040914E+00               0
GRID*              12327               0-1.398749948E+00-2.296023648E-01+
*       1.2799320244E+00               0
GRID*              12328               0-1.398749948E+00-1.515750067E-01+
*       1.1841218921E+00               0
GRID*              12329               0-1.398749948E+00-2.162064523E-01+
*       1.1726381124E+00               0
GRID*              12330               0-1.398749948E+00-1.950687813E-01+
*       1.0693160826E+00               0
GRID*              12331               0-1.398749948E+00-1.600936261E-01+
*       1.0308691690E+00               0
GRID*              12332               0-1.398749948E+00-2.373505285E-01+
*       1.1151481621E+00               0
GRID*              12333               0-1.398749948E+00-2.763029006E-01+
*       1.1601303614E+00               0
GRID*              12334               0-1.398749948E+00-2.551652296E-01+
*       1.0568083316E+00               0
GRID*              12335               0-1.398749948E+00-2.750225813E-01+
*       1.0029988230E+00               0
GRID*              12336               0-1.398749948E+00-3.173043285E-01+
*       1.0488309026E+00               0
GRID*              12337               0-1.398749948E+00-6.395663129E-01+
*       9.8758670584E-01               0
GRID*              12338               0-1.398749948E+00-6.609060133E-01+
*       9.1723936938E-01               0
GRID*              12339               0-1.398749948E+00-6.190565968E-01+
*       1.0469054069E+00               0
GRID*              12340               0-1.398749948E+00-5.657140667E-01+
*       9.9747985552E-01               0
GRID*              12341               0-1.398749948E+00-3.788779251E-01+
*       1.0363146871E+00               0
GRID*              12342               0-1.398749948E+00-3.590205734E-01+
*       1.0901241956E+00               0
GRID*              12343               0-1.398749948E+00-3.966232346E-01+
*       9.8253817278E-01               0
GRID*              12344               0-1.398749948E+00-4.383394795E-01+
*       1.0238314658E+00               0
GRID*              12345               0-1.398749948E+00-5.006445698E-01+
*       1.0134267541E+00               0
GRID*              12346               0-1.398749948E+00-5.211542859E-01+
*       9.5410805296E-01               0
GRID*              12347               0-1.398749948E+00-4.828992603E-01+
*       1.0672032683E+00               0
GRID*              12348               0-1.398749948E+00-5.844032487E-01+
*       1.1117381009E+00               0
GRID*              12349               0-1.398749948E+00-2.729920499E-01+
*       1.3244204768E+00               0
GRID*              12350               0-1.398749948E+00-2.985485096E-01+
*       1.2621087641E+00               0
GRID*              12351               0-1.398749948E+00-3.144753406E-01+
*       1.3747533384E+00               0
GRID*              12352               0-1.398749948E+00-3.793076796E-01+
*       1.3400993389E+00               0
GRID*              12353               0-1.398749948E+00-3.221189501E-01+
*       1.2029374967E+00               0
GRID*              12354               0-1.398749948E+00-3.655086352E-01+
*       1.2474259492E+00               0
GRID*              12355               0-1.398749948E+00-3.432630262E-01+
*       1.1454475464E+00               0
GRID*              12356               0-1.398749948E+00-4.048366229E-01+
*       1.1329313309E+00               0
GRID*              12357               0-1.398749948E+00-5.230870975E-01+
*       1.1045668546E+00               0
GRID*              12358               0-1.398749948E+00-5.622859957E-01+
*       1.1595063989E+00               0
GRID*              12359               0-1.398749948E+00-4.607820072E-01+
*       1.1149715663E+00               0
GRID*              12360               0-1.398749948E+00-4.450244601E-01+
*       1.1702949172E+00               0
GRID*              12361               0-1.398749948E+00-5.156497794E-01+
*       1.2163324260E+00               0
GRID*              12362               0-1.398749948E+00-4.361339545E-01+
*       1.2934634580E+00               0
GRID*              12363               0-1.398749948E+00-4.597043950E-01+
*       1.2342921906E+00               0
GRID*              12364               0-1.398749948E+00-2.643386544E-01+
*       8.4573730478E-01               0
GRID*              12365               0-1.398749948E+00-2.753208863E-01+
*       8.1013232177E-01               0
GRID*              12366               0-1.398749948E+00-2.881131075E-01+
*       8.7549037995E-01               0
GRID*              12367               0-1.398749948E+00-2.490147871E-01+
*       8.8822322049E-01               0
GRID*              12368               0-1.398749948E+00-3.386989796E-01+
*       8.6376025234E-01               0
GRID*              12369               0-1.398749948E+00-3.233751123E-01+
*       9.0624616805E-01               0
GRID*              12370               0-1.398749948E+00-3.555613323E-01+
*       9.4476871725E-01               0
GRID*              12371               0-1.398749948E+00-4.150228867E-01+
*       9.3228549598E-01               0
GRID*              12372               0-1.398749948E+00-3.049754602E-01+
*       9.5649884485E-01               0
GRID*              12373               0-1.398749948E+00-2.280258134E-01+
*       9.1900951900E-01               0
GRID*              12374               0-1.398749948E+00-1.689417430E-01+
*       9.8874131029E-01               0
GRID*              12375               0-1.398749948E+00-1.161518866E-01+
*       1.0086342273E+00               0
GRID*              12376               0-1.398749948E+00-2.428363613E-01+
*       9.6447627384E-01               0
GRID*              12377               0-1.398749948E+00-1.980729345E-01+
*       9.6550949718E-01               0
GRID*              12378               0-1.398749948E+00-6.810644075E-01+
*       7.8018636448E-01               0
GRID*              12379               0-1.398749948E+00-6.166950471E-01+
*       7.4383881934E-01               0
GRID*              12380               0-1.398749948E+00-6.738585294E-01+
*       8.5334515665E-01               0
GRID*              12381               0-1.398749948E+00-5.991762989E-01+
*       8.7426694168E-01               0
GRID*              12382               0-1.398749948E+00-4.712829502E-01+
*       9.1422866004E-01               0
GRID*              12383               0-1.398749948E+00-4.302210479E-01+
*       8.7645920451E-01               0
GRID*              12384               0-1.398749948E+00-5.363524472E-01+
*       8.9828176149E-01               0
GRID*              12385               0-1.398749948E+00-5.493049632E-01+
*       8.3438754876E-01               0
GRID*              12386               0-1.398749948E+00-3.849596345E-01+
*       8.4464813899E-01               0
GRID*              12387               0-1.398749948E+00-4.412196980E-01+
*       8.2659130305E-01               0
GRID*              12388               0-1.398749948E+00-3.496976297E-01+
*       8.1389235088E-01               0
GRID*              12389               0-1.398749948E+00-3.093668445E-01+
*       7.8990686959E-01               0
GRID*              12390               0-1.398749948E+00-3.556274994E-01+
*       7.7079475624E-01               0
GRID*              12391               0-1.398749948E+00-3.978037955E-01+
*       7.4373461849E-01               0
GRID*              12392               0-1.398749948E+00-4.943114429E-01+
*       8.0063411773E-01               0
GRID*              12393               0-1.398749948E+00-4.490500295E-01+
*       7.6882305221E-01               0
GRID*              12394               0-1.398749948E+00-5.571352947E-01+
*       7.7661929792E-01               0
GRID*              12395               0-1.398749948E+00-5.617015269E-01+
*       7.1008538831E-01               0
GRID*              12396               0-1.398749948E+00-4.508955404E-01+
*       7.1777743317E-01               0
GRID*              12397               0-1.398749948E+00-5.016384343E-01+
*       6.8282840628E-01               0
GRID*              12398               0-1.398749948E+00-8.146695304E-02+
*       1.0222466789E+00               0
GRID*              12399               0-1.398749948E+00-3.658349780E-02+
*       1.0294063440E+00               0
GRID*              12400               0-1.398749948E+00-6.242031443E-02+
*       1.0579217512E+00               0
GRID*              12401               0-1.315417432E+002.3889118736E-01+
*       8.2369167148E-01               0
GRID*              12402               0-1.315419207E+002.0655125218E-01+
*       8.9083759505E-01               0
GRID*              12403               0-1.315420701E+001.5585657777E-01+
*       9.4546630093E-01               0
GRID*              12404               0-1.315420042E+009.1320305098E-02+
*       9.8272141979E-01               0
GRID*              12405               0-1.315414647E+001.8690609977E-02+
*       9.9929779152E-01               0
GRID*              12406               0-1.315414751E+00-5.562224342E-02+
*       9.9373228495E-01               0
GRID*              12407               0-1.315416614E+00-1.250000035E-01+
*       9.6650636855E-01               0
GRID*              12408               0-1.315417434E+00-1.832644504E-01+
*       9.2004001127E-01               0
GRID*              12409               0-1.315419207E+00-2.252445562E-01+
*       8.5845984249E-01               0
GRID*              12410               0-1.315420701E+00-2.472070579E-01+
*       7.8724261238E-01               0
GRID*              12411               0-1.315420042E+00-2.472027940E-01+
*       7.1272500111E-01               0
GRID*              12412               0-1.315414647E+00-2.252435164E-01+
*       6.4153764687E-01               0
GRID*              12413               0-1.315414751E+00-1.832672139E-01+
*       5.7996358994E-01               0
GRID*              12414               0-1.315416614E+00-1.249999999E-01+
*       5.3349364226E-01               0
GRID*              12415               0-1.315417434E+00-5.562674261E-02+
*       5.0626830375E-01               0
GRID*              12416               0-1.315419207E+001.8693306366E-02+
*       5.0070256257E-01               0
GRID*              12417               0-1.315420701E+009.1350482997E-02+
*       5.1729108372E-01               0
GRID*              12418               0-1.315420042E+001.5588249412E-01+
*       5.5455359239E-01               0
GRID*              12419               0-1.315414647E+002.0655290870E-01+
*       6.0916456394E-01               0
GRID*              12420               0-1.315414749E+002.3888945157E-01+
*       6.7630413829E-01               0
GRID*              12421               0-1.232085139E+002.3888945157E-01+
*       8.2369586171E-01               0
GRID*              12422               0-1.232085248E+002.0655290870E-01+
*       8.9083543606E-01               0
GRID*              12423               0-1.232079853E+001.5588249552E-01+
*       9.4544641152E-01               0
GRID*              12424               0-1.232079194E+009.1350487798E-02+
*       9.8270891680E-01               0
GRID*              12425               0-1.232080688E+001.8693308059E-02+
*       9.9929743665E-01               0
GRID*              12426               0-1.232082461E+00-5.562674022E-02+
*       9.9373169350E-01               0
GRID*              12427               0-1.232083281E+00-1.250000035E-01+
*       9.6650636855E-01               0
GRID*              12428               0-1.232085144E+00-1.832672113E-01+
*       9.2003641287E-01               0
GRID*              12429               0-1.232085248E+00-2.252435147E-01+
*       8.5846235658E-01               0
GRID*              12430               0-1.232079853E+00-2.472027934E-01+
*       7.8727500268E-01               0
GRID*              12431               0-1.232079194E+00-2.472070585E-01+
*       7.1275739141E-01               0
GRID*              12432               0-1.232080688E+00-2.252445578E-01+
*       6.4154016097E-01               0
GRID*              12433               0-1.232082461E+00-1.832644530E-01+
*       5.7995999154E-01               0
GRID*              12434               0-1.232083281E+00-1.249999999E-01+
*       5.3349364226E-01               0
GRID*              12435               0-1.232085144E+00-5.562224580E-02+
*       5.0626771235E-01               0
GRID*              12436               0-1.232085248E+001.8690608297E-02+
*       5.0070220773E-01               0
GRID*              12437               0-1.232079853E+009.1320301192E-02+
*       5.1727857862E-01               0
GRID*              12438               0-1.232079194E+001.5585657504E-01+
*       5.5453370472E-01               0
GRID*              12439               0-1.232080688E+002.0655125218E-01+
*       6.0916240495E-01               0
GRID*              12440               0-1.232082457E+002.3889118736E-01+
*       6.7630832852E-01               0
GRID*              12441               0-1.273751438E+002.3889006666E-01+
*       8.2369437688E-01               0
GRID*              12442               0-1.232080686E+002.2524455699E-01+
*       8.5845984076E-01               0
GRID*              12443               0-1.273746099E+002.2524664458E-01+
*       8.5845480126E-01               0
GRID*              12444               0-1.273753795E+002.0654793170E-01+
*       8.9084192275E-01               0
GRID*              12445               0-1.315414646E+002.2524351554E-01+
*       8.5846235485E-01               0
GRID*              12446               0-1.232082461E+001.8326445168E-01+
*       9.2004000987E-01               0
GRID*              12447               0-1.273748454E+001.8326623425E-01+
*       9.2003768658E-01               0
GRID*              12448               0-1.273753130E+001.5585969499E-01+
*       9.4546390876E-01               0
GRID*              12449               0-1.315414751E+001.8326721260E-01+
*       9.2003641147E-01               0
GRID*              12450               0-1.232083281E+001.2500000515E-01+
*       9.6650636759E-01               0
GRID*              12451               0-1.273749948E+001.2500000515E-01+
*       9.6650636759E-01               0
GRID*              12452               0-1.273746765E+009.1346857607E-02+
*       9.8271042058E-01               0
GRID*              12453               0-1.315416614E+001.2500000515E-01+
*       9.6650636759E-01               0
GRID*              12454               0-1.232085144E+005.5622245290E-02+
*       9.9373228452E-01               0
GRID*              12455               0-1.273751441E+005.5623838761E-02+
*       9.9373207494E-01               0
GRID*              12456               0-1.273746100E+001.8698716235E-02+
*       9.9929672533E-01               0
GRID*              12457               0-1.315417434E+005.5626742087E-02+
*       9.9373169307E-01               0
GRID*              12458               0-1.232085248E+00-1.869060807E-02+
*       9.9929779167E-01               0
GRID*              12459               0-1.273753795E+00-1.869871432E-02+
*       9.9929672548E-01               0
GRID*              12460               0-1.273748454E+00-5.562383689E-02+
*       9.9373207537E-01               0
GRID*              12461               0-1.315419207E+00-1.869330615E-02+
*       9.9929743680E-01               0
GRID*              12462               0-1.232079853E+00-9.132030332E-02+
*       9.8272142049E-01               0
GRID*              12463               0-1.273753130E+00-9.134685583E-02+
*       9.8271042128E-01               0
GRID*              12464               0-1.273749948E+00-1.250000035E-01+
*       9.6650636855E-01               0
GRID*              12465               0-1.315420701E+00-9.135048601E-02+
*       9.8270891750E-01               0
GRID*              12466               0-1.232079194E+00-1.558565763E-01+
*       9.4546630213E-01               0
GRID*              12467               0-1.273746765E+00-1.558596935E-01+
*       9.4546390995E-01               0
GRID*              12468               0-1.273751441E+00-1.832662329E-01+
*       9.2003768799E-01               0
GRID*              12469               0-1.315420042E+00-1.558824940E-01+
*       9.4544641271E-01               0
GRID*              12470               0-1.232080688E+00-2.065512511E-01+
*       8.9083759664E-01               0
GRID*              12471               0-1.273746100E+00-2.065479306E-01+
*       8.9084192434E-01               0
GRID*              12472               0-1.273753795E+00-2.252466438E-01+
*       8.5845480299E-01               0
GRID*              12473               0-1.315414647E+00-2.065529076E-01+
*       8.9083543764E-01               0
GRID*              12474               0-1.232082461E+00-2.388911868E-01+
*       8.2369167331E-01               0
GRID*              12475               0-1.273748454E+00-2.388900661E-01+
*       8.2369437871E-01               0
GRID*              12476               0-1.273753130E+00-2.472065450E-01+
*       7.8724650809E-01               0
GRID*              12477               0-1.315414751E+00-2.388894510E-01+
*       8.2369586355E-01               0
GRID*              12478               0-1.232083281E+00-2.500000000E-01+
*       7.5000000192E-01               0
GRID*              12479               0-1.273749948E+00-2.500000000E-01+
*       7.5000000192E-01               0
GRID*              12480               0-1.273746765E+00-2.472065455E-01+
*       7.1275349569E-01               0
GRID*              12481               0-1.315416614E+00-2.500000000E-01+
*       7.5000000192E-01               0
GRID*              12482               0-1.232085144E+00-2.388894521E-01+
*       6.7630414012E-01               0
GRID*              12483               0-1.273751441E+00-2.388900672E-01+
*       6.7630562496E-01               0
GRID*              12484               0-1.273746100E+00-2.252466454E-01+
*       6.4154520047E-01               0
GRID*              12485               0-1.315417434E+00-2.388911879E-01+
*       6.7630833035E-01               0
GRID*              12486               0-1.232085248E+00-2.065529098E-01+
*       6.0916456552E-01               0
GRID*              12487               0-1.273753795E+00-2.065479328E-01+
*       6.0915807883E-01               0
GRID*              12488               0-1.273748454E+00-1.832662356E-01+
*       5.7996231482E-01               0
GRID*              12489               0-1.315419207E+00-2.065512533E-01+
*       6.0916240653E-01               0
GRID*              12490               0-1.232079853E+00-1.558824956E-01+
*       5.5455359359E-01               0
GRID*              12491               0-1.273753130E+00-1.558596939E-01+
*       5.5453609786E-01               0
GRID*              12492               0-1.273749948E+00-1.249999999E-01+
*       5.3349364226E-01               0
GRID*              12493               0-1.315420701E+00-1.558565765E-01+
*       5.5453370591E-01               0
GRID*              12494               0-1.273746765E+00-9.134685470E-02+
*       5.1728958038E-01               0
GRID*              12495               0-1.315420042E+00-9.132030297E-02+
*       5.1727857932E-01               0
GRID*              12496               0-1.232079194E+00-9.135048478E-02+
*       5.1729108442E-01               0
GRID*              12497               0-1.273751441E+00-5.562383928E-02+
*       5.0626792191E-01               0
GRID*              12498               0-1.273746100E+00-1.869871646E-02+
*       5.0070327398E-01               0
GRID*              12499               0-1.315414647E+00-1.869061020E-02+
*       5.0070220787E-01               0
GRID*              12500               0-1.232080688E+00-1.869330828E-02+
*       5.0070256271E-01               0
GRID*              12501               0-1.273753795E+001.8698714551E-02+
*       5.0070327383E-01               0
GRID*              12502               0-1.273748454E+005.5623837406E-02+
*       5.0626792149E-01               0
GRID*              12503               0-1.315414751E+005.5622243933E-02+
*       5.0626771192E-01               0
GRID*              12504               0-1.232082461E+005.5626740743E-02+
*       5.0626830333E-01               0
GRID*              12505               0-1.273753130E+009.1346852917E-02+
*       5.1728957969E-01               0
GRID*              12506               0-1.273749948E+001.2499999820E-01+
*       5.3349364130E-01               0
GRID*              12507               0-1.315416614E+001.2499999820E-01+
*       5.3349364130E-01               0
GRID*              12508               0-1.232083281E+001.2499999820E-01+
*       5.3349364130E-01               0
GRID*              12509               0-1.273746765E+001.5585969241E-01+
*       5.5453609667E-01               0
GRID*              12510               0-1.273751441E+001.8326623425E-01+
*       5.7996231342E-01               0
GRID*              12511               0-1.315417434E+001.8326445168E-01+
*       5.7995999013E-01               0
GRID*              12512               0-1.232085144E+001.8326721260E-01+
*       5.7996358853E-01               0
GRID*              12513               0-1.273746100E+002.0654793170E-01+
*       6.0915807725E-01               0
GRID*              12514               0-1.273753794E+002.2524664458E-01+
*       6.4154519874E-01               0
GRID*              12515               0-1.315419206E+002.2524455699E-01+
*       6.4154015924E-01               0
GRID*              12516               0-1.232085246E+002.2524351554E-01+
*       6.4153764515E-01               0
GRID*              12517               0-1.273748451E+002.3889006666E-01+
*       6.7630562312E-01               0
GRID*              12518               0-1.357085473E+002.4720350623E-01+
*       7.8726958867E-01               0
GRID*              12519               0-1.315420061E+002.4720279367E-01+
*       7.8727500078E-01               0
GRID*              12520               0-1.357083520E+002.3889215230E-01+
*       8.2368934210E-01               0
GRID*              12521               0-1.273746804E+002.4720654527E-01+
*       7.8724650617E-01               0
GRID*              12522               0-1.232079232E+002.4720705819E-01+
*       7.8724261031E-01               0
GRID*              12523               0-1.190415095E+002.4720563366E-01+
*       7.8725343015E-01               0
GRID*              12524               0-1.190417235E+002.3889150989E-01+
*       8.2369089289E-01               0
GRID*              12525               0-1.190415776E+002.2524163251E-01+
*       8.5846690051E-01               0
GRID*              12526               0-1.190414562E+002.0656354587E-01+
*       8.9082157227E-01               0
GRID*              12527               0-1.190416374E+001.8326291687E-01+
*       9.2004201024E-01               0
GRID*              12528               0-1.190414442E+001.5587816491E-01+
*       9.4544973485E-01               0
GRID*              12529               0-1.190416614E+001.2500000515E-01+
*       9.6650636759E-01               0
GRID*              12530               0-1.190415038E+009.1340405306E-02+
*       9.8271309341E-01               0
GRID*              12531               0-1.190417240E+005.5627577628E-02+
*       9.9373158318E-01               0
GRID*              12532               0-1.190415779E+001.8685731788E-02+
*       9.9929843313E-01               0
GRID*              12533               0-1.190414562E+00-1.867328294E-02+
*       9.9930007038E-01               0
GRID*              12534               0-1.190416374E+00-5.562924002E-02+
*       9.9373136471E-01               0
GRID*              12535               0-1.190414442E+00-9.132534656E-02+
*       9.8271933136E-01               0
GRID*              12536               0-1.190416614E+00-1.250000035E-01+
*       9.6650636855E-01               0
GRID*              12537               0-1.190415038E+00-1.558652341E-01+
*       9.4545965809E-01               0
GRID*              12538               0-1.190417240E+00-1.832639374E-01+
*       9.2004067989E-01               0
GRID*              12539               0-1.190415779E+00-2.065559027E-01+
*       8.9083153403E-01               0
GRID*              12540               0-1.190414562E+00-2.252368271E-01+
*       8.5847850061E-01               0
GRID*              12541               0-1.190416374E+00-2.388921517E-01+
*       8.2368934393E-01               0
GRID*              12542               0-1.190414442E+00-2.472035059E-01+
*       7.8726959056E-01               0
GRID*              12543               0-1.190416614E+00-2.500000000E-01+
*       7.5000000192E-01               0
GRID*              12544               0-1.190415038E+00-2.472056339E-01+
*       7.1274657148E-01               0
GRID*              12545               0-1.190417240E+00-2.388915105E-01+
*       6.7630910893E-01               0
GRID*              12546               0-1.190415779E+00-2.252416333E-01+
*       6.4153310122E-01               0
GRID*              12547               0-1.190414562E+00-2.065635470E-01+
*       6.0917842931E-01               0
GRID*              12548               0-1.190416374E+00-1.832629182E-01+
*       5.7995799117E-01               0
GRID*              12549               0-1.190414442E+00-1.558781648E-01+
*       5.5455027055E-01               0
GRID*              12550               0-1.190416614E+00-1.249999999E-01+
*       5.3349364226E-01               0
GRID*              12551               0-1.190415038E+00-9.134040259E-02+
*       5.1728690711E-01               0
GRID*              12552               0-1.190417240E+00-5.562757818E-02+
*       5.0626841364E-01               0
GRID*              12553               0-1.190415779E+00-1.868573200E-02+
*       5.0070156630E-01               0
GRID*              12554               0-1.190414562E+001.8673283134E-02+
*       5.0069992918E-01               0
GRID*              12555               0-1.190416374E+005.5629240550E-02+
*       5.0626863209E-01               0
GRID*              12556               0-1.190414442E+009.1325344286E-02+
*       5.1728066811E-01               0
GRID*              12557               0-1.190416614E+001.2499999820E-01+
*       5.3349364130E-01               0
GRID*              12558               0-1.190415038E+001.5586523328E-01+
*       5.5454034817E-01               0
GRID*              12559               0-1.190417240E+001.8326393867E-01+
*       5.7995932151E-01               0
GRID*              12560               0-1.190415779E+002.0655590380E-01+
*       6.0916846755E-01               0
GRID*              12561               0-1.190414560E+002.2523682793E-01+
*       6.4152150112E-01               0
GRID*              12562               0-1.190416369E+002.3889215230E-01+
*       6.7631065790E-01               0
GRID*              12563               0-1.190414500E+002.4720350626E-01+
*       7.1273041154E-01               0
GRID*              12564               0-1.232079891E+002.4720279368E-01+
*       7.1272499928E-01               0
GRID*              12565               0-1.273753169E+002.4720654526E-01+
*       7.1275349382E-01               0
GRID*              12566               0-1.315420720E+002.4720705817E-01+
*       7.1275738951E-01               0
GRID*              12567               0-1.357082654E+002.3889150989E-01+
*       6.7630910710E-01               0
GRID*              12568               0-1.357084877E+002.4720563362E-01+
*       7.1274656958E-01               0
GRID*              12569               0-1.357085333E+002.0656354587E-01+
*       6.0917842773E-01               0
GRID*              12570               0-1.357084117E+002.2524163251E-01+
*       6.4153309949E-01               0
GRID*              12571               0-1.357085453E+001.5587816329E-01+
*       5.5455026936E-01               0
GRID*              12572               0-1.357083521E+001.8326291687E-01+
*       5.7995798976E-01               0
GRID*              12573               0-1.357084858E+009.1340400803E-02+
*       5.1728690641E-01               0
GRID*              12574               0-1.357083281E+001.2499999820E-01+
*       5.3349364130E-01               0
GRID*              12575               0-1.357084116E+001.8685730088E-02+
*       5.0070156616E-01               0
GRID*              12576               0-1.357082655E+005.5627576312E-02+
*       5.0626841322E-01               0
GRID*              12577               0-1.357083521E+00-5.562924242E-02+
*       5.0626863252E-01               0
GRID*              12578               0-1.357085333E+00-1.867328504E-02+
*       5.0069992932E-01               0
GRID*              12579               0-1.357083281E+00-1.249999999E-01+
*       5.3349364226E-01               0
GRID*              12580               0-1.357085453E+00-9.132534607E-02+
*       5.1728066881E-01               0
GRID*              12581               0-1.357082655E+00-1.832639400E-01+
*       5.7995932291E-01               0
GRID*              12582               0-1.357084858E+00-1.558652348E-01+
*       5.5454034937E-01               0
GRID*              12583               0-1.357085333E+00-2.252368288E-01+
*       6.4152150284E-01               0
GRID*              12584               0-1.357084117E+00-2.065559049E-01+
*       6.0916846914E-01               0
GRID*              12585               0-1.357085453E+00-2.472035065E-01+
*       7.1273041323E-01               0
GRID*              12586               0-1.357083521E+00-2.388921529E-01+
*       6.7631065973E-01               0
GRID*              12587               0-1.357084857E+00-2.472056333E-01+
*       7.8725343231E-01               0
GRID*              12588               0-1.357083281E+00-2.500000000E-01+
*       7.5000000192E-01               0
GRID*              12589               0-1.357084117E+00-2.252416317E-01+
*       8.5846690224E-01               0
GRID*              12590               0-1.357082655E+00-2.388915093E-01+
*       8.2369089473E-01               0
GRID*              12591               0-1.357083521E+00-1.832629156E-01+
*       9.2004201164E-01               0
GRID*              12592               0-1.357085333E+00-2.065635448E-01+
*       8.9082157386E-01               0
GRID*              12593               0-1.357083281E+00-1.250000035E-01+
*       9.6650636855E-01               0
GRID*              12594               0-1.357085453E+00-1.558781634E-01+
*       9.4544973605E-01               0
GRID*              12595               0-1.357082655E+00-5.562757576E-02+
*       9.9373158360E-01               0
GRID*              12596               0-1.357084858E+00-9.134040352E-02+
*       9.8271309411E-01               0
GRID*              12597               0-1.357085333E+001.8673284848E-02+
*       9.9930007024E-01               0
GRID*              12598               0-1.357084116E+00-1.868572988E-02+
*       9.9929843328E-01               0
GRID*              12599               0-1.357085453E+009.1325348344E-02+
*       9.8271933066E-01               0
GRID*              12600               0-1.357083521E+005.5629241884E-02+
*       9.9373136429E-01               0
GRID*              12601               0-1.357084858E+001.5586523556E-01+
*       9.4545965690E-01               0
GRID*              12602               0-1.357083281E+001.2500000515E-01+
*       9.6650636759E-01               0
GRID*              12603               0-1.357084117E+002.0655590380E-01+
*       8.9083153245E-01               0
GRID*              12604               0-1.357082655E+001.8326393867E-01+
*       9.2004067849E-01               0
GRID*              12605               0-1.357085333E+002.2523682793E-01+
*       8.5847849888E-01               0
GRID*              12606               0-1.273748645E+002.1771710449E-01+
*       1.4677031037E+00               0
GRID*              12607               0-1.273749991E+007.1590019917E-01+
*       9.7357752294E-01               0
GRID*              12608               0-1.273748030E+007.4467348352E-01+
*       8.3922081111E-01               0
GRID*              12609               0-1.273752895E+006.6094277180E-01+
*       1.1044759318E+00               0
GRID*              12610               0-1.273747140E+005.7965241666E-01+
*       1.2259217478E+00               0
GRID*              12611               0-1.273749409E+004.7577390631E-01+
*       1.3297748998E+00               0
GRID*              12612               0-1.273752106E+003.5353711113E-01+
*       1.4114457084E+00               0
GRID*              12613               0-1.273751250E+00-2.177171045E-01+
*       1.4677031037E+00               0
GRID*              12614               0-1.273748641E+007.3516829721E-02+
*       1.4963876872E+00               0
GRID*              12615               0-1.273751254E+00-7.351682972E-02+
*       1.4963876872E+00               0
GRID*              12616               0-1.273747790E+00-3.535413082E-01+
*       1.4114434653E+00               0
GRID*              12617               0-1.273750489E+00-4.757961363E-01+
*       1.3297566555E+00               0
GRID*              12618               0-1.273752734E+00-5.797625413E-01+
*       1.2257875901E+00               0
GRID*              12619               0-1.273747079E+00-6.614358956E-01+
*       1.1035549756E+00               0
GRID*              12620               0-1.273749914E+00-7.159001992E-01+
*       9.7357752294E-01               0
GRID*              12621               0-1.273751920E+00-7.446734835E-01+
*       8.3922081113E-01               0
GRID*              12622               0-1.211248351E+007.2677231537E-01+
*       9.3520438239E-01               0
GRID*              12623               0-1.211248120E+007.0512006477E-01+
*       1.0055480447E+00               0
GRID*              12624               0-1.336250022E+007.4068137306E-01+
*       8.6786003594E-01               0
GRID*              12625               0-1.336251893E+007.2676985738E-01+
*       9.3521517053E-01               0
GRID*              12626               0-1.273752691E+007.3336708807E-01+
*       9.0707053876E-01               0
GRID*              12627               0-1.336252005E+007.4866579373E-01+
*       7.9469916014E-01               0
GRID*              12628               0-1.273752875E+007.4866559677E-01+
*       7.9470178294E-01               0
GRID*              12629               0-1.211250283E+007.4068118874E-01+
*       8.6786084491E-01               0
GRID*              12630               0-1.211247498E+007.4866686360E-01+
*       7.9468491366E-01               0
GRID*              12631               0-1.336249743E+006.7776871658E-01+
*       1.0711377115E+00               0
GRID*              12632               0-1.336252406E+006.4302319695E-01+
*       1.1360311074E+00               0
GRID*              12633               0-1.336251489E+007.0511621255E-01+
*       1.0055578514E+00               0
GRID*              12634               0-1.273746771E+006.9153078493E-01+
*       1.0403164023E+00               0
GRID*              12635               0-1.211249911E+006.7776852351E-01+
*       1.0711382030E+00               0
GRID*              12636               0-1.211247985E+006.4303011044E-01+
*       1.1360191295E+00               0
GRID*              12637               0-1.336251079E+006.0235125295E-01+
*       1.1968465781E+00               0
GRID*              12638               0-1.336249370E+005.5565608603E-01+
*       1.2537320981E+00               0
GRID*              12639               0-1.273749732E+006.2326392090E-01+
*       1.1671833281E+00               0
GRID*              12640               0-1.211249399E+006.0235452785E-01+
*       1.1968424702E+00               0
GRID*              12641               0-1.211249829E+005.5565519162E-01+
*       1.2537332200E+00               0
GRID*              12642               0-1.336252547E+005.0365197477E-01+
*       1.3057278790E+00               0
GRID*              12643               0-1.336250862E+004.4676032910E-01+
*       1.3524154255E+00               0
GRID*              12644               0-1.273752504E+005.3025230828E-01+
*       1.2804066636E+00               0
GRID*              12645               0-1.211247763E+005.0366294341E-01+
*       1.3057176954E+00               0
GRID*              12646               0-1.336250661E+002.5266515175E-01+
*       1.4561582826E+00               0
GRID*              12647               0-1.336248719E+001.8223871009E-01+
*       1.4775220847E+00               0
GRID*              12648               0-1.211247593E+003.2067038873E-01+
*       1.4279889213E+00               0
GRID*              12649               0-1.211249718E+003.8557552504E-01+
*       1.3932971875E+00               0
GRID*              12650               0-1.273749048E+002.8701280403E-01+
*       1.4429091570E+00               0
GRID*              12651               0-1.336252575E+003.2065634156E-01+
*       1.4279956784E+00               0
GRID*              12652               0-1.211251065E+002.5266394396E-01+
*       1.4561586553E+00               0
GRID*              12653               0-1.336249000E+003.8557738009E-01+
*       1.3932959233E+00               0
GRID*              12654               0-1.211250445E+004.4676140723E-01+
*       1.3524146907E+00               0
GRID*              12655               0-1.273747735E+004.1666894112E-01+
*       1.3736068660E+00               0
GRID*              12656               0-1.211249580E+001.8223613767E-01+
*       1.4775228785E+00               0
GRID*              12657               0-1.336252535E+001.1003970154E-01+
*       1.4918826285E+00               0
GRID*              12658               0-1.336250478E+003.6799123040E-02+
*       1.4990962941E+00               0
GRID*              12659               0-1.273751682E+001.4631234219E-01+
*       1.4855893993E+00               0
GRID*              12660               0-1.211247455E+001.1005541315E-01+
*       1.4918802564E+00               0
GRID*              12661               0-1.336250315E+00-1.822361377E-01+
*       1.4775228785E+00               0
GRID*              12662               0-1.336248830E+00-2.526639440E-01+
*       1.4561586553E+00               0
GRID*              12663               0-1.336252440E+00-1.100554132E-01+
*       1.4918802564E+00               0
GRID*              12664               0-1.336248626E+00-3.679664732E-02+
*       1.4990962941E+00               0
GRID*              12665               0-1.273748213E+00-1.463123422E-01+
*       1.4855893993E+00               0
GRID*              12666               0-1.211251176E+00-1.822387101E-01+
*       1.4775220847E+00               0
GRID*              12667               0-1.211247361E+00-1.100397015E-01+
*       1.4918826285E+00               0
GRID*              12668               0-1.211249418E+00-3.679912304E-02+
*       1.4990962941E+00               0
GRID*              12669               0-1.211251269E+003.6796647316E-02+
*       1.4990962941E+00               0
GRID*              12670               0-1.273749948E+00-9.459233805E-13+
*       1.4999990385E+00               0
GRID*              12671               0-1.211249234E+00-2.526651517E-01+
*       1.4561582826E+00               0
GRID*              12672               0-1.336252303E+00-3.206725392E-01+
*       1.4279879042E+00               0
GRID*              12673               0-1.336250178E+00-3.855775654E-01+
*       1.3932959645E+00               0
GRID*              12674               0-1.273750848E+00-2.870150023E-01+
*       1.4429082463E+00               0
GRID*              12675               0-1.211247320E+00-3.206584918E-01+
*       1.4279946614E+00               0
GRID*              12676               0-1.211250895E+00-3.855794208E-01+
*       1.3932947000E+00               0
GRID*              12677               0-1.336249447E+00-4.467729444E-01+
*       1.3524061342E+00               0
GRID*              12678               0-1.336252133E+00-5.036735962E-01+
*       1.3057080402E+00               0
GRID*              12679               0-1.273752156E+00-4.166828621E-01+
*       1.3735975645E+00               0
GRID*              12680               0-1.211249034E+00-4.467718776E-01+
*       1.3524068613E+00               0
GRID*              12681               0-1.211247348E+00-5.036626252E-01+
*       1.3057182260E+00               0
GRID*              12682               0-1.336250069E+00-5.557135012E-01+
*       1.2536688899E+00               0
GRID*              12683               0-1.336250472E+00-6.024062042E-01+
*       1.1967728005E+00               0
GRID*              12684               0-1.273747402E+00-5.303238920E-01+
*       1.2803350949E+00               0
GRID*              12685               0-1.211250534E+00-5.557144088E-01+
*       1.2536677514E+00               0
GRID*              12686               0-1.211248822E+00-6.024029859E-01+
*       1.1967768374E+00               0
GRID*              12687               0-1.336251941E+00-6.432987775E-01+
*       1.1355712210E+00               0
GRID*              12688               0-1.336249993E+00-6.779919659E-01+
*       1.0706661819E+00               0
GRID*              12689               0-1.273750204E+00-6.236025396E-01+
*       1.1666769644E+00               0
GRID*              12690               0-1.211247463E+00-6.432917759E-01+
*       1.1355833515E+00               0
GRID*              12691               0-1.211250195E+00-6.779921979E-01+
*       1.0706655912E+00               0
GRID*              12692               0-1.336251779E+00-7.051200648E-01+
*       1.0055480447E+00               0
GRID*              12693               0-1.336251544E+00-7.267723154E-01+
*       9.3520438239E-01               0
GRID*              12694               0-1.273753129E+00-6.917327567E-01+
*       1.0398348301E+00               0
GRID*              12695               0-1.211248411E+00-7.051162125E-01+
*       1.0055578514E+00               0
GRID*              12696               0-1.211248002E+00-7.267698574E-01+
*       9.3521517053E-01               0
GRID*              12697               0-1.336249635E+00-7.406811887E-01+
*       8.6786084491E-01               0
GRID*              12698               0-1.273747236E+00-7.333670881E-01+
*       9.0707053875E-01               0
GRID*              12699               0-1.336252484E+00-7.486668636E-01+
*       7.9468491369E-01               0
GRID*              12700               0-1.273747106E+00-7.486655968E-01+
*       7.9470178293E-01               0
GRID*              12701               0-1.211249896E+00-7.406813731E-01+
*       8.6786003594E-01               0
GRID*              12702               0-1.211247977E+00-7.486657937E-01+
*       7.9469916009E-01               0
GRID*              12703               0-1.148750031E+002.3213944579E-01+
*       1.2350425159E-01               0
GRID*              12704               0-1.148749985E+001.5950393717E-01+
*       2.5157911211E-01               0
GRID*              12705               0-1.148749960E+001.0063606510E-01+
*       3.6097849190E-01               0
GRID*              12706               0-1.148749950E+005.7423654593E-02+
*       4.4071394862E-01               0
GRID*              12707               0-1.148749948E+00-2.690368493E-02+
*       1.0879842463E+00               0
GRID*              12708               0-1.148749948E+004.1119494401E-02+
*       1.2074448700E+00               0
GRID*              12709               0-1.148749948E+008.3716701510E-02+
*       1.3588723248E+00               0
GRID*              12710               0-1.148749950E+00-2.938458379E-01+
*       6.5522081322E-01               0
GRID*              12711               0-1.148749966E+00-3.813364564E-01+
*       6.2077831200E-01               0
GRID*              12712               0-1.148750002E+00-4.992335306E-01+
*       5.7209181193E-01               0
GRID*              12713               0-1.148750044E+00-6.240500372E-01+
*       5.1516542598E-01               0
GRID*              12714               0-1.148749951E+00-1.903184804E-01+
*       4.8654370674E-01               0
GRID*              12715               0-1.148749963E+00-2.828411968E-01+
*       4.2746034235E-01               0
GRID*              12716               0-1.148749984E+00-3.937431086E-01+
*       3.6722208443E-01               0
GRID*              12717               0-1.148750013E+00-5.056503734E-01+
*       3.0679904551E-01               0
GRID*              12718               0-1.148750043E+00-6.218025554E-01+
*       2.3394054805E-01               0
GRID*              12719               0-1.148749950E+00-2.221080753E-02+
*       4.3677460543E-01               0
GRID*              12720               0-1.148749959E+00-6.716130996E-02+
*       3.5797868695E-01               0
GRID*              12721               0-1.148749983E+00-1.295224643E-01+
*       2.5509862710E-01               0
GRID*              12722               0-1.148750027E+00-2.120720491E-01+
*       1.3305761401E-01               0
GRID*              12723               0-1.148750028E+008.1707631121E-02+
*       1.2693976696E-01               0
GRID*              12724               0-1.148750027E+00-6.603287707E-02+
*       1.2926977121E-01               0
GRID*              12725               0-1.148749977E+001.3721131515E-02+
*       2.6484572678E-01               0
GRID*              12726               0-1.148749955E+001.6579341474E-02+
*       3.7522123100E-01               0
GRID*              12727               0-1.148749951E+00-1.053769568E-01+
*       4.5020435241E-01               0
GRID*              12728               0-1.148749964E+00-1.743299220E-01+
*       3.7738460834E-01               0
GRID*              12729               0-1.148749989E+00-2.783522855E-01+
*       2.7966211238E-01               0
GRID*              12730               0-1.148750029E+00-3.555875909E-01+
*       1.3988600054E-01               0
GRID*              12731               0-1.148750034E+00-4.921237835E-01+
*       1.7420070309E-01               0
GRID*              12732               0-1.148750055E+00-6.126792959E-01+
*       9.8125162012E-02               0
GRID*              12733               0-1.148750007E+00-4.063132514E-01+
*       2.5402525539E-01               0
GRID*              12734               0-1.148750002E+00-5.057522671E-01+
*       4.3860276575E-01               0
GRID*              12735               0-1.148750042E+00-6.260054142E-01+
*       3.7408323994E-01               0
GRID*              12736               0-1.148749971E+00-3.900005296E-01+
*       4.9743589771E-01               0
GRID*              12737               0-1.148749952E+00-2.778925975E-01+
*       5.5868290989E-01               0
GRID*              12738               0-1.148749983E+00-6.047030143E-01+
*       7.9855996224E-01               0
GRID*              12739               0-1.148749948E+00-4.549085978E-01+
*       8.4854663849E-01               0
GRID*              12740               0-1.148749948E+00-3.185200541E-01+
*       8.5223468045E-01               0
GRID*              12741               0-1.148749948E+00-2.740106517E-01+
*       9.4707528243E-01               0
GRID*              12742               0-1.148749948E+00-2.575885519E-01+
*       1.0563974051E+00               0
GRID*              12743               0-1.148749948E+00-2.245213888E-01+
*       1.1757202938E+00               0
GRID*              12744               0-1.148749948E+00-1.876182497E-01+
*       1.3202226072E+00               0
GRID*              12745               0-1.148749948E+00-3.643401731E-01+
*       1.0249215518E+00               0
GRID*              12746               0-1.148749948E+00-4.687972238E-01+
*       9.8025509038E-01               0
GRID*              12747               0-1.148749948E+00-5.869693402E-01+
*       9.3393861756E-01               0
GRID*              12748               0-1.148749948E+00-3.749868661E-01+
*       9.3134329612E-01               0
GRID*              12749               0-1.148749948E+00-3.181454087E-01+
*       1.2779202295E+00               0
GRID*              12750               0-1.148749948E+00-3.459661191E-01+
*       1.1412797191E+00               0
GRID*              12751               0-1.148749948E+00-5.662647434E-01+
*       1.0411406719E+00               0
GRID*              12752               0-1.148749948E+00-4.663267407E-01+
*       1.0946546193E+00               0
GRID*              12753               0-1.148749948E+00-4.457170182E-01+
*       1.2217257421E+00               0
GRID*              12754               0-1.148749948E+00-1.401879944E-01+
*       1.0667979845E+00               0
GRID*              12755               0-1.148749948E+00-1.954149605E-01+
*       9.8999556972E-01               0
GRID*              12756               0-1.148749948E+00-9.838114607E-02+
*       1.2001316725E+00               0
GRID*              12757               0-1.148749948E+00-5.133446452E-02+
*       1.3452611988E+00               0
GRID*              12758               0-1.148750045E+00-6.181413679E-01+
*       6.5653981893E-01               0
GRID*              12759               0-1.148750002E+00-4.836591388E-01+
*       7.0554371934E-01               0
GRID*              12760               0-1.148749959E+00-3.459976271E-01+
*       7.4007531920E-01               0
GRID*              12761               0-1.148750049E+006.3184613656E-01+
*       6.6451273372E-01               0
GRID*              12762               0-1.148750016E+005.1297645936E-01+
*       7.2295481950E-01               0
GRID*              12763               0-1.148750057E+004.0233424242E-01+
*       7.6430500950E-01               0
GRID*              12764               0-1.148749994E+003.1319174686E-01+
*       7.9582120320E-01               0
GRID*              12765               0-1.148750038E+003.8510427426E-01+
*       1.1510171384E-01               0
GRID*              12766               0-1.148749996E+003.1987823552E-01+
*       2.7001915741E-01               0
GRID*              12767               0-1.148749965E+003.2033142763E-01+
*       4.3716292920E-01               0
GRID*              12768               0-1.148749951E+002.2281711755E-01+
*       5.0470320369E-01               0
GRID*              12769               0-1.148749951E+001.3947064074E-01+
*       4.6045234819E-01               0
GRID*              12770               0-1.148749965E+002.0924799977E-01+
*       3.8306182349E-01               0
GRID*              12771               0-1.148749971E+003.2049294405E-01+
*       7.0403322573E-01               0
GRID*              12772               0-1.148749977E+004.1490794995E-01+
*       6.4535770519E-01               0
GRID*              12773               0-1.148750012E+005.2550934215E-01+
*       5.8451456365E-01               0
GRID*              12774               0-1.148750048E+006.3815567681E-01+
*       5.2131006634E-01               0
GRID*              12775               0-1.148750012E+005.3587872330E-01+
*       4.4944933355E-01               0
GRID*              12776               0-1.148749992E+004.4041092493E-01+
*       3.7159573655E-01               0
GRID*              12777               0-1.148750047E+006.4308254181E-01+
*       3.8327776677E-01               0
GRID*              12778               0-1.148750019E+005.5003696678E-01+
*       3.3555433915E-01               0
GRID*              12779               0-1.148750045E+006.3509184056E-01+
*       2.5164472148E-01               0
GRID*              12780               0-1.148750053E+006.2283056873E-01+
*       1.1914677773E-01               0
GRID*              12781               0-1.148750023E+004.9549278317E-01+
*       2.2161827275E-01               0
GRID*              12782               0-1.148750050E+005.1120458202E-01+
*       8.9918017155E-02               0
GRID*              12783               0-1.148749976E+004.2417415176E-01+
*       5.1245482079E-01               0
GRID*              12784               0-1.148749954E+003.0672431978E-01+
*       5.8492269428E-01               0
GRID*              12785               0-1.148749948E+001.6219626692E-01+
*       1.0451297199E+00               0
GRID*              12786               0-1.148749948E+002.5698659598E-01+
*       1.1477974681E+00               0
GRID*              12787               0-1.148749948E+003.9241609840E-01+
*       1.2234501208E+00               0
GRID*              12788               0-1.148749948E+002.8554454903E-01+
*       1.3013192869E+00               0
GRID*              12789               0-1.148749948E+001.6726893155E-01+
*       1.2546693003E+00               0
GRID*              12790               0-1.148749948E+001.9399365277E-01+
*       1.3677235224E+00               0
GRID*              12791               0-1.148749948E+001.3949467804E-01+
*       1.1442437851E+00               0
GRID*              12792               0-1.148749948E+007.1508041121E-02+
*       1.0757593340E+00               0
GRID*              12793               0-1.148749948E+002.9662910548E-01+
*       8.8231645262E-01               0
GRID*              12794               0-1.148749948E+002.6306773564E-01+
*       9.9145714246E-01               0
GRID*              12795               0-1.148749948E+003.8178324685E-01+
*       9.5147482925E-01               0
GRID*              12796               0-1.148749948E+004.8495239916E-01+
*       8.7079446703E-01               0
GRID*              12797               0-1.148749986E+006.2085335114E-01+
*       8.1156262948E-01               0
GRID*              12798               0-1.148749948E+003.7874498185E-01+
*       1.0829393199E+00               0
GRID*              12799               0-1.148749948E+006.0711185092E-01+
*       9.6360205147E-01               0
GRID*              12800               0-1.148749948E+004.9102185349E-01+
*       1.0302631747E+00               0
GRID*              12801               0-1.148749948E+004.8194385691E-01+
*       1.1561931142E+00               0
GRID*              12802               0-1.148749948E+003.7348352908E-01+
*       8.5207904678E-01               0
GRID*              12803               0-1.148750054E+001.9106972289E-01+
*       6.1752125796E-02               0
GRID*              12804               0-1.148750055E+002.6606972289E-01+
*       6.1752125796E-02               0
GRID*              12805               0-1.148750030E+001.5692353845E-01+
*       1.2522200928E-01               0
GRID*              12806               0-1.148750054E+001.1585381556E-01+
*       6.3469883481E-02               0
GRID*              12807               0-1.148750054E+004.0853815560E-02+
*       6.3469883481E-02               0
GRID*              12808               0-1.148750028E+007.8373770253E-03+
*       1.2810476909E-01               0
GRID*              12809               0-1.148750053E+00-3.301643854E-02+
*       6.4634885607E-02               0
GRID*              12810               0-1.148750053E+00-1.810360245E-01+
*       6.6528807004E-02               0
GRID*              12811               0-1.148750053E+00-2.560360245E-01+
*       6.6528807004E-02               0
GRID*              12812               0-1.148750053E+00-1.080164385E-01+
*       6.4634885607E-02               0
GRID*              12813               0-1.148750027E+00-1.390524631E-01+
*       1.3116369261E-01               0
GRID*              12814               0-1.148749949E+001.7606423529E-02+
*       4.3874427703E-01               0
GRID*              12815               0-1.148749949E+003.8052962792E-02+
*       4.7070750838E-01               0
GRID*              12816               0-1.148749948E+00-1.764268272E-03+
*       4.6873783679E-01               0
GRID*              12817               0-1.148750004E+001.2060578415E-01+
*       1.8925943954E-01               0
GRID*              12818               0-1.148750006E+001.9582169148E-01+
*       1.8754168185E-01               0
GRID*              12819               0-1.148749980E+008.6612534342E-02+
*       2.5821241945E-01               0
GRID*              12820               0-1.148750000E+004.7714381318E-02+
*       1.9589274687E-01               0
GRID*              12821               0-1.148750002E+00-9.777767070E-02+
*       1.9218419916E-01               0
GRID*              12822               0-1.148750003E+00-1.707972567E-01+
*       1.9407812056E-01               0
GRID*              12823               0-1.148749999E+00-2.615587278E-02+
*       1.9705774900E-01               0
GRID*              12824               0-1.148749979E+00-5.790066640E-02+
*       2.5997217694E-01               0
GRID*              12825               0-1.148749952E+003.7001498033E-02+
*       4.0796758981E-01               0
GRID*              12826               0-1.148749957E+005.8607703285E-02+
*       3.6809986145E-01               0
GRID*              12827               0-1.148749954E+007.9029859845E-02+
*       4.0084622026E-01               0
GRID*              12828               0-1.148749952E+00-2.815733030E-03+
*       4.0599791822E-01               0
GRID*              12829               0-1.148749953E+00-4.468605875E-02+
*       3.9737664619E-01               0
GRID*              12830               0-1.148749956E+00-2.529098425E-02+
*       3.6659995897E-01               0
GRID*              12831               0-1.148749966E+00-2.672008922E-02+
*       3.1141220687E-01               0
GRID*              12832               0-1.148749969E+00-9.834188714E-02+
*       3.0653865703E-01               0
GRID*              12833               0-1.148749966E+005.7178598306E-02+
*       3.1291210934E-01               0
GRID*              12834               0-1.148749971E+001.3007000113E-01+
*       3.0627880201E-01               0
GRID*              12835               0-1.148749964E+001.5150236494E-02+
*       3.2003347889E-01               0
GRID*              12836               0-1.148749949E+00-3.892047325E-02+
*       4.7152166500E-01               0
GRID*              12837               0-1.148749951E+00-6.379388215E-02+
*       4.4348947892E-01               0
GRID*              12838               0-1.148749949E+00-8.050354787E-02+
*       4.7823653849E-01               0
GRID*              12839               0-1.148750052E+00-3.277937954E-01+
*       6.9943000268E-02               0
GRID*              12840               0-1.148750053E+00-4.027937954E-01+
*       6.9943000268E-02               0
GRID*              12841               0-1.148749954E+00-8.626913337E-02+
*       4.0409151968E-01               0
GRID*              12842               0-1.148749957E+00-1.398534394E-01+
*       4.1379448038E-01               0
GRID*              12843               0-1.148749960E+00-1.207456160E-01+
*       3.6768164765E-01               0
GRID*              12844               0-1.148749970E+00-1.519261931E-01+
*       3.1624161772E-01               0
GRID*              12845               0-1.148749976E+00-2.263411037E-01+
*       3.2852336036E-01               0
GRID*              12846               0-1.148749984E+00-2.039373749E-01+
*       2.6738036974E-01               0
GRID*              12847               0-1.148750028E+00-2.838298200E-01+
*       1.3647180727E-01               0
GRID*              12848               0-1.148750003E+00-2.452121673E-01+
*       2.0635986320E-01               0
GRID*              12849               0-1.148750007E+00-3.169699382E-01+
*       2.0977405646E-01               0
GRID*              12850               0-1.148750049E+00-4.710618918E-01+
*       8.7100351547E-02               0
GRID*              12851               0-1.148750029E+00-4.238556872E-01+
*       1.5704335182E-01               0
GRID*              12852               0-1.148750059E+00-6.813396479E-01+
*       1.2406258101E-01               0
GRID*              12853               0-1.148750048E+00-6.172409256E-01+
*       1.6603285503E-01               0
GRID*              12854               0-1.148750059E+00-6.859012777E-01+
*       1.9197027402E-01               0
GRID*              12855               0-1.148750064E+00-6.813396479E-01+
*       4.9062581006E-02               0
GRID*              12856               0-1.148750061E+00-6.063396479E-01+
*       4.9062581006E-02               0
GRID*              12857               0-1.148750045E+00-5.524015397E-01+
*       1.3616293255E-01               0
GRID*              12858               0-1.148750034E+00-5.569631694E-01+
*       2.0407062557E-01               0
GRID*              12859               0-1.148750060E+00-5.313396479E-01+
*       4.9062581006E-02               0
GRID*              12860               0-1.148750020E+00-4.988870785E-01+
*       2.4049987430E-01               0
GRID*              12861               0-1.148750028E+00-5.637264644E-01+
*       2.7036979678E-01               0
GRID*              12862               0-1.148749948E+00-1.151884783E-01+
*       4.9184899733E-01               0
GRID*              12863               0-1.148749951E+00-1.478477186E-01+
*       4.6837402957E-01               0
GRID*              12864               0-1.148749956E+00-1.823242012E-01+
*       4.3196415754E-01               0
GRID*              12865               0-1.148749948E+00-1.576592401E-01+
*       5.1001867450E-01               0
GRID*              12866               0-1.148750007E+00-4.559818124E-01+
*       2.8041215045E-01               0
GRID*              12867               0-1.148749995E+00-4.000281800E-01+
*       3.1062366991E-01               0
GRID*              12868               0-1.148749998E+00-4.496967410E-01+
*       3.3701056497E-01               0
GRID*              12869               0-1.148750020E+00-4.492185175E-01+
*       2.1411297924E-01               0
GRID*              12870               0-1.148750016E+00-3.809504211E-01+
*       1.9695562796E-01               0
GRID*              12871               0-1.148750000E+00-3.423327684E-01+
*       2.6684368389E-01               0
GRID*              12872               0-1.148749963E+00-2.285855594E-01+
*       4.0242247534E-01               0
GRID*              12873               0-1.148749975E+00-2.805967411E-01+
*       3.5356122737E-01               0
GRID*              12874               0-1.148749956E+00-2.365798386E-01+
*       4.5700202454E-01               0
GRID*              12875               0-1.148749986E+00-3.360476970E-01+
*       3.2344209841E-01               0
GRID*              12876               0-1.148749973E+00-3.382921527E-01+
*       3.9734121339E-01               0
GRID*              12877               0-1.148750022E+00-5.649011521E-01+
*       4.7688409587E-01               0
GRID*              12878               0-1.148750001E+00-5.024928988E-01+
*       5.0534728884E-01               0
GRID*              12879               0-1.148750023E+00-5.616417839E-01+
*       5.4362861896E-01               0
GRID*              12880               0-1.148750043E+00-6.250277257E-01+
*       4.4462433296E-01               0
GRID*              12881               0-1.148750022E+00-5.658788406E-01+
*       4.0634300285E-01               0
GRID*              12882               0-1.148750060E+00-6.880027071E-01+
*       4.1204161997E-01               0
GRID*              12883               0-1.148750059E+00-6.880027071E-01+
*       3.3704161997E-01               0
GRID*              12884               0-1.148750060E+00-6.870250186E-01+
*       4.8258271299E-01               0
GRID*              12885               0-1.148750023E+00-5.658278938E-01+
*       3.4044114272E-01               0
GRID*              12886               0-1.148750005E+00-5.057013202E-01+
*       3.7270090563E-01               0
GRID*              12887               0-1.148750041E+00-6.239039848E-01+
*       3.0401189399E-01               0
GRID*              12888               0-1.148750058E+00-6.859012777E-01+
*       2.6697027402E-01               0
GRID*              12889               0-1.148749991E+00-4.497476878E-01+
*       4.0291242509E-01               0
GRID*              12890               0-1.148749976E+00-3.918718191E-01+
*       4.3232899107E-01               0
GRID*              12891               0-1.148749965E+00-3.364208632E-01+
*       4.6244812003E-01               0
GRID*              12892               0-1.148749984E+00-4.478763983E-01+
*       4.6801933173E-01               0
GRID*              12893               0-1.148749982E+00-4.446170301E-01+
*       5.3476385482E-01               0
GRID*              12894               0-1.148749966E+00-3.856684930E-01+
*       5.5910710485E-01               0
GRID*              12895               0-1.148749960E+00-3.339465636E-01+
*       5.2805940380E-01               0
GRID*              12896               0-1.148749955E+00-3.296145270E-01+
*       5.8973061094E-01               0
GRID*              12897               0-1.148749982E+00-4.402849935E-01+
*       5.9643506196E-01               0
GRID*              12898               0-1.148749956E+00-2.803668972E-01+
*       4.9307162612E-01               0
GRID*              12899               0-1.148749951E+00-2.341055390E-01+
*       5.2261330831E-01               0
GRID*              12900               0-1.148749948E+00-1.867904350E-01+
*       5.3325048340E-01               0
GRID*              12901               0-1.148749948E+00-2.595430868E-01+
*       6.4837533567E-01               0
GRID*              12902               0-1.148749949E+00-2.705253182E-01+
*       6.8398031885E-01               0
GRID*              12903               0-1.148749949E+00-2.305774936E-01+
*       5.6932008498E-01               0
GRID*              12904               0-1.148749951E+00-2.858692177E-01+
*       6.0695186155E-01               0
GRID*              12905               0-1.148749957E+00-3.375911472E-01+
*       6.3799956261E-01               0
GRID*              12906               0-1.148749949E+00-2.515664666E-01+
*       6.0010638401E-01               0
GRID*              12907               0-1.148749948E+00-3.191754124E-01+
*       9.8599841712E-01               0
GRID*              12908               0-1.148749948E+00-2.657996018E-01+
*       1.0017363437E+00               0
GRID*              12909               0-1.148749948E+00-3.109643625E-01+
*       1.0406594784E+00               0
GRID*              12910               0-1.148749948E+00-3.696635196E-01+
*       9.7813242396E-01               0
GRID*              12911               0-1.148749948E+00-4.165686984E-01+
*       1.0025883211E+00               0
GRID*              12912               0-1.148749948E+00-4.218920449E-01+
*       9.5579919325E-01               0
GRID*              12913               0-1.148749948E+00-3.244987589E-01+
*       9.3920928928E-01               0
GRID*              12914               0-1.148749948E+00-3.467534601E-01+
*       8.9178898829E-01               0
GRID*              12915               0-1.148749948E+00-2.962653529E-01+
*       8.9965498144E-01               0
GRID*              12916               0-1.148749948E+00-6.701456290E-01+
*       8.4743877329E-01               0
GRID*              12917               0-1.148750042E+00-6.773515071E-01+
*       7.7427998112E-01               0
GRID*              12918               0-1.148749948E+00-5.958361772E-01+
*       8.6624928990E-01               0
GRID*              12919               0-1.148749948E+00-6.612787920E-01+
*       9.1512810095E-01               0
GRID*              12920               0-1.148749948E+00-5.298058060E-01+
*       8.2355330037E-01               0
GRID*              12921               0-1.148749948E+00-5.209389690E-01+
*       8.9124262803E-01               0
GRID*              12922               0-1.148749948E+00-4.149477320E-01+
*       8.8994496731E-01               0
GRID*              12923               0-1.148749948E+00-3.867143260E-01+
*       8.5039065947E-01               0
GRID*              12924               0-1.148749948E+00-4.618529108E-01+
*       9.1440086444E-01               0
GRID*              12925               0-1.148749948E+00-5.278832820E-01+
*       9.5709685397E-01               0
GRID*              12926               0-1.148749948E+00-3.017773355E-01+
*       1.0988385621E+00               0
GRID*              12927               0-1.148749948E+00-3.551531461E-01+
*       1.0831006355E+00               0
GRID*              12928               0-1.148749948E+00-2.410549703E-01+
*       1.1160588494E+00               0
GRID*              12929               0-1.148749948E+00-2.852437539E-01+
*       1.1585000065E+00               0
GRID*              12930               0-1.148749948E+00-2.373153681E-01+
*       1.3815660337E+00               0
GRID*              12931               0-1.148749948E+00-1.669679663E-01+
*       1.4029056030E+00               0
GRID*              12932               0-1.148749948E+00-3.025789477E-01+
*       1.3604148449E+00               0
GRID*              12933               0-1.148749948E+00-2.528818292E-01+
*       1.2990714184E+00               0
GRID*              12934               0-1.148749948E+00-2.713333987E-01+
*       1.2268202617E+00               0
GRID*              12935               0-1.148749948E+00-3.320557639E-01+
*       1.2095999743E+00               0
GRID*              12936               0-1.148749948E+00-2.060698192E-01+
*       1.2479714505E+00               0
GRID*              12937               0-1.148749948E+00-6.399390916E-01+
*       9.8547543741E-01               0
GRID*              12938               0-1.148749948E+00-3.674112866E-01+
*       1.3257608454E+00               0
GRID*              12939               0-1.148749948E+00-5.766170418E-01+
*       9.8753964472E-01               0
GRID*              12940               0-1.148749948E+00-5.175309836E-01+
*       1.0106978811E+00               0
GRID*              12941               0-1.148749948E+00-6.295867932E-01+
*       1.0390764646E+00               0
GRID*              12942               0-1.148749948E+00-5.949334452E-01+
*       1.1039091586E+00               0
GRID*              12943               0-1.148749948E+00-4.675619823E-01+
*       1.0374548548E+00               0
GRID*              12944               0-1.148749948E+00-5.162957421E-01+
*       1.0678976456E+00               0
GRID*              12945               0-1.148749948E+00-4.153334569E-01+
*       1.0597880855E+00               0
GRID*              12946               0-1.148749948E+00-4.061464299E-01+
*       1.1179671692E+00               0
GRID*              12947               0-1.148749948E+00-4.311970914E-01+
*       1.2976636016E+00               0
GRID*              12948               0-1.148749948E+00-4.880233663E-01+
*       1.2510277207E+00               0
GRID*              12949               0-1.148749948E+00-3.819312135E-01+
*       1.2498229858E+00               0
GRID*              12950               0-1.148749948E+00-3.958415687E-01+
*       1.1815027306E+00               0
GRID*              12951               0-1.148749948E+00-4.560218795E-01+
*       1.1581901807E+00               0
GRID*              12952               0-1.148749948E+00-5.346595826E-01+
*       1.1942016936E+00               0
GRID*              12953               0-1.148749948E+00-5.449644438E-01+
*       1.1306661323E+00               0
GRID*              12954               0-1.148749948E+00-1.988882732E-01+
*       1.0615976948E+00               0
GRID*              12955               0-1.148749948E+00-1.823546916E-01+
*       1.1212591391E+00               0
GRID*              12956               0-1.148749948E+00-2.496254929E-01+
*       9.0277271388E-01               0
GRID*              12957               0-1.148749948E+00-2.718801941E-01+
*       8.5535241289E-01               0
GRID*              12958               0-1.148749948E+00-2.347128061E-01+
*       9.6853542607E-01               0
GRID*              12959               0-1.148749948E+00-2.265017562E-01+
*       1.0231964874E+00               0
GRID*              12960               0-1.148749948E+00-2.286365192E-01+
*       9.3355901238E-01               0
GRID*              12961               0-1.148749948E+00-1.893386736E-01+
*       9.5501915602E-01               0
GRID*              12962               0-1.148749948E+00-1.602074820E-01+
*       9.7825096913E-01               0
GRID*              12963               0-1.148749948E+00-1.325939990E-01+
*       1.0166521765E+00               0
GRID*              12964               0-1.148749948E+00-9.790906542E-02+
*       1.0302646281E+00               0
GRID*              12965               0-1.148749948E+00-1.678014775E-01+
*       1.0283967771E+00               0
GRID*              12966               0-1.148749948E+00-8.354583968E-02+
*       1.0773911154E+00               0
GRID*              12967               0-1.148749948E+00-4.126691067E-02+
*       1.0408577590E+00               0
GRID*              12968               0-1.148749948E+00-6.264241550E-02+
*       1.1440579594E+00               0
GRID*              12969               0-1.148749948E+007.1079047367E-03+
*       1.1477145581E+00               0
GRID*              12970               0-1.148749948E+00-2.863082584E-02+
*       1.2037882712E+00               0
GRID*              12971               0-1.148749948E+00-1.192845703E-01+
*       1.1334648285E+00               0
GRID*              12972               0-1.148749948E+00-1.614512674E-01+
*       1.1879259831E+00               0
GRID*              12973               0-1.148749948E+004.1858350755E-02+
*       1.4294356863E+00               0
GRID*              12974               0-1.148749948E+001.1501719220E-01+
*       1.4222304618E+00               0
GRID*              12975               0-1.148749948E+00-9.882607371E-02+
*       1.4154248988E+00               0
GRID*              12976               0-1.148749948E+00-1.194763571E-01+
*       1.3327419030E+00               0
GRID*              12977               0-1.148749948E+00-2.566723226E-02+
*       1.4226301233E+00               0
GRID*              12978               0-1.148749948E+001.6191118496E-02+
*       1.3520667618E+00               0
GRID*              12979               0-1.148749948E+00-5.107485058E-03+
*       1.2763530344E+00               0
GRID*              12980               0-1.148749948E+006.2418097956E-02+
*       1.2831585974E+00               0
GRID*              12981               0-1.148749948E+00-1.429996979E-01+
*       1.2601771398E+00               0
GRID*              12982               0-1.148749948E+00-7.485780530E-02+
*       1.2726964356E+00               0
GRID*              12983               0-1.148750060E+00-6.870250186E-01+
*       5.5758271299E-01               0
GRID*              12984               0-1.148750060E+00-6.840706839E-01+
*       6.2826990946E-01               0
GRID*              12985               0-1.148750044E+00-6.210957026E-01+
*       5.8585262245E-01               0
GRID*              12986               0-1.148750061E+00-6.840706839E-01+
*       7.0326990946E-01               0
GRID*              12987               0-1.148750045E+00-6.114221911E-01+
*       7.2754989058E-01               0
GRID*              12988               0-1.148750025E+00-5.586874493E-01+
*       6.1431581543E-01               0
GRID*              12989               0-1.148749948E+00-2.828624260E-01+
*       8.1974742988E-01               0
GRID*              12990               0-1.148749948E+00-3.322588406E-01+
*       7.9615499983E-01               0
GRID*              12991               0-1.148749948E+00-2.966012125E-01+
*       7.6366774926E-01               0
GRID*              12992               0-1.148750023E+00-5.441810765E-01+
*       7.5205184079E-01               0
GRID*              12993               0-1.148749969E+00-4.692838683E-01+
*       7.7704517892E-01               0
GRID*              12994               0-1.148750024E+00-5.509002533E-01+
*       6.8104176914E-01               0
GRID*              12995               0-1.148749948E+00-4.004531125E-01+
*       7.9431097885E-01               0
GRID*              12996               0-1.148749979E+00-4.148283829E-01+
*       7.2280951927E-01               0
GRID*              12997               0-1.148750002E+00-4.914463347E-01+
*       6.3881776564E-01               0
GRID*              12998               0-1.148749983E+00-4.324977976E-01+
*       6.6316101567E-01               0
GRID*              12999               0-1.148749951E+00-2.966012128E-01+
*       7.2640757184E-01               0
GRID*              13000               0-1.148749955E+00-3.199217325E-01+
*       6.9764806621E-01               0
GRID*              13001               0-1.148749964E+00-3.636670417E-01+
*       6.8042681560E-01               0
GRID*              13002               0-1.148749956E+002.1603255866E-01+
*       4.4388251359E-01               0
GRID*              13003               0-1.148749963E+002.6478971370E-01+
*       4.1011237634E-01               0
GRID*              13004               0-1.148749957E+002.7157427259E-01+
*       4.7093306644E-01               0
GRID*              13005               0-1.148749948E+001.8934388760E-01+
*       5.2962382472E-01               0
GRID*              13006               0-1.148749948E+002.1468759103E-01+
*       5.5693720810E-01               0
GRID*              13007               0-1.148749948E+007.4378898473E-02+
*       4.7899910238E-01               0
GRID*              13008               0-1.148749948E+001.1540239155E-01+
*       4.8886830216E-01               0
GRID*              13009               0-1.148749951E+009.8447147665E-02+
*       4.5058314841E-01               0
GRID*              13010               0-1.148749948E+001.4767064920E-01+
*       5.0749839697E-01               0
GRID*              13011               0-1.148749950E+001.8114387914E-01+
*       4.8257777594E-01               0
GRID*              13012               0-1.148749956E+001.2005335292E-01+
*       4.1071542004E-01               0
GRID*              13013               0-1.148749963E+001.5494203243E-01+
*       3.7202015769E-01               0
GRID*              13014               0-1.148749973E+001.8437596847E-01+
*       3.1732046780E-01               0
GRID*              13015               0-1.148749956E+001.7435932025E-01+
*       4.2175708584E-01               0
GRID*              13016               0-1.148750056E+003.4255213713E-01+
*       5.7550856922E-02               0
GRID*              13017               0-1.148750057E+004.1755213713E-01+
*       5.7550856922E-02               0
GRID*              13018               0-1.148750034E+003.0862186003E-01+
*       1.1930298272E-01               0
GRID*              13019               0-1.148750014E+003.5249125489E-01+
*       1.9256043562E-01               0
GRID*              13020               0-1.148750007E+002.7600884065E-01+
*       1.9676170450E-01               0
GRID*              13021               0-1.148749981E+002.6456311764E-01+
*       3.2654049045E-01               0
GRID*              13022               0-1.148749977E+003.2010483158E-01+
*       3.5359104330E-01               0
GRID*              13023               0-1.148749988E+002.3969108635E-01+
*       2.6079913476E-01               0
GRID*              13024               0-1.148750044E+002.8159587343E-01+
*       7.7291060160E-01               0
GRID*              13025               0-1.148749954E+002.7604213381E-01+
*       8.0975486088E-01               0
GRID*              13026               0-1.148750067E+003.1684234545E-01+
*       7.4992721446E-01               0
GRID*              13027               0-1.148750055E+003.6141359323E-01+
*       7.3416911762E-01               0
GRID*              13028               0-1.148750047E+003.5776299464E-01+
*       7.8006310635E-01               0
GRID*              13029               0-1.148750040E+002.8524647202E-01+
*       7.2701661286E-01               0
GRID*              13030               0-1.148749978E+004.0862109619E-01+
*       7.0483135735E-01               0
GRID*              13031               0-1.148749965E+003.6770044700E-01+
*       6.7469546546E-01               0
GRID*              13032               0-1.148749995E+004.6394220466E-01+
*       6.8415626234E-01               0
GRID*              13033               0-1.148749993E+004.7020864605E-01+
*       6.1493613442E-01               0
GRID*              13034               0-1.148750012E+005.1924290075E-01+
*       6.5373469157E-01               0
GRID*              13035               0-1.148750064E+004.5765535089E-01+
*       7.4362991450E-01               0
GRID*              13036               0-1.148750062E+006.9407783841E-01+
*       5.6065503317E-01               0
GRID*              13037               0-1.148750061E+006.9407783841E-01+
*       4.8565503317E-01               0
GRID*              13038               0-1.148750061E+006.9092306828E-01+
*       6.3225636686E-01               0
GRID*              13039               0-1.148750048E+006.3500090669E-01+
*       5.9291140003E-01               0
GRID*              13040               0-1.148750032E+005.7867773935E-01+
*       6.2451364869E-01               0
GRID*              13041               0-1.148750032E+005.7241129796E-01+
*       6.9373377661E-01               0
GRID*              13042               0-1.148750030E+005.8183250948E-01+
*       5.5291231499E-01               0
GRID*              13043               0-1.148749949E+002.7969273241E-01+
*       6.9017235358E-01               0
GRID*              13044               0-1.148750061E+006.9654127091E-01+
*       4.1663888339E-01               0
GRID*              13045               0-1.148750061E+006.9654127091E-01+
*       3.4163888339E-01               0
GRID*              13046               0-1.148750048E+006.4061910931E-01+
*       4.5229391655E-01               0
GRID*              13047               0-1.148750030E+005.8701720006E-01+
*       4.8537969994E-01               0
GRID*              13048               0-1.148750030E+005.8948063256E-01+
*       4.1636355016E-01               0
GRID*              13049               0-1.148750060E+006.9254592028E-01+
*       2.7582236074E-01               0
GRID*              13050               0-1.148750060E+006.9254592028E-01+
*       2.0082236074E-01               0
GRID*              13051               0-1.148750046E+006.3908719119E-01+
*       3.1746124413E-01               0
GRID*              13052               0-1.148750014E+005.4295784504E-01+
*       3.9250183635E-01               0
GRID*              13053               0-1.148749998E+004.8814482412E-01+
*       4.1052253505E-01               0
GRID*              13054               0-1.148750005E+004.9522394586E-01+
*       3.5357503785E-01               0
GRID*              13055               0-1.148750032E+005.9655975430E-01+
*       3.5941605296E-01               0
GRID*              13056               0-1.148750033E+005.9256440367E-01+
*       2.9359953032E-01               0
GRID*              13057               0-1.148750059E+006.8641528436E-01+
*       1.3457338886E-01               0
GRID*              13058               0-1.148750047E+006.2896120464E-01+
*       1.8539574961E-01               0
GRID*              13059               0-1.148750063E+006.8641528436E-01+
*       5.9573388863E-02               0
GRID*              13060               0-1.148750059E+006.1141528436E-01+
*       5.9573388863E-02               0
GRID*              13061               0-1.148750007E+004.6795185405E-01+
*       2.9660700465E-01               0
GRID*              13062               0-1.148750019E+005.2276487497E-01+
*       2.7858630595E-01               0
GRID*              13063               0-1.148750009E+004.0768550934E-01+
*       2.4581871508E-01               0
GRID*              13064               0-1.148750028E+004.4029852871E-01+
*       1.6835999330E-01               0
GRID*              13065               0-1.148749990E+003.8014458023E-01+
*       3.2080744698E-01               0
GRID*              13066               0-1.148750032E+005.6529231186E-01+
*       2.3663149712E-01               0
GRID*              13067               0-1.148750039E+005.5916167595E-01+
*       1.7038252524E-01               0
GRID*              13068               0-1.148750061E+005.5560229101E-01+
*       4.4959008578E-02               0
GRID*              13069               0-1.148750060E+004.8060229101E-01+
*       4.4959008578E-02               0
GRID*              13070               0-1.148750051E+005.6701757537E-01+
*       1.0453239744E-01               0
GRID*              13071               0-1.148750044E+004.4815442814E-01+
*       1.0250986550E-01               0
GRID*              13072               0-1.148750037E+005.0334868259E-01+
*       1.5576814495E-01               0
GRID*              13073               0-1.148749992E+004.7484174695E-01+
*       5.4848469222E-01               0
GRID*              13074               0-1.148749975E+004.1954105086E-01+
*       5.7890626299E-01               0
GRID*              13075               0-1.148750011E+005.3069403272E-01+
*       5.1698194860E-01               0
GRID*              13076               0-1.148749993E+004.8002643753E-01+
*       4.8095207717E-01               0
GRID*              13077               0-1.148749983E+004.3229253835E-01+
*       4.4202527867E-01               0
GRID*              13078               0-1.148749978E+003.8037117628E-01+
*       4.0437933287E-01               0
GRID*              13079               0-1.148749970E+003.7225278970E-01+
*       4.7480887499E-01               0
GRID*              13080               0-1.148749963E+003.6544923577E-01+
*       5.4868875753E-01               0
GRID*              13081               0-1.148749961E+003.6081613487E-01+
*       6.1514019973E-01               0
GRID*              13082               0-1.148749958E+003.1352787371E-01+
*       5.1104281174E-01               0
GRID*              13083               0-1.148749951E+002.6477071866E-01+
*       5.4481294899E-01               0
GRID*              13084               0-1.148749953E+003.1360863191E-01+
*       6.4447796000E-01               0
GRID*              13085               0-1.148749949E+002.5664119215E-01+
*       5.9704695339E-01               0
GRID*              13086               0-1.148749949E+002.7280842027E-01+
*       6.3061708786E-01               0
GRID*              13087               0-1.148749948E+004.0454663149E-01+
*       1.2985257910E+00               0
GRID*              13088               0-1.148749948E+004.6137290637E-01+
*       1.2518899101E+00               0
GRID*              13089               0-1.148749948E+003.3898032371E-01+
*       1.2623847038E+00               0
GRID*              13090               0-1.148749948E+002.7126557250E-01+
*       1.2245583775E+00               0
GRID*              13091               0-1.148749948E+003.2470134719E-01+
*       1.1856237944E+00               0
GRID*              13092               0-1.148749948E+003.5111085681E-01+
*       1.3374603740E+00               0
GRID*              13093               0-1.148749948E+002.8627851782E-01+
*       1.3721143736E+00               0
GRID*              13094               0-1.148749948E+001.2549281653E-01+
*       1.3067708125E+00               0
GRID*              13095               0-1.148749948E+001.0419421298E-01+
*       1.2310570851E+00               0
GRID*              13096               0-1.148749948E+001.3885517714E-01+
*       1.3632979236E+00               0
GRID*              13097               0-1.148749948E+001.7015566784E-01+
*       1.4266560606E+00               0
GRID*              13098               0-1.148749948E+002.4050306969E-01+
*       1.4053164913E+00               0
GRID*              13099               0-1.148749948E+001.8063129216E-01+
*       1.3111964113E+00               0
GRID*              13100               0-1.148749948E+002.3976910090E-01+
*       1.3345214046E+00               0
GRID*              13101               0-1.148749948E+002.2640674029E-01+
*       1.2779942936E+00               0
GRID*              13102               0-1.148749948E+001.9824063701E-01+
*       1.1460206266E+00               0
GRID*              13103               0-1.148749948E+001.5084547248E-01+
*       1.0946867525E+00               0
GRID*              13104               0-1.148749948E+002.0959143145E-01+
*       1.0964635940E+00               0
GRID*              13105               0-1.148749948E+002.1212776377E-01+
*       1.2012333842E+00               0
GRID*              13106               0-1.148749948E+001.5338180480E-01+
*       1.1994565427E+00               0
GRID*              13107               0-1.148749948E+008.1421093543E-02+
*       1.0292375397E+00               0
GRID*              13108               0-1.148749948E+004.5095156902E-02+
*       1.0375291323E+00               0
GRID*              13109               0-1.148749948E+001.1685215402E-01+
*       1.0604445270E+00               0
GRID*              13110               0-1.148749948E+001.0550135958E-01+
*       1.1100015596E+00               0
GRID*              13111               0-1.148749948E+001.2676520644E-01+
*       1.0139227326E+00               0
GRID*              13112               0-1.148749948E+00-4.110706122E-03+
*       1.0436415885E+00               0
GRID*              13113               0-1.148749948E+002.2302178097E-02+
*       1.0818717902E+00               0
GRID*              13114               0-1.148749948E+009.0307086219E-02+
*       1.1758443275E+00               0
GRID*              13115               0-1.148749948E+005.6313767761E-02+
*       1.1416021020E+00               0
GRID*              13116               0-1.148749948E+002.1263200128E-01+
*       1.0182934312E+00               0
GRID*              13117               0-1.148749948E+002.6002716581E-01+
*       1.0696273053E+00               0
GRID*              13118               0-1.148749948E+002.6776081312E-01+
*       8.5300248559E-01               0
GRID*              13119               0-1.148749948E+003.0491042617E-01+
*       8.3906882791E-01               0
GRID*              13120               0-1.148749948E+002.5159358488E-01+
*       8.8657261994E-01               0
GRID*              13121               0-1.148749948E+001.5903346398E-01+
*       9.9529263916E-01               0
GRID*              13122               0-1.148749948E+002.3481289996E-01+
*       9.4114296486E-01               0
GRID*              13123               0-1.148749948E+002.7984842056E-01+
*       9.3688679754E-01               0
GRID*              13124               0-1.148749948E+002.0946919834E-01+
*       9.6845635046E-01               0
GRID*              13125               0-1.148749948E+006.7822079749E-01+
*       8.5394010691E-01               0
GRID*              13126               0-1.148750040E+006.8542667557E-01+
*       7.8078131474E-01               0
GRID*              13127               0-1.148749948E+003.2090635874E-01+
*       1.0371982312E+00               0
GRID*              13128               0-1.148749948E+003.2242549124E-01+
*       9.7146598586E-01               0
GRID*              13129               0-1.148749948E+003.8026411435E-01+
*       1.0172070746E+00               0
GRID*              13130               0-1.148749948E+003.1786578891E-01+
*       1.1153683940E+00               0
GRID*              13131               0-1.148749948E+003.8558054012E-01+
*       1.1531947204E+00               0
GRID*              13132               0-1.148749948E+006.1398260103E-01+
*       8.8758234048E-01               0
GRID*              13133               0-1.148749948E+005.4603212504E-01+
*       9.1719825925E-01               0
GRID*              13134               0-1.148749949E+005.5290287515E-01+
*       8.4117854826E-01               0
GRID*              13135               0-1.148749948E+006.7135004738E-01+
*       9.2995981791E-01               0
GRID*              13136               0-1.148749948E+006.5001034696E-01+
*       1.0003071544E+00               0
GRID*              13137               0-1.148749948E+004.8798712633E-01+
*       9.5052882085E-01               0
GRID*              13138               0-1.148749948E+005.4906685221E-01+
*       9.9693261307E-01               0
GRID*              13139               0-1.148749948E+004.3640255017E-01+
*       9.9086900196E-01               0
GRID*              13140               0-1.148749948E+004.3488341767E-01+
*       1.0566012473E+00               0
GRID*              13141               0-1.148749948E+004.3336782300E-01+
*       9.1113464814E-01               0
GRID*              13142               0-1.148749948E+006.1535699892E-01+
*       1.0651398483E+00               0
GRID*              13143               0-1.148749948E+005.5731200020E-01+
*       1.0984704099E+00               0
GRID*              13144               0-1.148749948E+004.3717997766E-01+
*       1.1898216175E+00               0
GRID*              13145               0-1.148749948E+005.0613678563E-01+
*       1.2182614068E+00               0
GRID*              13146               0-1.148749948E+005.5277300191E-01+
*       1.1614353797E+00               0
GRID*              13147               0-1.148749948E+004.3034441938E-01+
*       1.1195662171E+00               0
GRID*              13148               0-1.148749948E+004.8648285520E-01+
*       1.0932281444E+00               0
GRID*              13149               0-1.148749948E+003.3920617616E-01+
*       9.1689564093E-01               0
GRID*              13150               0-1.148749948E+003.3505631728E-01+
*       8.6719774970E-01               0
GRID*              13151               0-1.148749948E+003.7763338796E-01+
*       9.0177693801E-01               0
GRID*              13152               0-1.148749948E+003.4333763797E-01+
*       8.2395012499E-01               0
GRID*              13153               0-1.148749984E+003.8790888575E-01+
*       8.0819202814E-01               0
GRID*              13154               0-1.148749948E+004.2921796412E-01+
*       8.6143675691E-01               0
GRID*              13155               0-1.148749975E+004.4364332079E-01+
*       8.1754973827E-01               0
GRID*              13156               0-1.148750012E+004.9896442926E-01+
*       7.9687464327E-01               0
GRID*              13157               0-1.148750062E+006.9092306828E-01+
*       7.0725636686E-01               0
GRID*              13158               0-1.148750052E+006.2634974385E-01+
*       7.3803768160E-01               0
GRID*              13159               0-1.148750055E+005.6691490525E-01+
*       7.6725872449E-01               0
GRID*              13160               01.2112947401E+00-7.500000000E-01+
*       -1.321572107E-01               0
GRID*              13161               0-1.211709840E+00-7.500000000E-01+
*       -1.322753186E-01               0
GRID*              13162               0-1.274140521E+00-7.500000000E-01+
*       8.2177876124E-02               0
GRID*              13163               0-1.273544907E+00-7.500000000E-01+
*       3.7421533066E-01               0
GRID*              13164               0-1.273862651E+00-7.500000000E-01+
*       2.2593342772E-01               0
GRID*              13165               0-1.273711174E+00-7.500000000E-01+
*       5.2263959880E-01               0
GRID*              13166               0-1.273742419E+00-7.500000000E-01+
*       6.5860139419E-01               0
GRID*              13167               0-1.657240755E+00-7.500000000E-01+
*       -1.251379284E-01               0
GRID*              13168               0-1.801858258E+00-7.500000000E-01+
*       -1.251669679E-01               0
GRID*              13169               0-1.353506938E+00-7.500000000E-01+
*       -1.326249825E-01               0
GRID*              13170               0-1.502571940E+00-7.500000000E-01+
*       -1.267799074E-01               0
GRID*              13171               0-1.277834710E+00-7.500000000E-01+
*       -3.695481820E-02               0
GRID*              13172               03.0506627602E-01-7.500000000E-01+
*       -1.250231367E-01               0
GRID*              13173               01.0663313800E+00-7.500000000E-01+
*       -1.264270507E-01               0
GRID*              13174               09.1498910021E-01-7.500000000E-01+
*       -1.252882495E-01               0
GRID*              13175               07.6264057986E-01-7.500000000E-01+
*       -1.250604692E-01               0
GRID*              13176               04.5760362545E-01-7.500000000E-01+
*       -1.250105606E-01               0
GRID*              13177               06.1013022183E-01-7.500000000E-01+
*       -1.250194222E-01               0
GRID*              13178               0-9.148632469E-01-7.500000000E-01+
*       -1.252020464E-01               0
GRID*              13179               0-1.066405180E+00-7.500000000E-01+
*       -1.264438294E-01               0
GRID*              13180               0-7.626121023E-01-7.500000000E-01+
*       -1.250530097E-01               0
GRID*              13181               0-6.101251489E-01-7.500000000E-01+
*       -1.250234009E-01               0
GRID*              13182               0-4.575991050E-01-7.500000000E-01+
*       -1.250175819E-01               0
GRID*              13183               0-3.050749369E-01-7.500000000E-01+
*       -1.250164128E-01               0
GRID*              13184               01.5253632726E-01-7.500000000E-01+
*       -1.250093529E-01               0
GRID*              13185               0-1.525297104E-01-7.500000000E-01+
*       -1.250086577E-01               0
GRID*              13186               03.4395246505E-07-7.500000000E-01+
*       -1.250093743E-01               0
GRID*              13187               01.2740390947E+00-7.500000000E-01+
*       8.2191587232E-02               0
GRID*              13188               01.2735449065E+00-7.500000000E-01+
*       3.7421533066E-01               0
GRID*              13189               01.2738425082E+00-7.500000000E-01+
*       2.2593603400E-01               0
GRID*              13190               01.2737111742E+00-7.500000000E-01+
*       5.2263959880E-01               0
GRID*              13191               01.2737424186E+00-7.500000000E-01+
*       6.5860139419E-01               0
GRID*              13192               01.6578577493E+00-7.500000000E-01+
*       -1.251178386E-01               0
GRID*              13193               01.8019533743E+00-7.500000000E-01+
*       -1.251668683E-01               0
GRID*              13194               01.5006250262E+00-7.500000000E-01+
*       -1.257620568E-01               0
GRID*              13195               01.3538256010E+00-7.500000000E-01+
*       -1.327888530E-01               0
GRID*              13196               01.2777817389E+00-7.500000000E-01+
*       -3.694258956E-02               0
GRID*              13197               0-1.336445234E+00-7.500000000E-01+
*       1.1608893806E-01               0
GRID*              13198               0-1.336445234E+00-7.500000000E-01+
*       4.1088938062E-02               0
GRID*              13199               0-1.336306299E+00-7.500000000E-01+
*       1.8796671386E-01               0
GRID*              13200               0-1.336306299E+00-7.500000000E-01+
*       2.6296671386E-01               0
GRID*              13201               0-1.274001586E+00-7.500000000E-01+
*       1.5405565192E-01               0
GRID*              13202               0-1.211445294E+00-7.500000000E-01+
*       1.1608893806E-01               0
GRID*              13203               0-1.211306359E+00-7.500000000E-01+
*       1.8796671386E-01               0
GRID*              13204               0-1.336147427E+00-7.500000000E-01+
*       3.3710766533E-01               0
GRID*              13205               0-1.336147427E+00-7.500000000E-01+
*       4.1210766533E-01               0
GRID*              13206               0-1.211306359E+00-7.500000000E-01+
*       2.6296671386E-01               0
GRID*              13207               0-1.273703779E+00-7.500000000E-01+
*       3.0007437919E-01               0
GRID*              13208               0-1.211147487E+00-7.500000000E-01+
*       3.3710766533E-01               0
GRID*              13209               0-1.211147487E+00-7.500000000E-01+
*       4.1210766533E-01               0
GRID*              13210               0-1.211230620E+00-7.500000000E-01+
*       4.8631979940E-01               0
GRID*              13211               0-1.211230620E+00-7.500000000E-01+
*       5.6131979940E-01               0
GRID*              13212               0-1.273628040E+00-7.500000000E-01+
*       4.4842746473E-01               0
GRID*              13213               0-1.336230561E+00-7.500000000E-01+
*       4.8631979940E-01               0
GRID*              13214               0-1.336230561E+00-7.500000000E-01+
*       5.6131979940E-01               0
GRID*              13215               0-1.211246243E+00-7.500000000E-01+
*       6.2930069709E-01               0
GRID*              13216               0-1.273726796E+00-7.500000000E-01+
*       5.9062049649E-01               0
GRID*              13217               0-1.211246243E+00-7.500000000E-01+
*       7.0430069709E-01               0
GRID*              13218               0-1.273746213E+00-7.500000000E-01+
*       7.0430069709E-01               0
GRID*              13219               0-1.336246183E+00-7.500000000E-01+
*       6.2930069709E-01               0
GRID*              13220               0-1.336246183E+00-7.500000000E-01+
*       7.0430069709E-01               0
GRID*              13221               0-1.702045354E+00-7.500000000E-01+
*       -1.875689642E-01               0
GRID*              13222               0-1.626095356E+00-7.500000000E-01+
*       -1.875689642E-01               0
GRID*              13223               0-1.766970769E+00-7.500000000E-01+
*       -6.258348393E-02               0
GRID*              13224               0-1.729549507E+00-7.500000000E-01+
*       -1.251524481E-01               0
GRID*              13225               0-1.694662018E+00-7.500000000E-01+
*       -6.256896418E-02               0
GRID*              13226               0-1.850304103E+00-7.500000000E-01+
*       -6.258348393E-02               0
GRID*              13227               0-1.850304103E+00-7.500000000E-01+
*       -1.250834839E-01               0
GRID*              13228               0-1.774354105E+00-7.500000000E-01+
*       -1.875834839E-01               0
GRID*              13229               0-1.850304103E+00-7.500000000E-01+
*       -1.875834839E-01               0
GRID*              13230               0-1.548760948E+00-7.500000000E-01+
*       -1.883899537E-01               0
GRID*              13231               0-1.579906348E+00-7.500000000E-01+
*       -1.259589179E-01               0
GRID*              13232               0-1.472810950E+00-7.500000000E-01+
*       -1.883899537E-01               0
GRID*              13233               0-1.398278449E+00-7.500000000E-01+
*       -1.913124912E-01               0
GRID*              13234               0-1.428039439E+00-7.500000000E-01+
*       -1.297024449E-01               0
GRID*              13235               0-1.322328451E+00-7.500000000E-01+
*       -1.913124912E-01               0
GRID*              13236               0-1.251429902E+00-7.500000000E-01+
*       -1.911376593E-01               0
GRID*              13237               0-1.282608389E+00-7.500000000E-01+
*       -1.324501505E-01               0
GRID*              13238               0-1.611328685E+00-7.500000000E-01+
*       -6.256896418E-02               0
GRID*              13239               0-1.533994277E+00-7.500000000E-01+
*       -6.338995372E-02               0
GRID*              13240               0-1.211445294E+00-7.500000000E-01+
*       4.1088938062E-02               0
GRID*              13241               0-1.450660944E+00-7.500000000E-01+
*       -6.338995372E-02               0
GRID*              13242               0-1.376128443E+00-7.500000000E-01+
*       -6.631249123E-02               0
GRID*              13243               0-1.275987615E+00-7.500000000E-01+
*       2.2611528964E-02               0
GRID*              13244               0-1.213292389E+00-7.500000000E-01+
*       -1.847740910E-02               0
GRID*              13245               0-1.244772275E+00-7.500000000E-01+
*       -8.461506839E-02               0
GRID*              13246               0-1.180229953E+00-7.500000000E-01+
*       -6.613765929E-02               0
GRID*              13247               0-1.315670824E+00-7.500000000E-01+
*       -8.478990032E-02               0
GRID*              13248               0-1.338292329E+00-7.500000000E-01+
*       -1.847740910E-02               0
GRID*              13249               01.1752723543E+00-7.500000000E-01+
*       -1.910786053E-01               0
GRID*              13250               01.1388130600E+00-7.500000000E-01+
*       -1.292921307E-01               0
GRID*              13251               01.1027906742E+00-7.500000000E-01+
*       -1.882135254E-01               0
GRID*              13252               01.2512223522E+00-7.500000000E-01+
*       -1.910786053E-01               0
GRID*              13253               01.1075407234E+00-7.500000000E-01+
*       -6.321352537E-02               0
GRID*              13254               01.0309573856E+00-7.500000000E-01+
*       -6.321352537E-02               0
GRID*              13255               01.1800224034E+00-7.500000000E-01+
*       -6.607860533E-02               0
GRID*              13256               01.0268406763E+00-7.500000000E-01+
*       -1.882135254E-01               0
GRID*              13257               09.9066024008E-01-7.500000000E-01+
*       -1.258576501E-01               0
GRID*              13258               09.5116953647E-01-7.500000000E-01+
*       -1.876441247E-01               0
GRID*              13259               09.5528624570E-01-7.500000000E-01+
*       -6.264412474E-02               0
GRID*              13260               08.7870290792E-01-7.500000000E-01+
*       -6.264412474E-02               0
GRID*              13261               08.7521953856E-01-7.500000000E-01+
*       -1.876441247E-01               0
GRID*              13262               08.3881484003E-01-7.500000000E-01+
*       -1.251743593E-01               0
GRID*              13263               07.9904527839E-01-7.500000000E-01+
*       -1.875302346E-01               0
GRID*              13264               08.0252864774E-01-7.500000000E-01+
*       -6.253023460E-02               0
GRID*              13265               07.2594530996E-01-7.500000000E-01+
*       -6.253023460E-02               0
GRID*              13266               03.4399148247E-01-7.500000000E-01+
*       -6.251156833E-02               0
GRID*              13267               03.8133495073E-01-7.500000000E-01+
*       -1.250168486E-01               0
GRID*              13268               04.2026015719E-01-7.500000000E-01+
*       -6.250528030E-02               0
GRID*              13269               02.6740814468E-01-7.500000000E-01+
*       -6.251156833E-02               0
GRID*              13270               04.1867680748E-01-7.500000000E-01+
*       -1.875052803E-01               0
GRID*              13271               04.9462680538E-01-7.500000000E-01+
*       -1.875052803E-01               0
GRID*              13272               03.4240813276E-01-7.500000000E-01+
*       -1.875115683E-01               0
GRID*              13273               07.2309528049E-01-7.500000000E-01+
*       -1.875302346E-01               0
GRID*              13274               06.8638540085E-01-7.500000000E-01+
*       -1.250399457E-01               0
GRID*              13275               06.4684010148E-01-7.500000000E-01+
*       -1.875097111E-01               0
GRID*              13276               06.4969013094E-01-7.500000000E-01+
*       -6.250971111E-02               0
GRID*              13277               05.7310679316E-01-7.500000000E-01+
*       -6.250971111E-02               0
GRID*              13278               05.7089010357E-01-7.500000000E-01+
*       -1.875097111E-01               0
GRID*              13279               05.3386692364E-01-7.500000000E-01+
*       -1.250149914E-01               0
GRID*              13280               04.9684349497E-01-7.500000000E-01+
*       -6.250528030E-02               0
GRID*              13281               0-1.107577624E+00-7.500000000E-01+
*       -6.322191468E-02               0
GRID*              13282               0-1.030994286E+00-7.500000000E-01+
*       -6.322191468E-02               0
GRID*              13283               0-1.139057510E+00-7.500000000E-01+
*       -1.293595740E-01               0
GRID*              13284               0-1.175479904E+00-7.500000000E-01+
*       -1.911376593E-01               0
GRID*              13285               0-1.102827574E+00-7.500000000E-01+
*       -1.882219147E-01               0
GRID*              13286               0-9.552233191E-01-7.500000000E-01+
*       -6.260102318E-02               0
GRID*              13287               0-8.786399813E-01-7.500000000E-01+
*       -6.260102318E-02               0
GRID*              13288               0-9.906342137E-01-7.500000000E-01+
*       -1.258229379E-01               0
GRID*              13289               0-1.026877577E+00-7.500000000E-01+
*       -1.882219147E-01               0
GRID*              13290               0-9.511066098E-01-7.500000000E-01+
*       -1.876010232E-01               0
GRID*              13291               0-8.025144090E-01-7.500000000E-01+
*       -6.252650486E-02               0
GRID*              13292               0-7.259310712E-01-7.500000000E-01+
*       -6.252650486E-02               0
GRID*              13293               0-8.387376746E-01-7.500000000E-01+
*       -1.251275280E-01               0
GRID*              13294               0-8.751566119E-01-7.500000000E-01+
*       -1.876010232E-01               0
GRID*              13295               0-7.990310396E-01-7.500000000E-01+
*       -1.875265049E-01               0
GRID*              13296               0-6.496875945E-01-7.500000000E-01+
*       -6.251170044E-02               0
GRID*              13297               0-5.731042567E-01-7.500000000E-01+
*       -6.251170044E-02               0
GRID*              13298               0-6.863686256E-01-7.500000000E-01+
*       -1.250382053E-01               0
GRID*              13299               0-7.230810417E-01-7.500000000E-01+
*       -1.875265049E-01               0
GRID*              13300               0-6.468375650E-01-7.500000000E-01+
*       -1.875117004E-01               0
GRID*              13301               0-4.968412347E-01-7.500000000E-01+
*       -6.250879093E-02               0
GRID*              13302               0-4.202578970E-01-7.500000000E-01+
*       -6.250879093E-02               0
GRID*              13303               0-5.338621269E-01-7.500000000E-01+
*       -1.250204914E-01               0
GRID*              13304               0-5.708875671E-01-7.500000000E-01+
*       -1.875117004E-01               0
GRID*              13305               0-4.946245452E-01-7.500000000E-01+
*       -1.875087909E-01               0
GRID*              13306               0-3.439958129E-01-7.500000000E-01+
*       -6.250820638E-02               0
GRID*              13307               0-2.674124752E-01-7.500000000E-01+
*       -6.250820638E-02               0
GRID*              13308               0-3.813370210E-01-7.500000000E-01+
*       -1.250169973E-01               0
GRID*              13309               0-4.186745473E-01-7.500000000E-01+
*       -1.875087909E-01               0
GRID*              13310               0-3.424124632E-01-7.500000000E-01+
*       -1.875082064E-01               0
GRID*              13311               02.6645813486E-01-7.500000000E-01+
*       -1.875115683E-01               0
GRID*              13312               02.2880130164E-01-7.500000000E-01+
*       -1.250162448E-01               0
GRID*              13313               01.9019316048E-01-7.500000000E-01+
*       -1.875046764E-01               0
GRID*              13314               01.9114317031E-01-7.500000000E-01+
*       -6.250467643E-02               0
GRID*              13315               01.1455983252E-01-7.500000000E-01+
*       -6.250467643E-02               0
GRID*              13316               0-1.911398619E-01-7.500000000E-01+
*       -6.250432886E-02               0
GRID*              13317               0-1.145565241E-01-7.500000000E-01+
*       -6.250432886E-02               0
GRID*              13318               0-2.288023237E-01-7.500000000E-01+
*       -1.250125352E-01               0
GRID*              13319               0-2.664624653E-01-7.500000000E-01+
*       -1.875082064E-01               0
GRID*              13320               0-1.901898521E-01-7.500000000E-01+
*       -1.875043289E-01               0
GRID*              13321               01.1424316258E-01-7.500000000E-01+
*       -1.875046764E-01               0
GRID*              13322               07.6268335607E-02-7.500000000E-01+
*       -1.250093636E-01               0
GRID*              13323               03.7975170927E-02-7.500000000E-01+
*       -1.875046872E-01               0
GRID*              13324               03.8291840868E-02-7.500000000E-01+
*       -6.250468715E-02               0
GRID*              13325               0-3.829149692E-02-7.500000000E-01+
*       -6.250468715E-02               0
GRID*              13326               0-7.626468323E-02-7.500000000E-01+
*       -1.250090160E-01               0
GRID*              13327               0-3.797482697E-02-7.500000000E-01+
*       -1.875046872E-01               0
GRID*              13328               0-1.142398542E-01-7.500000000E-01+
*       -1.875043289E-01               0
GRID*              13329               01.2112962875E+00-7.500000000E-01+
*       1.8796801700E-01               0
GRID*              13330               01.2112962875E+00-7.500000000E-01+
*       2.6296801700E-01               0
GRID*              13331               01.3363945211E+00-7.500000000E-01+
*       1.1609579362E-01               0
GRID*              13332               01.3363945211E+00-7.500000000E-01+
*       4.1095793616E-02               0
GRID*              13333               01.2739408014E+00-7.500000000E-01+
*       1.5406381062E-01               0
GRID*              13334               01.2113945807E+00-7.500000000E-01+
*       1.1609579362E-01               0
GRID*              13335               01.3362962279E+00-7.500000000E-01+
*       1.8796801700E-01               0
GRID*              13336               01.2111474866E+00-7.500000000E-01+
*       3.3710766533E-01               0
GRID*              13337               01.2111474866E+00-7.500000000E-01+
*       4.1210766533E-01               0
GRID*              13338               01.3362962279E+00-7.500000000E-01+
*       2.6296801700E-01               0
GRID*              13339               01.2736937074E+00-7.500000000E-01+
*       3.0007568233E-01               0
GRID*              13340               01.3361474270E+00-7.500000000E-01+
*       3.3710766533E-01               0
GRID*              13341               01.3361474270E+00-7.500000000E-01+
*       4.1210766533E-01               0
GRID*              13342               01.3362305609E+00-7.500000000E-01+
*       4.8631979940E-01               0
GRID*              13343               01.3362305609E+00-7.500000000E-01+
*       5.6131979940E-01               0
GRID*              13344               01.2736280403E+00-7.500000000E-01+
*       4.4842746473E-01               0
GRID*              13345               01.2112306205E+00-7.500000000E-01+
*       4.8631979940E-01               0
GRID*              13346               01.2112306205E+00-7.500000000E-01+
*       5.6131979940E-01               0
GRID*              13347               01.3362461831E+00-7.500000000E-01+
*       6.2930069709E-01               0
GRID*              13348               01.2737267964E+00-7.500000000E-01+
*       5.9062049649E-01               0
GRID*              13349               01.3362461831E+00-7.500000000E-01+
*       7.0430069709E-01               0
GRID*              13350               01.2737462129E+00-7.500000000E-01+
*       7.0430069709E-01               0
GRID*              13351               01.2112462427E+00-7.500000000E-01+
*       6.2930069709E-01               0
GRID*              13352               01.2112462427E+00-7.500000000E-01+
*       7.0430069709E-01               0
GRID*              13353               01.7023538505E+00-7.500000000E-01+
*       -1.875589193E-01               0
GRID*              13354               01.6264038526E+00-7.500000000E-01+
*       -1.875589193E-01               0
GRID*              13355               01.7670183276E+00-7.500000000E-01+
*       -6.258343416E-02               0
GRID*              13356               01.6949705151E+00-7.500000000E-01+
*       -6.255891932E-02               0
GRID*              13357               01.7299055618E+00-7.500000000E-01+
*       -1.251423535E-01               0
GRID*              13358               01.8503516609E+00-7.500000000E-01+
*       -6.258343416E-02               0
GRID*              13359               01.8503516609E+00-7.500000000E-01+
*       -1.250834342E-01               0
GRID*              13360               01.7744016630E+00-7.500000000E-01+
*       -1.875834342E-01               0
GRID*              13361               01.8503516609E+00-7.500000000E-01+
*       -1.875834342E-01               0
GRID*              13362               01.5477874911E+00-7.500000000E-01+
*       -1.878810284E-01               0
GRID*              13363               01.4718374932E+00-7.500000000E-01+
*       -1.878810284E-01               0
GRID*              13364               01.5792413878E+00-7.500000000E-01+
*       -1.254399477E-01               0
GRID*              13365               01.3984377806E+00-7.500000000E-01+
*       -1.913944265E-01               0
GRID*              13366               01.4272253136E+00-7.500000000E-01+
*       -1.292754549E-01               0
GRID*              13367               01.3224877827E+00-7.500000000E-01+
*       -1.913944265E-01               0
GRID*              13368               01.2825601706E+00-7.500000000E-01+
*       -1.324730318E-01               0
GRID*              13369               01.6116371818E+00-7.500000000E-01+
*       -6.255891932E-02               0
GRID*              13370               01.5330208202E+00-7.500000000E-01+
*       -6.288102842E-02               0
GRID*              13371               01.2113945807E+00-7.500000000E-01+
*       4.1095793616E-02               0
GRID*              13372               01.4496874869E+00-7.500000000E-01+
*       -6.288102842E-02               0
GRID*              13373               01.3762877743E+00-7.500000000E-01+
*       -6.639442648E-02               0
GRID*              13374               01.2445382395E+00-7.500000000E-01+
*       -8.454990011E-02               0
GRID*              13375               01.2132659028E+00-7.500000000E-01+
*       -1.847129478E-02               0
GRID*              13376               01.2759104168E+00-7.500000000E-01+
*       2.2624498836E-02               0
GRID*              13377               01.3158036700E+00-7.500000000E-01+
*       -8.486572126E-02               0
GRID*              13378               01.3382658432E+00-7.500000000E-01+
*       -1.847129478E-02               0
GRID*              13379               01.5021652125E+00-3.858894505E-01+
*       -2.500000000E-01               0
GRID*              13380               01.4564413908E+00-2.780057462E-01+
*       -2.500000000E-01               0
GRID*              13381               01.4028812547E+00-1.494059271E-01+
*       -2.500000000E-01               0
GRID*              13382               01.3490906871E+00-2.381740972E-02+
*       -2.500000000E-01               0
GRID*              13383               01.2941198941E+009.6701829827E-02+
*       -2.500000000E-01               0
GRID*              13384               01.2384340247E+002.1781294856E-01+
*       -2.500000000E-01               0
GRID*              13385               01.1851213891E+003.4646611996E-01+
*       -2.500000000E-01               0
GRID*              13386               01.1255191311E+004.8332281292E-01+
*       -2.500000000E-01               0
GRID*              13387               01.0569954619E+006.1848396362E-01+
*       -2.500000000E-01               0
GRID*              13388               01.3677714705E+002.0829582279E-01+
*       -2.500000000E-01               0
GRID*              13389               01.4299610048E+003.1262981236E-01+
*       -2.500000000E-01               0
GRID*              13390               01.4812427330E+003.9909535914E-01+
*       -2.500000000E-01               0
GRID*              13391               01.7968753959E+00-3.586569607E-01+
*       -2.500000000E-01               0
GRID*              13392               01.6006396222E+002.9988722095E-01+
*       -2.500000000E-01               0
GRID*              13393               01.5040472756E+002.1218261477E-01+
*       -2.500000000E-01               0
GRID*              13394               01.4224141774E+009.0105107011E-02+
*       -2.500000000E-01               0
GRID*              13395               01.5184015903E+003.2699033348E-01+
*       -2.500000000E-01               0
GRID*              13396               01.4809423655E+00-3.114233335E-02+
*       -2.500000000E-01               0
GRID*              13397               01.5390610179E+00-1.627729245E-01+
*       -2.500000000E-01               0
GRID*              13398               01.5857257492E+00-3.000675577E-01+
*       -2.500000000E-01               0
GRID*              13399               01.7954752222E+003.5686188749E-01+
*       -2.500000000E-01               0
GRID*              13400               01.7929259500E+00-2.337468649E-01+
*       -2.500000000E-01               0
GRID*              13401               01.7807400815E+00-8.799873411E-02+
*       -2.500000000E-01               0
GRID*              13402               01.7766638569E+007.2490176744E-02+
*       -2.500000000E-01               0
GRID*              13403               01.7878419966E+002.2677747547E-01+
*       -2.500000000E-01               0
GRID*              13404               01.6499883700E+001.6957431748E-01+
*       -2.500000000E-01               0
GRID*              13405               01.7015278848E+003.0718855787E-01+
*       -2.500000000E-01               0
GRID*              13406               01.7043748142E+00-3.100391709E-01+
*       -2.500000000E-01               0
GRID*              13407               01.6735902638E+00-1.876607421E-01+
*       -2.500000000E-01               0
GRID*              13408               01.6344163803E+00-2.164089096E-02+
*       -2.500000000E-01               0
GRID*              13409               01.5367543328E+008.3971566280E-02+
*       -2.500000000E-01               0
GRID*              13410               01.7047141988E+006.7145805906E-01+
*       -2.500000000E-01               0
GRID*              13411               01.7882507537E+006.5071151731E-01+
*       -2.500000000E-01               0
GRID*              13412               01.4394120864E+005.0186282012E-01+
*       -2.500000000E-01               0
GRID*              13413               01.3604674648E+006.1926239269E-01+
*       -2.500000000E-01               0
GRID*              13414               01.4886293387E+006.2544811392E-01+
*       -2.500000000E-01               0
GRID*              13415               01.2102696594E+006.1560887222E-01+
*       -2.500000000E-01               0
GRID*              13416               01.3177555519E+003.2475658466E-01+
*       -2.500000000E-01               0
GRID*              13417               01.3934759429E+003.9999153082E-01+
*       -2.500000000E-01               0
GRID*              13418               01.2900085654E+004.7042266923E-01+
*       -2.500000000E-01               0
GRID*              13419               0-1.501604130E+003.8805495947E-01+
*       -2.500000000E-01               0
GRID*              13420               0-1.455288907E+002.8316588506E-01+
*       -2.500000000E-01               0
GRID*              13421               0-1.402358633E+001.5613593887E-01+
*       -2.500000000E-01               0
GRID*              13422               0-1.349371824E+002.8718406467E-02+
*       -2.500000000E-01               0
GRID*              13423               0-1.294032509E+00-9.491571283E-02+
*       -2.500000000E-01               0
GRID*              13424               0-1.237940358E+00-2.176413531E-01+
*       -2.500000000E-01               0
GRID*              13425               0-1.184786225E+00-3.466269877E-01+
*       -2.500000000E-01               0
GRID*              13426               0-1.125376508E+00-4.834446555E-01+
*       -2.500000000E-01               0
GRID*              13427               0-1.056960151E+00-6.185327257E-01+
*       -2.500000000E-01               0
GRID*              13428               0-1.367727031E+00-2.071787194E-01+
*       -2.500000000E-01               0
GRID*              13429               0-1.429357270E+00-3.123388219E-01+
*       -2.500000000E-01               0
GRID*              13430               0-1.480830855E+00-3.990457821E-01+
*       -2.500000000E-01               0
GRID*              13431               0-1.795962055E+003.6037806470E-01+
*       -2.500000000E-01               0
GRID*              13432               0-1.599376577E+00-2.963464912E-01+
*       -2.500000000E-01               0
GRID*              13433               0-1.505194135E+00-2.104580384E-01+
*       -2.500000000E-01               0
GRID*              13434               0-1.426706125E+00-8.481631181E-02+
*       -2.500000000E-01               0
GRID*              13435               0-1.518112619E+00-3.258320624E-01+
*       -2.500000000E-01               0
GRID*              13436               0-1.485061545E+004.3479832525E-02+
*       -2.500000000E-01               0
GRID*              13437               0-1.538868001E+001.7491133149E-01+
*       -2.500000000E-01               0
GRID*              13438               0-1.584865826E+003.0507667635E-01+
*       -2.500000000E-01               0
GRID*              13439               0-1.801634249E+00-3.559805824E-01+
*       -2.500000000E-01               0
GRID*              13440               0-1.789964144E+002.4011413732E-01+
*       -2.500000000E-01               0
GRID*              13441               0-1.772759369E+001.0905763725E-01+
*       -2.500000000E-01               0
GRID*              13442               0-1.745783962E+00-6.572515204E-03+
*       -2.500000000E-01               0
GRID*              13443               0-1.766316640E+00-1.342365480E-01+
*       -2.500000000E-01               0
GRID*              13444               0-1.815215184E+00-2.463617532E-01+
*       -2.500000000E-01               0
GRID*              13445               0-1.703006442E+003.1410359744E-01+
*       -2.500000000E-01               0
GRID*              13446               0-1.558868336E+00-7.350024971E-02+
*       -2.500000000E-01               0
GRID*              13447               0-1.634302002E+005.4626463602E-02+
*       -2.500000000E-01               0
GRID*              13448               0-1.670907882E+002.0032184267E-01+
*       -2.500000000E-01               0
GRID*              13449               0-1.668060486E+00-6.787859762E-02+
*       -2.500000000E-01               0
GRID*              13450               0-1.634751045E+00-1.782775789E-01+
*       -2.500000000E-01               0
GRID*              13451               0-1.712077935E+00-2.850553905E-01+
*       -2.500000000E-01               0
GRID*              13452               0-1.704723292E+00-6.714594646E-01+
*       -2.500000000E-01               0
GRID*              13453               0-1.788245855E+00-6.507180846E-01+
*       -2.500000000E-01               0
GRID*              13454               0-1.439198613E+00-5.019544475E-01+
*       -2.500000000E-01               0
GRID*              13455               0-1.360358619E+00-6.193423420E-01+
*       -2.500000000E-01               0
GRID*              13456               0-1.488571001E+00-6.254613432E-01+
*       -2.500000000E-01               0
GRID*              13457               0-1.210171103E+00-6.156847586E-01+
*       -2.500000000E-01               0
GRID*              13458               0-1.317332349E+00-3.246105915E-01+
*       -2.500000000E-01               0
GRID*              13459               0-1.393066993E+00-3.999617781E-01+
*       -2.500000000E-01               0
GRID*              13460               0-1.289762333E+00-4.704440629E-01+
*       -2.500000000E-01               0
GRID*              13461               01.5513064215E+00-6.658724203E-01+
*       -2.500000000E-01               0
GRID*              13462               01.8044696599E+00-6.446181407E-01+
*       -2.500000000E-01               0
GRID*              13463               0-1.551292340E+006.6589364950E-01+
*       -2.500000000E-01               0
GRID*              13464               0-1.804461737E+006.4462680204E-01+
*       -2.500000000E-01               0
GRID*              13465               0-6.074907624E-016.2483246867E-01+
*       -2.500000000E-01               0
GRID*              13466               0-5.314778342E-014.9973060854E-01+
*       -2.500000000E-01               0
GRID*              13467               0-4.555118505E-013.7471255826E-01+
*       -2.500000000E-01               0
GRID*              13468               0-3.795789149E-012.4976944424E-01+
*       -2.500000000E-01               0
GRID*              13469               0-3.036582060E-011.2488010896E-01+
*       -2.500000000E-01               0
GRID*              13470               0-2.277431062E-011.8363497870E-05+
*       -2.500000000E-01               0
GRID*              13471               0-1.518528311E-01-1.248470413E-01+
*       -2.500000000E-01               0
GRID*              13472               0-7.598176834E-02-2.497420655E-01+
*       -2.500000000E-01               0
GRID*              13473               0-8.913385508E-05-3.746849322E-01+
*       -2.500000000E-01               0
GRID*              13474               07.5845002016E-02-4.997070152E-01+
*       -2.500000000E-01               0
GRID*              13475               01.5182413698E-01-6.248246564E-01+
*       -2.500000000E-01               0
GRID*              13476               0-3.134286458E-05-6.248381204E-01+
*       -2.500000000E-01               0
GRID*              13477               0-1.518920509E-01-6.248420164E-01+
*       -2.500000000E-01               0
GRID*              13478               0-7.597603646E-02-4.997467341E-01+
*       -2.500000000E-01               0
GRID*              13479               0-3.036143279E-01-6.247730181E-01+
*       -2.500000000E-01               0
GRID*              13480               0-2.276862534E-01-4.996992349E-01+
*       -2.500000000E-01               0
GRID*              13481               0-1.518241518E-01-3.747049665E-01+
*       -2.500000000E-01               0
GRID*              13482               0-4.550434637E-01-6.245347540E-01+
*       -2.500000000E-01               0
GRID*              13483               0-3.790462652E-01-4.994498202E-01+
*       -2.500000000E-01               0
GRID*              13484               0-3.033167705E-01-3.745560788E-01+
*       -2.500000000E-01               0
GRID*              13485               0-2.276051703E-01-2.497050165E-01+
*       -2.500000000E-01               0
GRID*              13486               0-6.059093567E-01-6.239535781E-01+
*       -2.500000000E-01               0
GRID*              13487               0-5.295949550E-01-4.987270144E-01+
*       -2.500000000E-01               0
GRID*              13488               0-4.540800679E-01-3.739927556E-01+
*       -2.500000000E-01               0
GRID*              13489               0-3.787917835E-01-2.494029175E-01+
*       -2.500000000E-01               0
GRID*              13490               0-3.033688676E-01-1.247438260E-01+
*       -2.500000000E-01               0
GRID*              13491               0-3.792588606E-011.3514155380E-04+
*       -2.500000000E-01               0
GRID*              13492               0-4.551309402E-011.2502535059E-01+
*       -2.500000000E-01               0
GRID*              13493               0-5.310192754E-012.4994519190E-01+
*       -2.500000000E-01               0
GRID*              13494               0-6.070196480E-013.7490664315E-01+
*       -2.500000000E-01               0
GRID*              13495               0-6.831692417E-014.9991995317E-01+
*       -2.500000000E-01               0
GRID*              13496               0-7.594048089E-016.2496976453E-01+
*       -2.500000000E-01               0
GRID*              13497               0-7.562117505E-01-6.228507631E-01+
*       -2.500000000E-01               0
GRID*              13498               0-6.789640659E-01-4.971914119E-01+
*       -2.500000000E-01               0
GRID*              13499               0-6.034043344E-01-3.725736254E-01+
*       -2.500000000E-01               0
GRID*              13500               0-5.287691068E-01-2.484563472E-01+
*       -2.500000000E-01               0
GRID*              13501               0-4.541719708E-01-1.242669183E-01+
*       -2.500000000E-01               0
GRID*              13502               0-5.297372479E-017.3431373150E-04+
*       -2.500000000E-01               0
GRID*              13503               0-6.053624356E-011.2571579904E-01+
*       -2.500000000E-01               0
GRID*              13504               0-6.813886047E-012.5056183032E-01+
*       -2.500000000E-01               0
GRID*              13505               0-7.581130297E-013.7528851009E-01+
*       -2.500000000E-01               0
GRID*              13506               0-8.352434546E-015.0016757922E-01+
*       -2.500000000E-01               0
GRID*              13507               0-9.117028140E-016.2533877822E-01+
*       -2.500000000E-01               0
GRID*              13508               0-6.032998209E-01-1.229994128E-01+
*       -2.500000000E-01               0
GRID*              13509               0-6.779873151E-012.2217897602E-03+
*       -2.500000000E-01               0
GRID*              13510               0-7.534384297E-011.2667563691E-01+
*       -2.500000000E-01               0
GRID*              13511               0-8.310325794E-012.5021937529E-01+
*       -2.500000000E-01               0
GRID*              13512               0-9.104078096E-013.7471671716E-01+
*       -2.500000000E-01               0
GRID*              13513               0-9.883592403E-015.0108940962E-01+
*       -2.500000000E-01               0
GRID*              13514               0-1.063931887E+006.2674519880E-01+
*       -2.500000000E-01               0
GRID*              13515               0-6.765557059E-01-2.463505668E-01+
*       -2.500000000E-01               0
GRID*              13516               0-7.495513360E-01-1.205844443E-01+
*       -2.500000000E-01               0
GRID*              13517               0-8.232294417E-013.6408882904E-03+
*       -2.500000000E-01               0
GRID*              13518               0-8.995802294E-011.2504935113E-01+
*       -2.500000000E-01               0
GRID*              13519               0-9.825734301E-012.4600327001E-01+
*       -2.500000000E-01               0
GRID*              13520               0-1.066317342E+003.7435899133E-01+
*       -2.500000000E-01               0
GRID*              13521               0-1.141693307E+005.0505030110E-01+
*       -2.500000000E-01               0
GRID*              13522               0-1.214213052E+006.2943232928E-01+
*       -2.500000000E-01               0
GRID*              13523               0-9.754722132E-01-4.903465962E-01+
*       -2.500000000E-01               0
GRID*              13524               0-8.273840808E-01-4.945300080E-01+
*       -2.500000000E-01               0
GRID*              13525               0-9.064418115E-01-6.209719764E-01+
*       -2.500000000E-01               0
GRID*              13526               0-8.969410271E-01-3.656390297E-01+
*       -2.500000000E-01               0
GRID*              13527               0-8.219738193E-01-2.428872507E-01+
*       -2.500000000E-01               0
GRID*              13528               0-7.508773106E-01-3.697733626E-01+
*       -2.500000000E-01               0
GRID*              13529               0-1.104078356E+00-2.293998365E-01+
*       -2.500000000E-01               0
GRID*              13530               0-9.648198369E-01-2.375961667E-01+
*       -2.500000000E-01               0
GRID*              13531               0-1.041970108E+00-3.585796678E-01+
*       -2.500000000E-01               0
GRID*              13532               0-1.224970150E+003.8342844921E-01+
*       -2.500000000E-01               0
GRID*              13533               0-1.383035566E+004.0417999010E-01+
*       -2.500000000E-01               0
GRID*              13534               0-1.290505392E+005.1420595522E-01+
*       -2.500000000E-01               0
GRID*              13535               0-1.356812351E+006.3110134765E-01+
*       -2.500000000E-01               0
GRID*              13536               0-1.474176313E+004.6514292352E-01+
*       -2.500000000E-01               0
GRID*              13537               0-1.419892755E+005.2984071024E-01+
*       -2.500000000E-01               0
GRID*              13538               0-1.480751366E+006.1711524365E-01+
*       -2.500000000E-01               0
GRID*              13539               0-1.031490552E+00-1.134703191E-01+
*       -2.500000000E-01               0
GRID*              13540               0-9.644514699E-013.2080314489E-03+
*       -2.500000000E-01               0
GRID*              13541               0-8.927006910E-01-1.179201701E-01+
*       -2.500000000E-01               0
GRID*              13542               0-1.040845605E+001.1706008557E-01+
*       -2.500000000E-01               0
GRID*              13543               0-1.150309426E+002.3149555604E-01+
*       -2.500000000E-01               0
GRID*              13544               0-1.164364255E+00-1.065098201E-01+
*       -2.500000000E-01               0
GRID*              13545               0-1.221012949E+001.0248252988E-02+
*       -2.500000000E-01               0
GRID*              13546               0-1.266297597E+001.3085250223E-01+
*       -2.500000000E-01               0
GRID*              13547               0-1.314482585E+002.6452284677E-01+
*       -2.500000000E-01               0
GRID*              13548               0-1.155116609E+009.6555487330E-02+
*       -2.500000000E-01               0
GRID*              13549               0-1.096494407E+001.1475444407E-03+
*       -2.500000000E-01               0
GRID*              13550               0-4.556270940E-016.2485462788E-01+
*       -2.500000000E-01               0
GRID*              13551               0-3.796468614E-014.9976334294E-01+
*       -2.500000000E-01               0
GRID*              13552               0-3.037035141E-013.7473855089E-01+
*       -2.500000000E-01               0
GRID*              13553               0-2.277847796E-012.4978663139E-01+
*       -2.500000000E-01               0
GRID*              13554               0-1.518793722E-011.2488992869E-01+
*       -2.500000000E-01               0
GRID*              13555               0-7.598417516E-022.0622520701E-05+
*       -2.500000000E-01               0
GRID*              13556               0-9.551420684E-05-1.248464774E-01+
*       -2.500000000E-01               0
GRID*              13557               07.5799234020E-02-2.497388069E-01+
*       -2.500000000E-01               0
GRID*              13558               01.5172006610E-01-3.746862433E-01+
*       -2.500000000E-01               0
GRID*              13559               02.2768292047E-01-4.997163095E-01+
*       -2.500000000E-01               0
GRID*              13560               03.0369474968E-01-6.248318115E-01+
*       -2.500000000E-01               0
GRID*              13561               03.0356062810E-016.2476755913E-01+
*       -2.500000000E-01               0
GRID*              13562               02.2758028449E-014.9969210141E-01+
*       -2.500000000E-01               0
GRID*              13563               01.5167664645E-013.7471021036E-01+
*       -2.500000000E-01               0
GRID*              13564               07.5785277628E-022.4978363197E-01+
*       -2.500000000E-01               0
GRID*              13565               0-1.018238316E-041.2489525387E-01+
*       -2.500000000E-01               0
GRID*              13566               0-2.821554144E-056.2485017084E-01+
*       -2.500000000E-01               0
GRID*              13567               0-7.597243082E-024.9976091681E-01+
*       -2.500000000E-01               0
GRID*              13568               0-1.518896238E-013.7475151154E-01+
*       -2.500000000E-01               0
GRID*              13569               0-1.518935416E-016.2486740991E-01+
*       -2.500000000E-01               0
GRID*              13570               0-2.278111764E-014.9979024183E-01+
*       -2.500000000E-01               0
GRID*              13571               0-3.037636716E-016.2487999491E-01+
*       -2.500000000E-01               0
GRID*              13572               0-7.599114018E-022.4980432494E-01+
*       -2.500000000E-01               0
GRID*              13573               0-8.851140099E-053.7475825848E-01+
*       -2.500000000E-01               0
GRID*              13574               07.5832401307E-024.9976807035E-01+
*       -2.500000000E-01               0
GRID*              13575               01.5178726694E-016.2484412086E-01+
*       -2.500000000E-01               0
GRID*              13576               07.5789972609E-022.6845837258E-05+
*       -2.500000000E-01               0
GRID*              13577               01.5168761304E-01-1.248411573E-01+
*       -2.500000000E-01               0
GRID*              13578               02.2760193907E-01-2.497356900E-01+
*       -2.500000000E-01               0
GRID*              13579               03.0354706353E-01-3.746874115E-01+
*       -2.500000000E-01               0
GRID*              13580               03.7953616296E-01-4.997201368E-01+
*       -2.500000000E-01               0
GRID*              13581               04.5557359699E-01-6.248345168E-01+
*       -2.500000000E-01               0
GRID*              13582               04.5499837431E-016.2453088800E-01+
*       -2.500000000E-01               0
GRID*              13583               03.7895509751E-014.9944593555E-01+
*       -2.500000000E-01               0
GRID*              13584               03.0318487164E-013.7455977909E-01+
*       -2.500000000E-01               0
GRID*              13585               02.2744182194E-012.4972678642E-01+
*       -2.500000000E-01               0
GRID*              13586               01.5163945508E-011.2488550066E-01+
*       -2.500000000E-01               0
GRID*              13587               02.2754315685E-011.8446057833E-05+
*       -2.500000000E-01               0
GRID*              13588               03.0347035056E-01-1.248452592E-01+
*       -2.500000000E-01               0
GRID*              13589               03.7941709298E-01-2.497387887E-01+
*       -2.500000000E-01               0
GRID*              13590               04.5539007020E-01-3.746923226E-01+
*       -2.500000000E-01               0
GRID*              13591               05.3140334125E-01-4.997266750E-01+
*       -2.500000000E-01               0
GRID*              13592               06.0746101144E-01-6.248407553E-01+
*       -2.500000000E-01               0
GRID*              13593               06.0587437543E-016.2394957900E-01+
*       -2.500000000E-01               0
GRID*              13594               05.2952084270E-014.9872345035E-01+
*       -2.500000000E-01               0
GRID*              13595               04.5396824508E-013.7399513485E-01+
*       -2.500000000E-01               0
GRID*              13596               03.7864757399E-012.4941713990E-01+
*       -2.500000000E-01               0
GRID*              13597               03.0319487028E-011.2477190826E-01+
*       -2.500000000E-01               0
GRID*              13598               03.7908879160E-01-1.031652600E-04+
*       -2.500000000E-01               0
GRID*              13599               04.5497566742E-01-1.249914716E-01+
*       -2.500000000E-01               0
GRID*              13600               05.3088942379E-01-2.499134034E-01+
*       -2.500000000E-01               0
GRID*              13601               06.0692349081E-01-3.748819328E-01+
*       -2.500000000E-01               0
GRID*              13602               06.8311070500E-01-4.999054339E-01+
*       -2.500000000E-01               0
GRID*              13603               07.5938094836E-01-6.249621798E-01+
*       -2.500000000E-01               0
GRID*              13604               07.5618966425E-016.2284298623E-01+
*       -2.500000000E-01               0
GRID*              13605               06.7891091256E-014.9718417910E-01+
*       -2.500000000E-01               0
GRID*              13606               06.0331683078E-013.7257270547E-01+
*       -2.500000000E-01               0
GRID*              13607               05.2864915027E-012.4846592258E-01+
*       -2.500000000E-01               0
GRID*              13608               04.5402559532E-011.2428863142E-01+
*       -2.500000000E-01               0
GRID*              13609               05.2959656258E-01-7.071272522E-04+
*       -2.500000000E-01               0
GRID*              13610               06.0523840868E-01-1.256858231E-01+
*       -2.500000000E-01               0
GRID*              13611               06.8129076377E-01-2.505338749E-01+
*       -2.500000000E-01               0
GRID*              13612               07.5804844258E-01-3.752667232E-01+
*       -2.500000000E-01               0
GRID*              13613               08.3521326298E-01-5.001495552E-01+
*       -2.500000000E-01               0
GRID*              13614               09.1169745585E-01-6.253226430E-01+
*       -2.500000000E-01               0
GRID*              13615               06.0318129557E-011.2301489902E-01+
*       -2.500000000E-01               0
GRID*              13616               06.7788082292E-01-2.202909479E-03+
*       -2.500000000E-01               0
GRID*              13617               07.5335392396E-01-1.266587950E-01+
*       -2.500000000E-01               0
GRID*              13618               08.3097813662E-01-2.502083452E-01+
*       -2.500000000E-01               0
GRID*              13619               09.1038823305E-01-3.747013910E-01+
*       -2.500000000E-01               0
GRID*              13620               09.8837089012E-01-5.010526924E-01+
*       -2.500000000E-01               0
GRID*              13621               01.0639530331E+00-6.267053906E-01+
*       -2.500000000E-01               0
GRID*              13622               06.7646665651E-012.4635269628E-01+
*       -2.500000000E-01               0
GRID*              13623               07.4947777900E-011.2058493115E-01+
*       -2.500000000E-01               0
GRID*              13624               08.2318711181E-01-3.644205127E-03+
*       -2.500000000E-01               0
GRID*              13625               08.9958882020E-01-1.250436377E-01+
*       -2.500000000E-01               0
GRID*              13626               09.8270140936E-01-2.458475933E-01+
*       -2.500000000E-01               0
GRID*              13627               01.0665497545E+00-3.740378279E-01+
*       -2.500000000E-01               0
GRID*              13628               01.1418562467E+00-5.047423552E-01+
*       -2.500000000E-01               0
GRID*              13629               01.2142887704E+00-6.292544862E-01+
*       -2.500000000E-01               0
GRID*              13630               09.7550870974E-014.9028367959E-01+
*       -2.500000000E-01               0
GRID*              13631               08.2736223695E-014.9450844378E-01+
*       -2.500000000E-01               0
GRID*              13632               09.0644658327E-016.2094851961E-01+
*       -2.500000000E-01               0
GRID*              13633               08.9694526550E-013.6558397274E-01+
*       -2.500000000E-01               0
GRID*              13634               08.2194258486E-012.4286105517E-01+
*       -2.500000000E-01               0
GRID*              13635               07.5083199542E-013.6975442446E-01+
*       -2.500000000E-01               0
GRID*              13636               01.1043519767E+002.2938652007E-01+
*       -2.500000000E-01               0
GRID*              13637               09.6490354093E-012.3753961905E-01+
*       -2.500000000E-01               0
GRID*              13638               01.0421211637E+003.5850857187E-01+
*       -2.500000000E-01               0
GRID*              13639               01.2254811046E+00-3.822000784E-01+
*       -2.500000000E-01               0
GRID*              13640               01.3834917707E+00-4.022161906E-01+
*       -2.500000000E-01               0
GRID*              13641               01.2907224307E+00-5.134882247E-01+
*       -2.500000000E-01               0
GRID*              13642               01.3569057888E+00-6.308462561E-01+
*       -2.500000000E-01               0
GRID*              13643               01.4743101878E+00-4.642367905E-01+
*       -2.500000000E-01               0
GRID*              13644               01.4200480393E+00-5.292468787E-01+
*       -2.500000000E-01               0
GRID*              13645               01.4808010030E+00-6.169806019E-01+
*       -2.500000000E-01               0
GRID*              13646               01.0317210212E+001.1354402324E-01+
*       -2.500000000E-01               0
GRID*              13647               09.6458526033E-01-3.111567432E-03+
*       -2.500000000E-01               0
GRID*              13648               08.9275590410E-011.1793851359E-01+
*       -2.500000000E-01               0
GRID*              13649               01.0412315644E+00-1.166296785E-01+
*       -2.500000000E-01               0
GRID*              13650               01.1508933129E+00-2.301720578E-01+
*       -2.500000000E-01               0
GRID*              13651               01.1647650379E+001.0718150013E-01+
*       -2.500000000E-01               0
GRID*              13652               01.2214110480E+00-8.277413597E-03+
*       -2.500000000E-01               0
GRID*              13653               01.2667857590E+00-1.275725677E-01+
*       -2.500000000E-01               0
GRID*              13654               01.3149970803E+00-2.611842912E-01+
*       -2.500000000E-01               0
GRID*              13655               01.1555891061E+00-9.503384857E-02+
*       -2.500000000E-01               0
GRID*              13656               01.0968274257E+00-2.917476384E-04+
*       -2.500000000E-01               0
GRID*              13657               01.8331975106E+00-4.557074122E-01+
*       -2.500000000E-01               0
GRID*              13658               0-1.833191161E+004.5568701990E-01+
*       -2.500000000E-01               0
GRID*              13659               01.8331897168E+004.5568342399E-01+
*       -2.500000000E-01               0
GRID*              13660               0-1.833183352E+00-4.556630037E-01+
*       -2.500000000E-01               0
GRID*              13661               01.6218247920E+00-6.874999949E-01+
*       -2.500000000E-01               0
GRID*              13662               0-1.621849952E+006.8750000000E-01+
*       -2.500000000E-01               0
GRID*              13663               01.5851281134E+006.7557337614E-01+
*       -2.500000000E-01               0
GRID*              13664               0-1.585119855E+00-6.755682349E-01+
*       -2.500000000E-01               0
GRID*              13665               01.8478126717E+00-4.043284804E-01+
*       -2.500000000E-01               0
GRID*              13666               01.8478126717E+00-3.293284804E-01+
*       -2.500000000E-01               0
GRID*              13667               01.7822602348E+00-4.100358926E-01+
*       -2.500000000E-01               0
GRID*              13668               01.7595632075E+00-3.787750679E-01+
*       -2.500000000E-01               0
GRID*              13669               01.4998221617E+003.6304284631E-01+
*       -2.500000000E-01               0
GRID*              13670               01.4741812976E+003.1981007292E-01+
*       -2.500000000E-01               0
GRID*              13671               01.4556018689E+003.5586258575E-01+
*       -2.500000000E-01               0
GRID*              13672               01.5282540931E+003.9898911538E-01+
*       -2.500000000E-01               0
GRID*              13673               01.5055551778E+004.3023465628E-01+
*       -2.500000000E-01               0
GRID*              13674               01.5468335218E+003.6293660255E-01+
*       -2.500000000E-01               0
GRID*              13675               01.5879525377E+003.4938504628E-01+
*       -2.500000000E-01               0
GRID*              13676               01.6246696251E+003.3744361554E-01+
*       -2.500000000E-01               0
GRID*              13677               01.5595206063E+003.1343877721E-01+
*       -2.500000000E-01               0
GRID*              13678               01.3582670357E+009.3403468419E-02+
*       -2.500000000E-01               0
GRID*              13679               01.3857524322E+003.3143848645E-02+
*       -2.500000000E-01               0
GRID*              13680               01.3216052906E+003.6442210053E-02+
*       -2.500000000E-01               0
GRID*              13681               01.3950928240E+001.4920046490E-01+
*       -2.500000000E-01               0
GRID*              13682               01.4359093731E+002.1023921878E-01+
*       -2.500000000E-01               0
GRID*              13683               01.4632307265E+001.5114386089E-01+
*       -2.500000000E-01               0
GRID*              13684               01.3309456823E+001.5249882631E-01+
*       -2.500000000E-01               0
GRID*              13685               01.4670041402E+002.6240621357E-01+
*       -2.500000000E-01               0
GRID*              13686               01.3988662377E+002.6046281758E-01+
*       -2.500000000E-01               0
GRID*              13687               01.5112244330E+002.6958647412E-01+
*       -2.500000000E-01               0
GRID*              13688               01.5523434489E+002.5603491786E-01+
*       -2.500000000E-01               0
GRID*              13689               01.4150165263E+00-2.747987153E-02+
*       -2.500000000E-01               0
GRID*              13690               01.4516782714E+002.9481386832E-02+
*       -2.500000000E-01               0
GRID*              13691               01.4419118101E+00-9.027413022E-02+
*       -2.500000000E-01               0
GRID*              13692               01.3759859709E+00-8.661166841E-02+
*       -2.500000000E-01               0
GRID*              13693               01.5100016917E+00-9.695762893E-02+
*       -2.500000000E-01               0
GRID*              13694               01.4709711363E+00-1.560894258E-01+
*       -2.500000000E-01               0
GRID*              13695               01.4977512044E+00-2.203893353E-01+
*       -2.500000000E-01               0
GRID*              13696               01.4296613228E+00-2.137058366E-01+
*       -2.500000000E-01               0
GRID*              13697               01.5623933836E+00-2.314202411E-01+
*       -2.500000000E-01               0
GRID*              13698               01.5210835700E+00-2.890366519E-01+
*       -2.500000000E-01               0
GRID*              13699               01.5387357387E+00-3.923713357E-01+
*       -2.500000000E-01               0
GRID*              13700               01.5160241978E+00-4.236077720E-01+
*       -2.500000000E-01               0
GRID*              13701               01.5805160070E+00-3.494603893E-01+
*       -2.500000000E-01               0
GRID*              13702               01.6172378484E+00-3.375337789E-01+
*       -2.500000000E-01               0
GRID*              13703               01.5439454808E+00-3.429785041E-01+
*       -2.500000000E-01               0
GRID*              13704               01.4793033016E+00-3.319475983E-01+
*       -2.500000000E-01               0
GRID*              13705               01.8471125849E+004.0343094374E-01+
*       -2.500000000E-01               0
GRID*              13706               01.8471125849E+003.2843094374E-01+
*       -2.500000000E-01               0
GRID*              13707               01.7815523541E+004.0911436774E-01+
*       -2.500000000E-01               0
GRID*              13708               01.7588427612E+003.7786273739E-01+
*       -2.500000000E-01               0
GRID*              13709               01.8432959721E+002.6338873774E-01+
*       -2.500000000E-01               0
GRID*              13710               01.7916586094E+002.9181968148E-01+
*       -2.500000000E-01               0
GRID*              13711               01.8432959721E+001.8838873774E-01+
*       -2.500000000E-01               0
GRID*              13712               01.8377069022E+001.1124508837E-01+
*       -2.500000000E-01               0
GRID*              13713               01.7822529267E+001.4963382611E-01+
*       -2.500000000E-01               0
GRID*              13714               01.8377069022E+003.6245088372E-02+
*       -2.500000000E-01               0
GRID*              13715               01.8397450145E+00-4.399936706E-02+
*       -2.500000000E-01               0
GRID*              13716               01.7787019692E+00-7.754278684E-03+
*       -2.500000000E-01               0
GRID*              13717               01.8458379488E+00-2.668734324E-01+
*       -2.500000000E-01               0
GRID*              13718               01.8458379488E+00-1.918734324E-01+
*       -2.500000000E-01               0
GRID*              13719               01.7949006730E+00-2.962019128E-01+
*       -2.500000000E-01               0
GRID*              13720               01.8397450145E+00-1.189993671E-01+
*       -2.500000000E-01               0
GRID*              13721               01.7868330158E+00-1.608727995E-01+
*       -2.500000000E-01               0
GRID*              13722               01.7189151833E+001.9817589648E-01+
*       -2.500000000E-01               0
GRID*              13723               01.7133261135E+001.2103224711E-01+
*       -2.500000000E-01               0
GRID*              13724               01.6253139961E+002.3473076922E-01+
*       -2.500000000E-01               0
GRID*              13725               01.5770178228E+001.9087846613E-01+
*       -2.500000000E-01               0
GRID*              13726               01.6757581274E+002.3838143768E-01+
*       -2.500000000E-01               0
GRID*              13727               01.7446849407E+002.6698301667E-01+
*       -2.500000000E-01               0
GRID*              13728               01.6510837535E+003.0353788941E-01+
*       -2.500000000E-01               0
GRID*              13729               01.7485015535E+003.3202522268E-01+
*       -2.500000000E-01               0
GRID*              13730               01.6751137564E+003.4109428400E-01+
*       -2.500000000E-01               0
GRID*              13731               01.7118690925E+003.5302607258E-01+
*       -2.500000000E-01               0
GRID*              13732               01.7506251050E+00-3.343480658E-01+
*       -2.500000000E-01               0
GRID*              13733               01.7133129167E+00-3.544661729E-01+
*       -2.500000000E-01               0
GRID*              13734               01.7486503821E+00-2.718930179E-01+
*       -2.500000000E-01               0
GRID*              13735               01.6889825390E+00-2.488499565E-01+
*       -2.500000000E-01               0
GRID*              13736               01.7332581069E+00-2.107038035E-01+
*       -2.500000000E-01               0
GRID*              13737               01.7055401186E+002.5424642893E-02+
*       -2.500000000E-01               0
GRID*              13738               01.6422023752E+007.3966713263E-02+
*       -2.500000000E-01               0
GRID*              13739               01.7075782309E+00-5.481981254E-02+
*       -2.500000000E-01               0
GRID*              13740               01.7271651727E+00-1.378297381E-01+
*       -2.500000000E-01               0
GRID*              13741               01.6540033221E+00-1.046508165E-01+
*       -2.500000000E-01               0
GRID*              13742               01.6765623809E+00-3.425195854E-01+
*       -2.500000000E-01               0
GRID*              13743               01.6450502817E+00-3.050533643E-01+
*       -2.500000000E-01               0
GRID*              13744               01.6296580065E+00-2.438641499E-01+
*       -2.500000000E-01               0
GRID*              13745               01.6063256409E+00-1.752168333E-01+
*       -2.500000000E-01               0
GRID*              13746               01.4795842551E+008.7038336645E-02+
*       -2.500000000E-01               0
GRID*              13747               01.5088483492E+002.6414616467E-02+
*       -2.500000000E-01               0
GRID*              13748               01.5204008042E+001.4807709052E-01+
*       -2.500000000E-01               0
GRID*              13749               01.5933713514E+001.2677294188E-01+
*       -2.500000000E-01               0
GRID*              13750               01.5855853566E+003.1165337661E-02+
*       -2.500000000E-01               0
GRID*              13751               01.5867386991E+00-9.220690773E-02+
*       -2.500000000E-01               0
GRID*              13752               01.5576793729E+00-2.639161215E-02+
*       -2.500000000E-01               0
GRID*              13753               01.7257820753E+007.1072902953E-01+
*       -2.500000000E-01               0
GRID*              13754               01.6498320774E+007.1072902953E-01+
*       -2.500000000E-01               0
GRID*              13755               01.7134826090E+006.3628244203E-01+
*       -2.500000000E-01               0
GRID*              13756               01.6767320732E+006.4822902953E-01+
*       -2.500000000E-01               0
GRID*              13757               01.7675503527E+007.0035575866E-01+
*       -2.500000000E-01               0
GRID*              13758               01.7464824762E+006.6108478819E-01+
*       -2.500000000E-01               0
GRID*              13759               01.8435003506E+007.0035575866E-01+
*       -2.500000000E-01               0
GRID*              13760               01.8435003506E+006.2535575866E-01+
*       -2.500000000E-01               0
GRID*              13761               01.7552508864E+006.2590917116E-01+
*       -2.500000000E-01               0
GRID*              13762               01.7779479004E+005.9464834541E-01+
*       -2.500000000E-01               0
GRID*              13763               01.4017587125E+006.8463119634E-01+
*       -2.500000000E-01               0
GRID*              13764               01.3258087146E+006.8463119634E-01+
*       -2.500000000E-01               0
GRID*              13765               01.4658396494E+006.8772405696E-01+
*       -2.500000000E-01               0
GRID*              13766               01.4245484017E+006.2235525330E-01+
*       -2.500000000E-01               0
GRID*              13767               01.5417896473E+006.8772405696E-01+
*       -2.500000000E-01               0
GRID*              13768               01.4640207125E+005.6365546702E-01+
*       -2.500000000E-01               0
GRID*              13769               01.3999397756E+005.6056260640E-01+
*       -2.500000000E-01               0
GRID*              13770               01.5092562549E+005.8206100751E-01+
*       -2.500000000E-01               0
GRID*              13771               01.5319678048E+006.1329743310E-01+
*       -2.500000000E-01               0
GRID*              13772               01.4846398546E+004.8161838677E-01+
*       -2.500000000E-01               0
GRID*              13773               01.4603274097E+004.5047908963E-01+
*       -2.500000000E-01               0
GRID*              13774               01.4846476288E+005.2026836061E-01+
*       -2.500000000E-01               0
GRID*              13775               01.0981227152E+006.8424198181E-01+
*       -2.500000000E-01               0
GRID*              13776               01.1747598140E+006.8280443611E-01+
*       -2.500000000E-01               0
GRID*              13777               01.1336325607E+006.1704641792E-01+
*       -2.500000000E-01               0
GRID*              13778               01.0221727173E+006.8424198181E-01+
*       -2.500000000E-01               0
GRID*              13779               01.2507098119E+006.8280443611E-01+
*       -2.500000000E-01               0
GRID*              13780               01.2853685621E+006.1743563245E-01+
*       -2.500000000E-01               0
GRID*              13781               01.2780947883E+002.7128476661E-01+
*       -2.500000000E-01               0
GRID*              13782               01.2117777069E+002.8213953426E-01+
*       -2.500000000E-01               0
GRID*              13783               01.2514384705E+003.3561135231E-01+
*       -2.500000000E-01               0
GRID*              13784               01.3031027476E+002.1305438568E-01+
*       -2.500000000E-01               0
GRID*              13785               01.2662769594E+001.5725738919E-01+
*       -2.500000000E-01               0
GRID*              13786               01.3427635112E+002.6652620373E-01+
*       -2.500000000E-01               0
GRID*              13787               01.3738582784E+003.1869319851E-01+
*       -2.500000000E-01               0
GRID*              13788               01.4117184738E+003.5631067159E-01+
*       -2.500000000E-01               0
GRID*              13789               01.3556157474E+003.6237405774E-01+
*       -2.500000000E-01               0
GRID*              13790               01.4373593379E+003.9954344498E-01+
*       -2.500000000E-01               0
GRID*              13791               01.4164440146E+004.5092717547E-01+
*       -2.500000000E-01               0
GRID*              13792               01.2501391124E+005.4301577072E-01+
*       -2.500000000E-01               0
GRID*              13793               01.3252380151E+005.4484253096E-01+
*       -2.500000000E-01               0
GRID*              13794               01.1678943952E+005.4946584257E-01+
*       -2.500000000E-01               0
GRID*              13795               01.0912572965E+005.5090338827E-01+
*       -2.500000000E-01               0
GRID*              13796               01.2077638482E+004.7687274107E-01+
*       -2.500000000E-01               0
GRID*              13797               01.2375649772E+004.0844439459E-01+
*       -2.500000000E-01               0
GRID*              13798               01.1553202601E+004.1489446644E-01+
*       -2.500000000E-01               0
GRID*              13799               01.3038820587E+003.9758962694E-01+
*       -2.500000000E-01               0
GRID*              13800               01.3647103259E+004.8614274467E-01+
*       -2.500000000E-01               0
GRID*              13801               01.3417422541E+004.3520710002E-01+
*       -2.500000000E-01               0
GRID*              13802               0-1.847356002E+004.0518903235E-01+
*       -2.500000000E-01               0
GRID*              13803               0-1.847356002E+003.3018903235E-01+
*       -2.500000000E-01               0
GRID*              13804               0-1.781797215E+004.1087605225E-01+
*       -2.500000000E-01               0
GRID*              13805               0-1.759098322E+003.7963051013E-01+
*       -2.500000000E-01               0
GRID*              13806               0-1.528039873E+00-3.989695006E-01+
*       -2.500000000E-01               0
GRID*              13807               0-1.505342918E+00-4.302303688E-01+
*       -2.500000000E-01               0
GRID*              13808               0-1.587312734E+00-3.476198552E-01+
*       -2.500000000E-01               0
GRID*              13809               0-1.624063263E+00-3.356732456E-01+
*       -2.500000000E-01               0
GRID*              13810               0-1.558744598E+00-3.110892768E-01+
*       -2.500000000E-01               0
GRID*              13811               0-1.546680755E+00-3.623626408E-01+
*       -2.500000000E-01               0
GRID*              13812               0-1.499471737E+00-3.624389223E-01+
*       -2.500000000E-01               0
GRID*              13813               0-1.473734945E+00-3.190854422E-01+
*       -2.500000000E-01               0
GRID*              13814               0-1.455094062E+00-3.556923020E-01+
*       -2.500000000E-01               0
GRID*              13815               0-1.360369317E+00-8.986601232E-02+
*       -2.500000000E-01               0
GRID*              13816               0-1.388038974E+00-2.804895267E-02+
*       -2.500000000E-01               0
GRID*              13817               0-1.321702166E+00-3.309865318E-02+
*       -2.500000000E-01               0
GRID*              13818               0-1.397216578E+00-1.459975156E-01+
*       -2.500000000E-01               0
GRID*              13819               0-1.436460583E+00-2.088183789E-01+
*       -2.500000000E-01               0
GRID*              13820               0-1.465950130E+00-1.476371751E-01+
*       -2.500000000E-01               0
GRID*              13821               0-1.330879770E+00-1.510472161E-01+
*       -2.500000000E-01               0
GRID*              13822               0-1.467275703E+00-2.613984301E-01+
*       -2.500000000E-01               0
GRID*              13823               0-1.398542151E+00-2.597587706E-01+
*       -2.500000000E-01               0
GRID*              13824               0-1.511653377E+00-2.681450504E-01+
*       -2.500000000E-01               0
GRID*              13825               0-1.552285356E+00-2.534022648E-01+
*       -2.500000000E-01               0
GRID*              13826               0-1.417216684E+003.6099119496E-02+
*       -2.500000000E-01               0
GRID*              13827               0-1.455883835E+00-2.066823964E-02+
*       -2.500000000E-01               0
GRID*              13828               0-1.443710089E+009.9807885699E-02+
*       -2.500000000E-01               0
GRID*              13829               0-1.375865229E+009.2427172669E-02+
*       -2.500000000E-01               0
GRID*              13830               0-1.511964773E+001.0919558201E-01+
*       -2.500000000E-01               0
GRID*              13831               0-1.470613317E+001.6552363518E-01+
*       -2.500000000E-01               0
GRID*              13832               0-1.497078454E+002.2903860828E-01+
*       -2.500000000E-01               0
GRID*              13833               0-1.428823770E+002.1965091197E-01+
*       -2.500000000E-01               0
GRID*              13834               0-1.561866914E+002.3999400392E-01+
*       -2.500000000E-01               0
GRID*              13835               0-1.520077366E+002.9412128070E-01+
*       -2.500000000E-01               0
GRID*              13836               0-1.538446943E+003.9345924210E-01+
*       -2.500000000E-01               0
GRID*              13837               0-1.515737378E+004.2471088291E-01+
*       -2.500000000E-01               0
GRID*              13838               0-1.580077791E+003.5197010054E-01+
*       -2.500000000E-01               0
GRID*              13839               0-1.616833137E+003.4003834326E-01+
*       -2.500000000E-01               0
GRID*              13840               0-1.543234978E+003.4656581791E-01+
*       -2.500000000E-01               0
GRID*              13841               0-1.478446518E+003.3561042227E-01+
*       -2.500000000E-01               0
GRID*              13842               0-1.850192098E+00-4.029902912E-01+
*       -2.500000000E-01               0
GRID*              13843               0-1.850192098E+00-3.279902912E-01+
*       -2.500000000E-01               0
GRID*              13844               0-1.784625503E+00-4.086532949E-01+
*       -2.500000000E-01               0
GRID*              13845               0-1.761913940E+00-3.774168902E-01+
*       -2.500000000E-01               0
GRID*              13846               0-1.844357046E+002.7005706866E-01+
*       -2.500000000E-01               0
GRID*              13847               0-1.792963100E+003.0024610101E-01+
*       -2.500000000E-01               0
GRID*              13848               0-1.856982566E+00-2.731808766E-01+
*       -2.500000000E-01               0
GRID*              13849               0-1.808424717E+00-3.011711678E-01+
*       -2.500000000E-01               0
GRID*              13850               0-1.844357046E+001.9505706866E-01+
*       -2.500000000E-01               0
GRID*              13851               0-1.781361756E+001.7458588729E-01+
*       -2.500000000E-01               0
GRID*              13852               0-1.835754658E+001.2952881862E-01+
*       -2.500000000E-01               0
GRID*              13853               0-1.856982566E+00-1.981808766E-01+
*       -2.500000000E-01               0
GRID*              13854               0-1.832533294E+00-1.421182740E-01+
*       -2.500000000E-01               0
GRID*              13855               0-1.790765912E+00-1.902991506E-01+
*       -2.500000000E-01               0
GRID*              13856               0-1.835754658E+005.4528818624E-02+
*       -2.500000000E-01               0
GRID*              13857               0-1.759271665E+005.1242561022E-02+
*       -2.500000000E-01               0
GRID*              13858               0-1.822266955E+00-3.286257602E-03+
*       -2.500000000E-01               0
GRID*              13859               0-1.832533294E+00-6.711827401E-02+
*       -2.500000000E-01               0
GRID*              13860               0-1.756050301E+00-7.040453161E-02+
*       -2.500000000E-01               0
GRID*              13861               0-1.712620516E+003.5649327651E-01+
*       -2.500000000E-01               0
GRID*              13862               0-1.675903445E+003.4455180381E-01+
*       -2.500000000E-01               0
GRID*              13863               0-1.749484249E+003.3724083107E-01+
*       -2.500000000E-01               0
GRID*              13864               0-1.746485293E+002.7710886738E-01+
*       -2.500000000E-01               0
GRID*              13865               0-1.492787231E+00-7.915828076E-02+
*       -2.500000000E-01               0
GRID*              13866               0-1.532031236E+00-1.419791440E-01+
*       -2.500000000E-01               0
GRID*              13867               0-1.643936134E+003.0959013690E-01+
*       -2.500000000E-01               0
GRID*              13868               0-1.627886854E+002.5269925951E-01+
*       -2.500000000E-01               0
GRID*              13869               0-1.686957162E+002.5721272005E-01+
*       -2.500000000E-01               0
GRID*              13870               0-1.604887942E+001.8761658708E-01+
*       -2.500000000E-01               0
GRID*              13871               0-1.586585002E+001.1476889755E-01+
*       -2.500000000E-01               0
GRID*              13872               0-1.652604942E+001.2747415313E-01+
*       -2.500000000E-01               0
GRID*              13873               0-1.521964940E+00-1.501020859E-02+
*       -2.500000000E-01               0
GRID*              13874               0-1.559681773E+004.9053148064E-02+
*       -2.500000000E-01               0
GRID*              13875               0-1.596585169E+00-9.436893054E-03+
*       -2.500000000E-01               0
GRID*              13876               0-1.730436013E+002.2021798999E-01+
*       -2.500000000E-01               0
GRID*              13877               0-1.721833625E+001.5468973996E-01+
*       -2.500000000E-01               0
GRID*              13878               0-1.703530685E+008.1842050425E-02+
*       -2.500000000E-01               0
GRID*              13879               0-1.651181244E+00-6.626067008E-03+
*       -2.500000000E-01               0
GRID*              13880               0-1.613464411E+00-7.068942366E-02+
*       -2.500000000E-01               0
GRID*              13881               0-1.690042982E+002.4026974199E-02+
*       -2.500000000E-01               0
GRID*              13882               0-1.706922224E+00-3.722555641E-02+
*       -2.500000000E-01               0
GRID*              13883               0-1.569972590E+00-1.943678086E-01+
*       -2.500000000E-01               0
GRID*              13884               0-1.617063811E+00-2.373120351E-01+
*       -2.500000000E-01               0
GRID*              13885               0-1.596809690E+00-1.258889143E-01+
*       -2.500000000E-01               0
GRID*              13886               0-1.651405766E+00-1.230780883E-01+
*       -2.500000000E-01               0
GRID*              13887               0-1.717188563E+00-1.010575728E-01+
*       -2.500000000E-01               0
GRID*              13888               0-1.700533842E+00-1.562570635E-01+
*       -2.500000000E-01               0
GRID*              13889               0-1.673414490E+00-2.316664847E-01+
*       -2.500000000E-01               0
GRID*              13890               0-1.655727256E+00-2.907009409E-01+
*       -2.500000000E-01               0
GRID*              13891               0-1.739197287E+00-2.096459693E-01+
*       -2.500000000E-01               0
GRID*              13892               0-1.763646559E+00-2.657085719E-01+
*       -2.500000000E-01               0
GRID*              13893               0-1.680413941E+00-3.300276953E-01+
*       -2.500000000E-01               0
GRID*              13894               0-1.756856092E+00-3.205179865E-01+
*       -2.500000000E-01               0
GRID*              13895               0-1.717135783E+00-3.419542942E-01+
*       -2.500000000E-01               0
GRID*              13896               0-1.725786622E+00-7.107297323E-01+
*       -2.500000000E-01               0
GRID*              13897               0-1.649836624E+00-7.107297323E-01+
*       -2.500000000E-01               0
GRID*              13898               0-1.713478942E+00-6.362882559E-01+
*       -2.500000000E-01               0
GRID*              13899               0-1.676761870E+00-6.482297272E-01+
*       -2.500000000E-01               0
GRID*              13900               0-1.767547904E+00-7.003590423E-01+
*       -2.500000000E-01               0
GRID*              13901               0-1.746484574E+00-6.610887746E-01+
*       -2.500000000E-01               0
GRID*              13902               0-1.843497901E+00-7.003590423E-01+
*       -2.500000000E-01               0
GRID*              13903               0-1.843497901E+00-6.253590423E-01+
*       -2.500000000E-01               0
GRID*              13904               0-1.755240224E+00-6.259175659E-01+
*       -2.500000000E-01               0
GRID*              13905               0-1.777939113E+00-5.946720204E-01+
*       -2.500000000E-01               0
GRID*              13906               0-1.401704290E+00-6.846711710E-01+
*       -2.500000000E-01               0
GRID*              13907               0-1.325754292E+00-6.846711710E-01+
*       -2.500000000E-01               0
GRID*              13908               0-1.465810480E+00-6.877306716E-01+
*       -2.500000000E-01               0
GRID*              13909               0-1.424464810E+00-6.224018426E-01+
*       -2.500000000E-01               0
GRID*              13910               0-1.541760478E+00-6.877306716E-01+
*       -2.500000000E-01               0
GRID*              13911               0-1.463884807E+00-5.637078953E-01+
*       -2.500000000E-01               0
GRID*              13912               0-1.399778616E+00-5.606483947E-01+
*       -2.500000000E-01               0
GRID*              13913               0-1.509220807E+00-5.820472674E-01+
*       -2.500000000E-01               0
GRID*              13914               0-1.531930377E+00-6.132989065E-01+
*       -2.500000000E-01               0
GRID*              13915               0-1.484526798E+00-4.816847015E-01+
*       -2.500000000E-01               0
GRID*              13916               0-1.460014734E+00-4.505001148E-01+
*       -2.500000000E-01               0
GRID*              13917               0-1.484534614E+00-5.202938196E-01+
*       -2.500000000E-01               0
GRID*              13918               0-1.098105060E+00-6.842663629E-01+
*       -2.500000000E-01               0
GRID*              13919               0-1.174710536E+00-6.828423793E-01+
*       -2.500000000E-01               0
GRID*              13920               0-1.133565627E+00-6.171087421E-01+
*       -2.500000000E-01               0
GRID*              13921               0-1.022155062E+00-6.842663629E-01+
*       -2.500000000E-01               0
GRID*              13922               0-1.250660534E+00-6.828423793E-01+
*       -2.500000000E-01               0
GRID*              13923               0-1.285264861E+00-6.175135503E-01+
*       -2.500000000E-01               0
GRID*              13924               0-1.277636354E+00-2.711259723E-01+
*       -2.500000000E-01               0
GRID*              13925               0-1.211363292E+00-2.821341704E-01+
*       -2.500000000E-01               0
GRID*              13926               0-1.251059287E+00-3.356187896E-01+
*       -2.500000000E-01               0
GRID*              13927               0-1.302833695E+00-2.124100362E-01+
*       -2.500000000E-01               0
GRID*              13928               0-1.265986434E+00-1.562785330E-01+
*       -2.500000000E-01               0
GRID*              13929               0-1.342529690E+00-2.658946554E-01+
*       -2.500000000E-01               0
GRID*              13930               0-1.373344810E+00-3.184747067E-01+
*       -2.500000000E-01               0
GRID*              13931               0-1.411212132E+00-3.561503000E-01+
*       -2.500000000E-01               0
GRID*              13932               0-1.355199671E+00-3.622861848E-01+
*       -2.500000000E-01               0
GRID*              13933               0-1.436948924E+00-3.995037801E-01+
*       -2.500000000E-01               0
GRID*              13934               0-1.416132803E+00-4.509581128E-01+
*       -2.500000000E-01               0
GRID*              13935               0-1.249966718E+00-5.430644107E-01+
*       -2.500000000E-01               0
GRID*              13936               0-1.325060476E+00-5.448932025E-01+
*       -2.500000000E-01               0
GRID*              13937               0-1.167773805E+00-5.495647070E-01+
*       -2.500000000E-01               0
GRID*              13938               0-1.091168329E+00-5.509886906E-01+
*       -2.500000000E-01               0
GRID*              13939               0-1.207569421E+00-4.769443592E-01+
*       -2.500000000E-01               0
GRID*              13940               0-1.237274279E+00-4.085355253E-01+
*       -2.500000000E-01               0
GRID*              13941               0-1.155081366E+00-4.150358216E-01+
*       -2.500000000E-01               0
GRID*              13942               0-1.303547341E+00-3.975273272E-01+
*       -2.500000000E-01               0
GRID*              13943               0-1.364480473E+00-4.861992552E-01+
*       -2.500000000E-01               0
GRID*              13944               0-1.341414663E+00-4.352029205E-01+
*       -2.500000000E-01               0
GRID*              13945               01.5731281887E+00-7.079362101E-01+
*       -2.500000000E-01               0
GRID*              13946               01.4971781908E+00-7.079362101E-01+
*       -2.500000000E-01               0
GRID*              13947               01.6000030247E+00-6.454362051E-01+
*       -2.500000000E-01               0
GRID*              13948               01.5632859404E+00-6.334947610E-01+
*       -2.500000000E-01               0
GRID*              13949               01.7756598058E+00-6.973090704E-01+
*       -2.500000000E-01               0
GRID*              13950               01.8516098037E+00-6.973090704E-01+
*       -2.500000000E-01               0
GRID*              13951               01.8516098037E+00-6.223090704E-01+
*       -2.500000000E-01               0
GRID*              13952               01.7633399801E+00-6.228772767E-01+
*       -2.500000000E-01               0
GRID*              13953               01.7860495595E+00-5.916256452E-01+
*       -2.500000000E-01               0
GRID*              13954               0-1.573121148E+007.0794682475E-01+
*       -2.500000000E-01               0
GRID*              13955               0-1.497171150E+007.0794682475E-01+
*       -2.500000000E-01               0
GRID*              13956               0-1.600021144E+006.4544682475E-01+
*       -2.500000000E-01               0
GRID*              13957               0-1.563270614E+006.3350021247E-01+
*       -2.500000000E-01               0
GRID*              13958               0-1.775655844E+006.9731340102E-01+
*       -2.500000000E-01               0
GRID*              13959               0-1.851605842E+006.9731340102E-01+
*       -2.500000000E-01               0
GRID*              13960               0-1.851605842E+006.2231340102E-01+
*       -2.500000000E-01               0
GRID*              13961               0-1.763327685E+006.2288680346E-01+
*       -2.500000000E-01               0
GRID*              13962               0-1.786039245E+005.9165039530E-01+
*       -2.500000000E-01               0
GRID*              13963               01.1388706744E-01-6.874123282E-01+
*       -2.500000000E-01               0
GRID*              13964               01.8983706534E-01-6.874123282E-01+
*       -2.500000000E-01               0
GRID*              13965               03.7959327519E-02-6.874190602E-01+
*       -2.500000000E-01               0
GRID*              13966               0-3.799067038E-02-6.874190602E-01+
*       -2.500000000E-01               0
GRID*              13967               07.5896397057E-02-6.248313884E-01+
*       -2.500000000E-01               0
GRID*              13968               03.7906829575E-02-5.622725678E-01+
*       -2.500000000E-01               0
GRID*              13969               01.1383456950E-01-5.622658358E-01+
*       -2.500000000E-01               0
GRID*              13970               0-6.551722263E-05-4.997268746E-01+
*       -2.500000000E-01               0
GRID*              13971               0-3.803258516E-02-4.372158331E-01+
*       -2.500000000E-01               0
GRID*              13972               03.7877934080E-02-4.371959737E-01+
*       -2.500000000E-01               0
GRID*              13973               0-1.139210244E-01-6.874210082E-01+
*       -2.500000000E-01               0
GRID*              13974               0-1.898710223E-01-6.874210082E-01+
*       -2.500000000E-01               0
GRID*              13975               0-7.596169690E-02-6.248400684E-01+
*       -2.500000000E-01               0
GRID*              13976               0-3.800368966E-02-5.622924272E-01+
*       -2.500000000E-01               0
GRID*              13977               0-1.139340437E-01-5.622943752E-01+
*       -2.500000000E-01               0
GRID*              13978               0-7.595664281E-02-3.746949493E-01+
*       -2.500000000E-01               0
GRID*              13979               0-1.139029600E-01-3.122235160E-01+
*       -2.500000000E-01               0
GRID*              13980               0-3.803545110E-02-3.122134988E-01+
*       -2.500000000E-01               0
GRID*              13981               0-2.657321608E-01-6.873865091E-01+
*       -2.500000000E-01               0
GRID*              13982               0-3.416821587E-01-6.873865091E-01+
*       -2.500000000E-01               0
GRID*              13983               0-1.139000941E-01-4.372258503E-01+
*       -2.500000000E-01               0
GRID*              13984               0-1.518311449E-01-4.997229845E-01+
*       -2.500000000E-01               0
GRID*              13985               0-1.897552026E-01-4.372021007E-01+
*       -2.500000000E-01               0
GRID*              13986               0-2.277531894E-01-6.248075172E-01+
*       -2.500000000E-01               0
GRID*              13987               0-1.897891522E-01-5.622706257E-01+
*       -2.500000000E-01               0
GRID*              13988               0-2.656502906E-01-5.622361265E-01+
*       -2.500000000E-01               0
GRID*              13989               0-1.517934693E-01-2.497235410E-01+
*       -2.500000000E-01               0
GRID*              13990               0-1.897290007E-01-1.872760289E-01+
*       -2.500000000E-01               0
GRID*              13991               0-1.139172997E-01-1.872945534E-01+
*       -2.500000000E-01               0
GRID*              13992               0-1.897146610E-01-3.122049915E-01+
*       -2.500000000E-01               0
GRID*              13993               0-2.275704611E-01-3.746305227E-01+
*       -2.500000000E-01               0
GRID*              13994               0-2.654609704E-01-3.121305477E-01+
*       -2.500000000E-01               0
GRID*              13995               0-4.173967266E-01-6.872673770E-01+
*       -2.500000000E-01               0
GRID*              13996               0-4.933467245E-01-6.872673770E-01+
*       -2.500000000E-01               0
GRID*              13997               0-2.655015119E-01-4.371276569E-01+
*       -2.500000000E-01               0
GRID*              13998               0-3.033662593E-01-4.995745275E-01+
*       -2.500000000E-01               0
GRID*              13999               0-3.411815178E-01-4.370029495E-01+
*       -2.500000000E-01               0
GRID*              14000               0-3.793288958E-01-6.246538861E-01+
*       -2.500000000E-01               0
GRID*              14001               0-3.413302965E-01-5.621114191E-01+
*       -2.500000000E-01               0
GRID*              14002               0-4.170448644E-01-5.619922871E-01+
*       -2.500000000E-01               0
GRID*              14003               0-2.276108494E-01-1.247954337E-01+
*       -2.500000000E-01               0
GRID*              14004               0-2.655559869E-01-6.236273126E-02+
*       -2.500000000E-01               0
GRID*              14005               0-1.897979687E-01-6.241433890E-02+
*       -2.500000000E-01               0
GRID*              14006               0-2.654870190E-01-1.872244213E-01+
*       -2.500000000E-01               0
GRID*              14007               0-3.031984769E-01-2.495539670E-01+
*       -2.500000000E-01               0
GRID*              14008               0-3.410803256E-01-1.870733717E-01+
*       -2.500000000E-01               0
GRID*              14009               0-3.410542770E-01-3.119794981E-01+
*       -2.500000000E-01               0
GRID*              14010               0-3.786984192E-01-3.742744172E-01+
*       -2.500000000E-01               0
GRID*              14011               0-4.164359257E-01-3.116978365E-01+
*       -2.500000000E-01               0
GRID*              14012               0-5.687796710E-01-6.869767891E-01+
*       -2.500000000E-01               0
GRID*              14013               0-6.447296689E-01-6.869767891E-01+
*       -2.500000000E-01               0
GRID*              14014               0-4.165631665E-01-4.367212879E-01+
*       -2.500000000E-01               0
GRID*              14015               0-4.543206101E-01-4.990884173E-01+
*       -2.500000000E-01               0
GRID*              14016               0-4.918375115E-01-4.363598850E-01+
*       -2.500000000E-01               0
GRID*              14017               0-5.304764102E-01-6.242441661E-01+
*       -2.500000000E-01               0
GRID*              14018               0-4.923192094E-01-5.616308842E-01+
*       -2.500000000E-01               0
GRID*              14019               0-5.677521559E-01-5.613402962E-01+
*       -2.500000000E-01               0
GRID*              14020               0-3.035009834E-017.6752525835E-05+
*       -2.500000000E-01               0
GRID*              14021               0-3.413138641E-01-6.230434224E-02+
*       -2.500000000E-01               0
GRID*              14022               0-4.173549275E-011.8739739741E-01+
*       -2.500000000E-01               0
GRID*              14023               0-4.930751078E-011.8748527125E-01+
*       -2.500000000E-01               0
GRID*              14024               0-4.552990951E-012.4985731807E-01+
*       -2.500000000E-01               0
GRID*              14025               0-3.416185604E-011.8732477660E-01+
*       -2.500000000E-01               0
GRID*              14026               0-3.793945731E-011.2495272978E-01+
*       -2.500000000E-01               0
GRID*              14027               0-3.414585333E-016.2507625257E-02+
*       -2.500000000E-01               0
GRID*              14028               0-2.657006561E-016.2449236229E-02+
*       -2.500000000E-01               0
GRID*              14029               0-4.171949004E-016.2580246073E-02+
*       -2.500000000E-01               0
GRID*              14030               0-4.932655630E-013.1232887508E-01+
*       -2.500000000E-01               0
GRID*              14031               0-4.175453827E-013.1224100125E-01+
*       -2.500000000E-01               0
GRID*              14032               0-5.690194617E-013.1242591753E-01+
*       -2.500000000E-01               0
GRID*              14033               0-5.312657493E-013.7480960071E-01+
*       -2.500000000E-01               0
GRID*              14034               0-7.214773950E-016.8748488227E-01+
*       -2.500000000E-01               0
GRID*              14035               0-7.974273929E-016.8748488227E-01+
*       -2.500000000E-01               0
GRID*              14036               0-5.692487411E-014.3731862585E-01+
*       -2.500000000E-01               0
GRID*              14037               0-4.934948424E-014.3722158340E-01+
*       -2.500000000E-01               0
GRID*              14038               0-6.450944449E-014.3741329816E-01+
*       -2.500000000E-01               0
GRID*              14039               0-6.073235379E-014.9982528086E-01+
*       -2.500000000E-01               0
GRID*              14040               0-6.834477856E-016.2490111660E-01+
*       -2.500000000E-01               0
GRID*              14041               0-6.455203717E-016.8741623433E-01+
*       -2.500000000E-01               0
GRID*              14042               0-6.453300020E-015.6237621092E-01+
*       -2.500000000E-01               0
GRID*              14043               0-5.694842983E-015.6228153860E-01+
*       -2.500000000E-01               0
GRID*              14044               0-7.212870253E-015.6244485885E-01+
*       -2.500000000E-01               0
GRID*              14045               0-3.787704192E-01-1.245053722E-01+
*       -2.500000000E-01               0
GRID*              14046               0-4.167154157E-01-6.206588837E-02+
*       -2.500000000E-01               0
GRID*              14047               0-4.164818772E-01-1.868349179E-01+
*       -2.500000000E-01               0
GRID*              14048               0-4.537804452E-01-2.489296323E-01+
*       -2.500000000E-01               0
GRID*              14049               0-4.914705388E-01-1.863616328E-01+
*       -2.500000000E-01               0
GRID*              14050               0-7.198808658E-01-6.864253815E-01+
*       -2.500000000E-01               0
GRID*              14051               0-6.810605536E-01-6.234021706E-01+
*       -2.500000000E-01               0
GRID*              14052               0-7.958308637E-01-6.864253815E-01+
*       -2.500000000E-01               0
GRID*              14053               0-4.914245874E-01-3.112245514E-01+
*       -2.500000000E-01               0
GRID*              14054               0-5.287422012E-01-3.732831905E-01+
*       -2.500000000E-01               0
GRID*              14055               0-5.660867206E-01-3.105149863E-01+
*       -2.500000000E-01               0
GRID*              14056               0-6.424367113E-01-5.605724950E-01+
*       -2.500000000E-01               0
GRID*              14057               0-6.042795105E-01-4.979592131E-01+
*       -2.500000000E-01               0
GRID*              14058               0-7.175879082E-01-5.600210875E-01+
*       -2.500000000E-01               0
GRID*              14059               0-5.664996447E-01-4.356503199E-01+
*       -2.500000000E-01               0
GRID*              14060               0-6.411842002E-01-4.348825186E-01+
*       -2.500000000E-01               0
GRID*              14061               0-4.544980543E-014.3472764265E-04+
*       -2.500000000E-01               0
GRID*              14062               0-4.919546094E-01-6.176630228E-02+
*       -2.500000000E-01               0
GRID*              14063               0-5.681908555E-011.8783049547E-01+
*       -2.500000000E-01               0
GRID*              14064               0-6.433755201E-011.8813881468E-01+
*       -2.500000000E-01               0
GRID*              14065               0-6.062039400E-012.5025351111E-01+
*       -2.500000000E-01               0
GRID*              14066               0-5.302466879E-011.2537057481E-01+
*       -2.500000000E-01               0
GRID*              14067               0-4.924340941E-016.2879832162E-02+
*       -2.500000000E-01               0
GRID*              14068               0-5.675498418E-016.3225056383E-02+
*       -2.500000000E-01               0
GRID*              14069               0-6.442041263E-013.1273423674E-01+
*       -2.500000000E-01               0
GRID*              14070               0-7.197508172E-013.1292517021E-01+
*       -2.500000000E-01               0
GRID*              14071               0-6.825663389E-013.7509757662E-01+
*       -2.500000000E-01               0
GRID*              14072               0-8.735763955E-016.8766938911E-01+
*       -2.500000000E-01               0
GRID*              14073               0-9.495263934E-016.8766938911E-01+
*       -2.500000000E-01               0
GRID*              14074               0-7.206411357E-014.3760423163E-01+
*       -2.500000000E-01               0
GRID*              14075               0-7.966782421E-014.3772804466E-01+
*       -2.500000000E-01               0
GRID*              14076               0-7.592063481E-015.0004376620E-01+
*       -2.500000000E-01               0
GRID*              14077               0-8.355538114E-016.2515427138E-01+
*       -2.500000000E-01               0
GRID*              14078               0-7.973241317E-015.6256867188E-01+
*       -2.500000000E-01               0
GRID*              14079               0-8.734731343E-015.6275317872E-01+
*       -2.500000000E-01               0
GRID*              14080               0-5.287358959E-01-1.236331655E-01+
*       -2.500000000E-01               0
GRID*              14081               0-5.660344639E-01-1.857278800E-01+
*       -2.500000000E-01               0
GRID*              14082               0-6.416748753E-016.3968794398E-02+
*       -2.500000000E-01               0
GRID*              14083               0-7.157128724E-016.4448713335E-02+
*       -2.500000000E-01               0
GRID*              14084               0-6.794004326E-011.2619571797E-01+
*       -2.500000000E-01               0
GRID*              14085               0-6.038622815E-011.4780517458E-03+
*       -2.500000000E-01               0
GRID*              14086               0-5.665185344E-01-6.113254951E-02+
*       -2.500000000E-01               0
GRID*              14087               0-6.406435680E-01-6.038881150E-02+
*       -2.500000000E-01               0
GRID*              14088               0-7.174135172E-011.8861873362E-01+
*       -2.500000000E-01               0
GRID*              14089               0-7.922355046E-011.8844750610E-01+
*       -2.500000000E-01               0
GRID*              14090               0-7.562105920E-012.5039060280E-01+
*       -2.500000000E-01               0
GRID*              14091               0-7.945728046E-013.1275394269E-01+
*       -2.500000000E-01               0
GRID*              14092               0-8.707201945E-013.1246804622E-01+
*       -2.500000000E-01               0
GRID*              14093               0-8.342604197E-013.7500261363E-01+
*       -2.500000000E-01               0
GRID*              14094               0-1.025640930E+006.8837259940E-01+
*       -2.500000000E-01               0
GRID*              14095               0-1.101590928E+006.8837259940E-01+
*       -2.500000000E-01               0
GRID*              14096               0-9.878173506E-016.2604198851E-01+
*       -2.500000000E-01               0
GRID*              14097               0-8.728256321E-014.3744214819E-01+
*       -2.500000000E-01               0
GRID*              14098               0-9.493835250E-014.3790306339E-01+
*       -2.500000000E-01               0
GRID*              14099               0-9.118013474E-015.0062849442E-01+
*       -2.500000000E-01               0
GRID*              14100               0-9.500310272E-015.6321409392E-01+
*       -2.500000000E-01               0
GRID*              14101               0-1.026145564E+005.6391730421E-01+
*       -2.500000000E-01               0
GRID*              14102               0-6.026624064E-01-2.474034570E-01+
*       -2.500000000E-01               0
GRID*              14103               0-6.399800202E-01-3.094620961E-01+
*       -2.500000000E-01               0
GRID*              14104               0-6.399277634E-01-1.846749898E-01+
*       -2.500000000E-01               0
GRID*              14105               0-7.130535210E-01-1.834675055E-01+
*       -2.500000000E-01               0
GRID*              14106               0-6.764255785E-01-1.217919285E-01+
*       -2.500000000E-01               0
GRID*              14107               0-7.883339357E-016.5158262601E-02+
*       -2.500000000E-01               0
GRID*              14108               0-8.614048356E-016.4345119710E-02+
*       -2.500000000E-01               0
GRID*              14109               0-8.265093296E-011.2586249402E-01+
*       -2.500000000E-01               0
GRID*              14110               0-7.506083784E-012.9313390253E-03+
*       -2.500000000E-01               0
GRID*              14111               0-7.137693256E-01-5.918132728E-02+
*       -2.500000000E-01               0
GRID*              14112               0-7.863903889E-01-5.847177801E-02+
*       -2.500000000E-01               0
GRID*              14113               0-8.653064044E-011.8763436321E-01+
*       -2.500000000E-01               0
GRID*              14114               0-9.410768298E-011.8552631057E-01+
*       -2.500000000E-01               0
GRID*              14115               0-9.068030048E-012.4811132265E-01+
*       -2.500000000E-01               0
GRID*              14116               0-9.464906199E-013.1035999358E-01+
*       -2.500000000E-01               0
GRID*              14117               0-1.024445386E+003.1018113067E-01+
*       -2.500000000E-01               0
GRID*              14118               0-9.883625758E-013.7453785424E-01+
*       -2.500000000E-01               0
GRID*              14119               0-1.176731510E+006.8971616464E-01+
*       -2.500000000E-01               0
GRID*              14120               0-1.252681508E+006.8971616464E-01+
*       -2.500000000E-01               0
GRID*              14121               0-1.139072470E+006.2808876404E-01+
*       -2.500000000E-01               0
GRID*              14122               0-1.027338291E+004.3772420047E-01+
*       -2.500000000E-01               0
GRID*              14123               0-1.104005324E+004.3970464621E-01+
*       -2.500000000E-01               0
GRID*              14124               0-1.065026273E+005.0306985536E-01+
*       -2.500000000E-01               0
GRID*              14125               0-1.102812597E+005.6589774995E-01+
*       -2.500000000E-01               0
GRID*              14126               0-1.177953179E+005.6724131519E-01+
*       -2.500000000E-01               0
GRID*              14127               0-7.917979156E-01-5.586903855E-01+
*       -2.500000000E-01               0
GRID*              14128               0-7.531740733E-01-4.958607100E-01+
*       -2.500000000E-01               0
GRID*              14129               0-1.016216182E+00-5.544396609E-01+
*       -2.500000000E-01               0
GRID*              14130               0-1.050424360E+00-4.868956258E-01+
*       -2.500000000E-01               0
GRID*              14131               0-8.709458942E-01-6.854859882E-01+
*       -2.500000000E-01               0
GRID*              14132               0-8.313267810E-01-6.219113697E-01+
*       -2.500000000E-01               0
GRID*              14133               0-9.468958921E-01-6.854859882E-01+
*       -2.500000000E-01               0
GRID*              14134               0-9.817009813E-01-6.197523511E-01+
*       -2.500000000E-01               0
GRID*              14135               0-8.669129461E-01-5.577509922E-01+
*       -2.500000000E-01               0
GRID*              14136               0-9.409570124E-01-5.556592863E-01+
*       -2.500000000E-01               0
GRID*              14137               0-9.014281470E-01-4.924383021E-01+
*       -2.500000000E-01               0
GRID*              14138               0-7.149206883E-01-4.334823873E-01+
*       -2.500000000E-01               0
GRID*              14139               0-7.891306957E-01-4.321516853E-01+
*       -2.500000000E-01               0
GRID*              14140               0-6.771408225E-01-3.711734940E-01+
*       -2.500000000E-01               0
GRID*              14141               0-7.137165083E-01-3.080619647E-01+
*       -2.500000000E-01               0
GRID*              14142               0-8.621625539E-01-4.300845189E-01+
*       -2.500000000E-01               0
GRID*              14143               0-9.362066202E-01-4.279928129E-01+
*       -2.500000000E-01               0
GRID*              14144               0-8.239091689E-01-3.677061962E-01+
*       -2.500000000E-01               0
GRID*              14145               0-7.864255650E-01-3.063303067E-01+
*       -2.500000000E-01               0
GRID*              14146               0-8.594574232E-01-3.042631402E-01+
*       -2.500000000E-01               0
GRID*              14147               0-7.492647626E-01-2.446189087E-01+
*       -2.500000000E-01               0
GRID*              14148               0-7.857625777E-01-1.817358475E-01+
*       -2.500000000E-01               0
GRID*              14149               0-1.008721160E+00-4.244631320E-01+
*       -2.500000000E-01               0
GRID*              14150               0-9.694555674E-01-3.621093487E-01+
*       -2.500000000E-01               0
GRID*              14151               0-1.083673308E+00-4.210121616E-01+
*       -2.500000000E-01               0
GRID*              14152               0-1.113378166E+00-3.526033277E-01+
*       -2.500000000E-01               0
GRID*              14153               0-1.144432291E+00-2.880134121E-01+
*       -2.500000000E-01               0
GRID*              14154               0-1.073024232E+00-2.939897522E-01+
*       -2.500000000E-01               0
GRID*              14155               0-1.171009357E+00-2.235205948E-01+
*       -2.500000000E-01               0
GRID*              14156               0-9.308804320E-01-3.016175982E-01+
*       -2.500000000E-01               0
GRID*              14157               0-8.933968281E-01-2.402417087E-01+
*       -2.500000000E-01               0
GRID*              14158               0-1.003394972E+00-2.980879172E-01+
*       -2.500000000E-01               0
GRID*              14159               0-1.034449097E+00-2.334980016E-01+
*       -2.500000000E-01               0
GRID*              14160               0-1.257737771E+004.4881720222E-01+
*       -2.500000000E-01               0
GRID*              14161               0-1.304002858E+003.9380421966E-01+
*       -2.500000000E-01               0
GRID*              14162               0-1.336770479E+004.5919297266E-01+
*       -2.500000000E-01               0
GRID*              14163               0-1.216099349E+005.0962812816E-01+
*       -2.500000000E-01               0
GRID*              14164               0-1.252359222E+005.7181914225E-01+
*       -2.500000000E-01               0
GRID*              14165               0-1.183331728E+004.4423937516E-01+
*       -2.500000000E-01               0
GRID*              14166               0-1.145643746E+003.7889372027E-01+
*       -2.500000000E-01               0
GRID*              14167               0-1.323981158E+006.9055067382E-01+
*       -2.500000000E-01               0
GRID*              14168               0-1.399931156E+006.9055067382E-01+
*       -2.500000000E-01               0
GRID*              14169               0-1.285512702E+006.3026683847E-01+
*       -2.500000000E-01               0
GRID*              14170               0-1.323658872E+005.7265365144E-01+
*       -2.500000000E-01               0
GRID*              14171               0-1.355199073E+005.2202333273E-01+
*       -2.500000000E-01               0
GRID*              14172               0-1.388352553E+005.8047102895E-01+
*       -2.500000000E-01               0
GRID*              14173               0-1.401464160E+004.6701035017E-01+
*       -2.500000000E-01               0
GRID*              14174               0-1.428605939E+004.3466145681E-01+
*       -2.500000000E-01               0
GRID*              14175               0-1.447034534E+004.9749181688E-01+
*       -2.500000000E-01               0
GRID*              14176               0-1.442319848E+003.9611747479E-01+
*       -2.500000000E-01               0
GRID*              14177               0-1.487890222E+004.2659894149E-01+
*       -2.500000000E-01               0
GRID*              14178               0-1.502023470E+004.6325486493E-01+
*       -2.500000000E-01               0
GRID*              14179               0-1.502015641E+005.0186398298E-01+
*       -2.500000000E-01               0
GRID*              14180               0-1.474873862E+005.3421287634E-01+
*       -2.500000000E-01               0
GRID*              14181               0-1.516021853E+006.4150444658E-01+
*       -2.500000000E-01               0
GRID*              14182               0-1.528000127E+006.0911100955E-01+
*       -2.500000000E-01               0
GRID*              14183               0-1.461900663E+006.8355762183E-01+
*       -2.500000000E-01               0
GRID*              14184               0-1.418781859E+006.2410829565E-01+
*       -2.500000000E-01               0
GRID*              14185               0-1.505303168E+005.7785014304E-01+
*       -2.500000000E-01               0
GRID*              14186               0-1.450322060E+005.7347797695E-01+
*       -2.500000000E-01               0
GRID*              14187               0-8.573372552E-01-1.804037104E-01+
*       -2.500000000E-01               0
GRID*              14188               0-9.287602640E-01-1.777581684E-01+
*       -2.500000000E-01               0
GRID*              14189               0-8.211260135E-01-1.192523072E-01+
*       -2.500000000E-01               0
GRID*              14190               0-8.579650664E-01-5.713964092E-02+
*       -2.500000000E-01               0
GRID*              14191               0-8.938404558E-013.4244598696E-03+
*       -2.500000000E-01               0
GRID*              14192               0-9.320158497E-016.4128691289E-02+
*       -2.500000000E-01               0
GRID*              14193               0-9.285760805E-01-5.735606934E-02+
*       -2.500000000E-01               0
GRID*              14194               0-9.981551947E-01-1.755332429E-01+
*       -2.500000000E-01               0
GRID*              14195               0-1.067784454E+00-1.714350778E-01+
*       -2.500000000E-01               0
GRID*              14196               0-9.620956218E-01-1.156952446E-01+
*       -2.500000000E-01               0
GRID*              14197               0-9.979710112E-01-5.513114383E-02+
*       -2.500000000E-01               0
GRID*              14198               0-9.702129174E-011.2105471835E-01+
*       -2.500000000E-01               0
GRID*              14199               0-1.011709518E+001.8153167779E-01+
*       -2.500000000E-01               0
GRID*              14200               0-1.002648538E+006.0134058510E-02+
*       -2.500000000E-01               0
GRID*              14201               0-1.108313384E+003.0292727368E-01+
*       -2.500000000E-01               0
GRID*              14202               0-1.187639788E+003.0746200263E-01+
*       -2.500000000E-01               0
GRID*              14203               0-1.066441428E+002.3874941302E-01+
*       -2.500000000E-01               0
GRID*              14204               0-1.095577515E+001.7427782081E-01+
*       -2.500000000E-01               0
GRID*              14205               0-1.134221306E+00-1.679548283E-01+
*       -2.500000000E-01               0
GRID*              14206               0-1.097927404E+00-1.099900696E-01+
*       -2.500000000E-01               0
GRID*              14207               0-1.201152307E+00-1.620755866E-01+
*       -2.500000000E-01               0
GRID*              14208               0-1.229198382E+00-1.007127665E-01+
*       -2.500000000E-01               0
GRID*              14209               0-1.269726368E+003.2397564799E-01+
*       -2.500000000E-01               0
GRID*              14210               0-1.348759075E+003.3435141844E-01+
*       -2.500000000E-01               0
GRID*              14211               0-1.232396005E+002.4800920141E-01+
*       -2.500000000E-01               0
GRID*              14212               0-1.152713017E+001.6402552169E-01+
*       -2.500000000E-01               0
GRID*              14213               0-1.097981107E+001.0680778645E-01+
*       -2.500000000E-01               0
GRID*              14214               0-1.208303511E+001.8117402914E-01+
*       -2.500000000E-01               0
GRID*              14215               0-1.290390091E+001.9768767450E-01+
*       -2.500000000E-01               0
GRID*              14216               0-1.210707103E+001.1370399478E-01+
*       -2.500000000E-01               0
GRID*              14217               0-1.030472938E+002.1777879448E-03+
*       -2.500000000E-01               0
GRID*              14218               0-1.063992480E+00-5.616138734E-02+
*       -2.500000000E-01               0
GRID*              14219               0-1.068670006E+005.9103815006E-02+
*       -2.500000000E-01               0
GRID*              14220               0-1.125805508E+004.8851515885E-02+
*       -2.500000000E-01               0
GRID*              14221               0-1.188064779E+005.3401870159E-02+
*       -2.500000000E-01               0
GRID*              14222               0-1.243655273E+007.0550377611E-02+
*       -2.500000000E-01               0
GRID*              14223               0-1.158753678E+005.6978987144E-03+
*       -2.500000000E-01               0
GRID*              14224               0-1.130429331E+00-5.268113783E-02+
*       -2.500000000E-01               0
GRID*              14225               0-1.192688602E+00-4.813078356E-02+
*       -2.500000000E-01               0
GRID*              14226               0-1.285192386E+001.9483329727E-02+
*       -2.500000000E-01               0
GRID*              14227               0-1.307834710E+007.9785454350E-02+
*       -2.500000000E-01               0
GRID*              14228               0-1.257522729E+00-4.233372992E-02+
*       -2.500000000E-01               0
GRID*              14229               0-1.334328115E+001.4349422055E-01+
*       -2.500000000E-01               0
GRID*              14230               0-1.358420609E+002.1032939282E-01+
*       -2.500000000E-01               0
GRID*              14231               0-1.384885746E+002.7384436592E-01+
*       -2.500000000E-01               0
GRID*              14232               0-1.419162236E+003.4367293758E-01+
*       -2.500000000E-01               0
GRID*              14233               02.6577237169E-01-6.874159057E-01+
*       -2.500000000E-01               0
GRID*              14234               03.4172236960E-01-6.874159057E-01+
*       -2.500000000E-01               0
GRID*              14235               01.1378253406E-01-4.371966293E-01+
*       -2.500000000E-01               0
GRID*              14236               07.5815466125E-02-3.746855877E-01+
*       -2.500000000E-01               0
GRID*              14237               01.8970149329E-01-4.372012764E-01+
*       -2.500000000E-01               0
GRID*              14238               01.5176396124E-01-4.997116624E-01+
*       -2.500000000E-01               0
GRID*              14239               02.2775944333E-01-6.248282339E-01+
*       -2.500000000E-01               0
GRID*              14240               01.8975352873E-01-5.622704830E-01+
*       -2.500000000E-01               0
GRID*              14241               02.6568883508E-01-5.622740605E-01+
*       -2.500000000E-01               0
GRID*              14242               0-1.139185031E-01-6.241320939E-02+
*       -2.500000000E-01               0
GRID*              14243               0-1.518636407E-011.9493009285E-05+
*       -2.500000000E-01               0
GRID*              14244               0-3.803984468E-02-6.241292745E-02+
*       -2.500000000E-01               0
GRID*              14245               0-7.597417266E-02-1.248467594E-01+
*       -2.500000000E-01               0
GRID*              14246               03.7855050082E-02-3.122118695E-01+
*       -2.500000000E-01               0
GRID*              14247               01.1375965006E-01-3.122125251E-01+
*       -2.500000000E-01               0
GRID*              14248               0-9.126715836E-05-2.497404362E-01+
*       -2.500000000E-01               0
GRID*              14249               0-3.803864127E-02-1.872942714E-01+
*       -2.500000000E-01               0
GRID*              14250               03.7851859906E-02-1.872926422E-01+
*       -2.500000000E-01               0
GRID*              14251               0-5.695703738E-016.8741623433E-01+
*       -2.500000000E-01               0
GRID*              14252               0-4.175793560E-014.3723795060E-01+
*       -2.500000000E-01               0
GRID*              14253               0-3.416751877E-014.3725094692E-01+
*       -2.500000000E-01               0
GRID*              14254               0-3.796076823E-013.7472555457E-01+
*       -2.500000000E-01               0
GRID*              14255               0-4.555623478E-014.9974697574E-01+
*       -2.500000000E-01               0
GRID*              14256               0-5.315589282E-016.2484354828E-01+
*       -2.500000000E-01               0
GRID*              14257               0-4.936385396E-016.8742731394E-01+
*       -2.500000000E-01               0
GRID*              14258               0-4.935524641E-015.6229261821E-01+
*       -2.500000000E-01               0
GRID*              14259               0-4.176369777E-015.6230898541E-01+
*       -2.500000000E-01               0
GRID*              14260               0-1.898112392E-016.2454146095E-02+
*       -2.500000000E-01               0
GRID*              14261               0-1.139317737E-016.2455275606E-02+
*       -2.500000000E-01               0
GRID*              14262               0-2.277687891E-011.2488501883E-01+
*       -2.500000000E-01               0
GRID*              14263               0-3.416412145E-013.1225399756E-01+
*       -2.500000000E-01               0
GRID*              14264               0-2.657441469E-013.1226259114E-01+
*       -2.500000000E-01               0
GRID*              14265               0-3.036818473E-012.4977803781E-01+
*       -2.500000000E-01               0
GRID*              14266               0-2.657214928E-011.8733337018E-01+
*       -2.500000000E-01               0
GRID*              14267               0-1.898320759E-011.8733828004E-01+
*       -2.500000000E-01               0
GRID*              14268               0-1.898717677E-016.8743370496E-01+
*       -2.500000000E-01               0
GRID*              14269               0-1.139217698E-016.8743370496E-01+
*       -2.500000000E-01               0
GRID*              14270               0-2.658068326E-016.8743999746E-01+
*       -2.500000000E-01               0
GRID*              14271               0-3.417568305E-016.8743999746E-01+
*       -2.500000000E-01               0
GRID*              14272               0-2.278286066E-016.2487370241E-01+
*       -2.500000000E-01               0
GRID*              14273               0-1.898523590E-015.6232882587E-01+
*       -2.500000000E-01               0
GRID*              14274               0-2.657874240E-015.6233511837E-01+
*       -2.500000000E-01               0
GRID*              14275               0-4.176885417E-016.8742731394E-01+
*       -2.500000000E-01               0
GRID*              14276               0-3.037290189E-014.9977679239E-01+
*       -2.500000000E-01               0
GRID*              14277               0-2.657573453E-014.3726439636E-01+
*       -2.500000000E-01               0
GRID*              14278               0-3.796953828E-016.2486731140E-01+
*       -2.500000000E-01               0
GRID*              14279               0-3.417052665E-015.6232166893E-01+
*       -2.500000000E-01               0
GRID*              14280               0-2.277965690E-013.7474503121E-01+
*       -2.500000000E-01               0
GRID*              14281               0-1.898372017E-013.1226907147E-01+
*       -2.500000000E-01               0
GRID*              14282               0-3.798910672E-026.8742508542E-01+
*       -2.500000000E-01               0
GRID*              14283               03.7960891180E-026.8742508542E-01+
*       -2.500000000E-01               0
GRID*              14284               0-1.898504001E-014.3727087669E-01+
*       -2.500000000E-01               0
GRID*              14285               0-1.518918036E-014.9977557932E-01+
*       -2.500000000E-01               0
GRID*              14286               0-1.139310273E-014.3725621418E-01+
*       -2.500000000E-01               0
GRID*              14287               0-7.596087858E-026.2485879037E-01+
*       -2.500000000E-01               0
GRID*              14288               0-1.139329862E-015.6231416336E-01+
*       -2.500000000E-01               0
GRID*              14289               0-3.800032318E-025.6230554383E-01+
*       -2.500000000E-01               0
GRID*              14290               0-7.599059799E-021.2489259128E-01+
*       -2.500000000E-01               0
GRID*              14291               0-3.804299949E-026.2457938195E-02+
*       -2.500000000E-01               0
GRID*              14292               02.6570531090E-016.8738377956E-01+
*       -2.500000000E-01               0
GRID*              14293               03.4165530881E-016.8738377956E-01+
*       -2.500000000E-01               0
GRID*              14294               0-1.139352562E-011.8734712682E-01+
*       -2.500000000E-01               0
GRID*              14295               0-1.518879599E-012.4979547817E-01+
*       -2.500000000E-01               0
GRID*              14296               0-3.804648201E-021.8734978940E-01+
*       -2.500000000E-01               0
GRID*              14297               0-1.029312764E-042.4979397846E-01+
*       -2.500000000E-01               0
GRID*              14298               03.7841726898E-021.8733944292E-01+
*       -2.500000000E-01               0
GRID*              14299               03.7848383114E-023.1227094523E-01+
*       -2.500000000E-01               0
GRID*              14300               07.5794067523E-023.7473423442E-01+
*       -2.500000000E-01               0
GRID*              14301               01.1373096204E-013.1224692117E-01+
*       -2.500000000E-01               0
GRID*              14302               0-3.803982579E-023.1228129171E-01+
*       -2.500000000E-01               0
GRID*              14303               0-1.139403820E-013.1227791824E-01+
*       -2.500000000E-01               0
GRID*              14304               0-7.598906761E-023.7475488501E-01+
*       -2.500000000E-01               0
GRID*              14305               0-3.803047111E-024.3725958765E-01+
*       -2.500000000E-01               0
GRID*              14306               03.7871944953E-024.3726316442E-01+
*       -2.500000000E-01               0
GRID*              14307               0-7.001475680E-054.9976449358E-01+
*       -2.500000000E-01               0
GRID*              14308               01.1375452388E-014.3723914036E-01+
*       -2.500000000E-01               0
GRID*              14309               01.5170634290E-014.9973008588E-01+
*       -2.500000000E-01               0
GRID*              14310               01.8962846547E-014.3720115589E-01+
*       -2.500000000E-01               0
GRID*              14311               03.7902092883E-025.6230912060E-01+
*       -2.500000000E-01               0
GRID*              14312               01.8981863032E-016.8742206043E-01+
*       -2.500000000E-01               0
GRID*              14313               01.1386863242E-016.8742206043E-01+
*       -2.500000000E-01               0
GRID*              14314               02.2767394752E-016.2480583999E-01+
*       -2.500000000E-01               0
GRID*              14315               02.6557045630E-015.6222983027E-01+
*       -2.500000000E-01               0
GRID*              14316               01.8968377571E-015.6226811114E-01+
*       -2.500000000E-01               0
GRID*              14317               07.5879525697E-026.2484714585E-01+
*       -2.500000000E-01               0
GRID*              14318               01.1380983412E-015.6230609561E-01+
*       -2.500000000E-01               0
GRID*              14319               0-9.710127341E-052.3734178979E-05+
*       -2.500000000E-01               0
GRID*              14320               03.7844074388E-026.2461049854E-02+
*       -2.500000000E-01               0
GRID*              14321               01.1374342353E-01-1.872899821E-01+
*       -2.500000000E-01               0
GRID*              14322               01.8964477606E-01-1.872884236E-01+
*       -2.500000000E-01               0
GRID*              14323               01.5170058655E-01-2.497372485E-01+
*       -2.500000000E-01               0
GRID*              14324               07.5796049416E-02-1.248438173E-01+
*       -2.500000000E-01               0
GRID*              14325               03.7847229201E-02-6.240981579E-02+
*       -2.500000000E-01               0
GRID*              14326               01.1373879282E-01-6.240715571E-02+
*       -2.500000000E-01               0
GRID*              14327               01.8966100259E-01-3.122109667E-01+
*       -2.500000000E-01               0
GRID*              14328               02.6557450130E-01-3.122115508E-01+
*       -2.500000000E-01               0
GRID*              14329               02.2763356482E-01-3.746868274E-01+
*       -2.500000000E-01               0
GRID*              14330               04.1766179325E-01-6.874172584E-01+
*       -2.500000000E-01               0
GRID*              14331               04.9361179115E-01-6.874172584E-01+
*       -2.500000000E-01               0
GRID*              14332               02.6561499200E-01-4.372018605E-01+
*       -2.500000000E-01               0
GRID*              14333               03.4154161325E-01-4.372037742E-01+
*       -2.500000000E-01               0
GRID*              14334               03.0360954172E-01-4.997182232E-01+
*       -2.500000000E-01               0
GRID*              14335               03.7963417333E-01-6.248331641E-01+
*       -2.500000000E-01               0
GRID*              14336               03.4161545632E-01-5.622759741E-01+
*       -2.500000000E-01               0
GRID*              14337               04.1755487997E-01-5.622773268E-01+
*       -2.500000000E-01               0
GRID*              14338               07.5768815626E-021.2489037726E-01+
*       -2.500000000E-01               0
GRID*              14339               01.1371471385E-016.2456173247E-02+
*       -2.500000000E-01               0
GRID*              14340               01.1371236636E-011.8733456631E-01+
*       -2.500000000E-01               0
GRID*              14341               01.5161354978E-012.4975520920E-01+
*       -2.500000000E-01               0
GRID*              14342               01.8954063851E-011.8730614354E-01+
*       -2.500000000E-01               0
GRID*              14343               01.8955923419E-013.1221849839E-01+
*       -2.500000000E-01               0
GRID*              14344               02.2743075905E-013.7463499473E-01+
*       -2.500000000E-01               0
GRID*              14345               02.6531334679E-013.1214328276E-01+
*       -2.500000000E-01               0
GRID*              14346               04.1737418191E-016.8726544400E-01+
*       -2.500000000E-01               0
GRID*              14347               04.9332417981E-016.8726544400E-01+
*       -2.500000000E-01               0
GRID*              14348               02.6538257806E-014.3712594025E-01+
*       -2.500000000E-01               0
GRID*              14349               03.0326769100E-014.9956901848E-01+
*       -2.500000000E-01               0
GRID*              14350               03.4106998458E-014.3700285732E-01+
*       -2.500000000E-01               0
GRID*              14351               03.7927950121E-016.2464922356E-01+
*       -2.500000000E-01               0
GRID*              14352               03.4125786281E-015.6210674734E-01+
*       -2.500000000E-01               0
GRID*              14353               04.1697673591E-015.6198841178E-01+
*       -2.500000000E-01               0
GRID*              14354               01.5166656473E-012.2645947545E-05+
*       -2.500000000E-01               0
GRID*              14355               01.8959130597E-016.2451973357E-02+
*       -2.500000000E-01               0
GRID*              14356               02.6553614482E-01-1.872904746E-01+
*       -2.500000000E-01               0
GRID*              14357               03.4144372177E-01-1.872920239E-01+
*       -2.500000000E-01               0
GRID*              14358               03.0350951602E-01-2.497372394E-01+
*       -2.500000000E-01               0
GRID*              14359               02.2757898180E-01-1.248432082E-01+
*       -2.500000000E-01               0
GRID*              14360               01.8961538494E-01-6.241135560E-02+
*       -2.500000000E-01               0
GRID*              14361               02.6550675371E-01-6.241340655E-02+
*       -2.500000000E-01               0
GRID*              14362               03.4148207826E-01-3.122131001E-01+
*       -2.500000000E-01               0
GRID*              14363               04.1740358159E-01-3.122155557E-01+
*       -2.500000000E-01               0
GRID*              14364               03.7946856687E-01-3.746898671E-01+
*       -2.500000000E-01               0
GRID*              14365               05.6955549837E-01-6.874203776E-01+
*       -2.500000000E-01               0
GRID*              14366               06.4550549628E-01-6.874203776E-01+
*       -2.500000000E-01               0
GRID*              14367               04.1746311658E-01-4.372062297E-01+
*       -2.500000000E-01               0
GRID*              14368               04.9339670573E-01-4.372094988E-01+
*       -2.500000000E-01               0
GRID*              14369               04.5546975211E-01-4.997234059E-01+
*       -2.500000000E-01               0
GRID*              14370               05.3151730421E-01-6.248376360E-01+
*       -2.500000000E-01               0
GRID*              14371               04.9348846912E-01-5.622805959E-01+
*       -2.500000000E-01               0
GRID*              14372               05.6943217634E-01-5.622837151E-01+
*       -2.500000000E-01               0
GRID*              14373               02.2741716268E-011.2482870446E-01+
*       -2.500000000E-01               0
GRID*              14374               02.6536901357E-016.2395177161E-02+
*       -2.500000000E-01               0
GRID*              14375               02.6531834611E-011.8724934734E-01+
*       -2.500000000E-01               0
GRID*              14376               03.0304469796E-012.4957196316E-01+
*       -2.500000000E-01               0
GRID*              14377               03.4092122213E-011.8709452408E-01+
*       -2.500000000E-01               0
GRID*              14378               03.4091622282E-013.1198845950E-01+
*       -2.500000000E-01               0
GRID*              14379               03.7857655836E-013.7427745697E-01+
*       -2.500000000E-01               0
GRID*              14380               04.1630790953E-013.1170613738E-01+
*       -2.500000000E-01               0
GRID*              14381               05.6876218037E-016.8697478950E-01+
*       -2.500000000E-01               0
GRID*              14382               06.4471217827E-016.8697478950E-01+
*       -2.500000000E-01               0
GRID*              14383               04.1646167129E-014.3672053520E-01+
*       -2.500000000E-01               0
GRID*              14384               04.5423797010E-014.9908469295E-01+
*       -2.500000000E-01               0
GRID*              14385               04.9174454389E-014.3635929260E-01+
*       -2.500000000E-01               0
GRID*              14386               05.3043637487E-016.2424023350E-01+
*       -2.500000000E-01               0
GRID*              14387               04.9225960851E-015.6162716917E-01+
*       -2.500000000E-01               0
GRID*              14388               05.6769760906E-015.6133651467E-01+
*       -2.500000000E-01               0
GRID*              14389               03.0331597423E-01-4.235960110E-05+
*       -2.500000000E-01               0
GRID*              14390               03.4114183094E-016.2334371502E-02+
*       -2.500000000E-01               0
GRID*              14391               04.1719638020E-01-1.873651302E-01+
*       -2.500000000E-01               0
GRID*              14392               04.9293254560E-01-1.874524375E-01+
*       -2.500000000E-01               0
GRID*              14393               04.5515325838E-01-2.498260961E-01+
*       -2.500000000E-01               0
GRID*              14394               03.7922300899E-01-1.249183654E-01+
*       -2.500000000E-01               0
GRID*              14395               03.4127957108E-01-6.247421221E-02+
*       -2.500000000E-01               0
GRID*              14396               04.1703222951E-01-6.254731845E-02+
*       -2.500000000E-01               0
GRID*              14397               04.9313974700E-01-3.123028630E-01+
*       -2.500000000E-01               0
GRID*              14398               05.6890645730E-01-3.123976681E-01+
*       -2.500000000E-01               0
GRID*              14399               05.3115678051E-01-3.747871277E-01+
*       -2.500000000E-01               0
GRID*              14400               07.2146546474E-01-6.874810899E-01+
*       -2.500000000E-01               0
GRID*              14401               07.9741546264E-01-6.874810899E-01+
*       -2.500000000E-01               0
GRID*              14402               05.6916341603E-01-4.373043039E-01+
*       -2.500000000E-01               0
GRID*              14403               06.4501709790E-01-4.373936834E-01+
*       -2.500000000E-01               0
GRID*              14404               06.0725702312E-01-4.998160545E-01+
*       -2.500000000E-01               0
GRID*              14405               06.8342097990E-01-6.249014675E-01+
*       -2.500000000E-01               0
GRID*              14406               06.4528585822E-01-5.623730946E-01+
*       -2.500000000E-01               0
GRID*              14407               07.2124582668E-01-5.624338069E-01+
*       -2.500000000E-01               0
GRID*              14408               03.7861023280E-011.2453026984E-01+
*       -2.500000000E-01               0
GRID*              14409               04.1655719346E-016.2092733080E-02+
*       -2.500000000E-01               0
GRID*              14410               04.1633658466E-011.8685288566E-01+
*       -2.500000000E-01               0
GRID*              14411               04.5364836213E-012.4894153124E-01+
*       -2.500000000E-01               0
GRID*              14412               04.9133737280E-011.8637727700E-01+
*       -2.500000000E-01               0
GRID*              14413               04.9130869767E-013.1123052872E-01+
*       -2.500000000E-01               0
GRID*              14414               05.2864253793E-013.7328392016E-01+
*       -2.500000000E-01               0
GRID*              14415               05.6598299053E-013.1051931402E-01+
*       -2.500000000E-01               0
GRID*              14416               07.1986982269E-016.8642149311E-01+
*       -2.500000000E-01               0
GRID*              14417               07.9581982059E-016.8642149311E-01+
*       -2.500000000E-01               0
GRID*              14418               05.6641883674E-014.3564807791E-01+
*       -2.500000000E-01               0
GRID*              14419               06.0421587763E-014.9795381472E-01+
*       -2.500000000E-01               0
GRID*              14420               06.4111387167E-014.3487844228E-01+
*       -2.500000000E-01               0
GRID*              14421               06.8103201984E-016.2339628261E-01+
*       -2.500000000E-01               0
GRID*              14422               06.4239264399E-015.6056687905E-01+
*       -2.500000000E-01               0
GRID*              14423               07.1755028841E-015.6001358266E-01+
*       -2.500000000E-01               0
GRID*              14424               04.5434267709E-01-4.051462561E-04+
*       -2.500000000E-01               0
GRID*              14425               04.9181107895E-016.1790752084E-02+
*       -2.500000000E-01               0
GRID*              14426               05.6806391624E-01-1.877996133E-01+
*       -2.500000000E-01               0
GRID*              14427               06.4326458623E-01-1.881098490E-01+
*       -2.500000000E-01               0
GRID*              14428               06.0609009378E-01-2.502236391E-01+
*       -2.500000000E-01               0
GRID*              14429               05.3010703805E-01-1.253386474E-01+
*       -2.500000000E-01               0
GRID*              14430               04.9228611500E-01-6.284929945E-02+
*       -2.500000000E-01               0
GRID*              14431               05.6741748563E-01-6.319647520E-02+
*       -2.500000000E-01               0
GRID*              14432               06.4410712729E-01-3.127079038E-01+
*       -2.500000000E-01               0
GRID*              14433               07.1966960317E-01-3.129002990E-01+
*       -2.500000000E-01               0
GRID*              14434               06.8248596669E-01-3.750743280E-01+
*       -2.500000000E-01               0
GRID*              14435               08.7357371638E-01-6.876613215E-01+
*       -2.500000000E-01               0
GRID*              14436               09.4952371429E-01-6.876613215E-01+
*       -2.500000000E-01               0
GRID*              14437               07.2057957379E-01-4.375860786E-01+
*       -2.500000000E-01               0
GRID*              14438               07.9663085278E-01-4.377081392E-01+
*       -2.500000000E-01               0
GRID*              14439               07.5916198399E-01-5.000274945E-01+
*       -2.500000000E-01               0
GRID*              14440               08.3553920210E-01-6.251424114E-01+
*       -2.500000000E-01               0
GRID*              14441               07.9729710567E-01-5.625558675E-01+
*       -2.500000000E-01               0
GRID*              14442               08.7345535941E-01-5.627360991E-01+
*       -2.500000000E-01               0
GRID*              14443               05.2860344545E-011.2365176522E-01+
*       -2.500000000E-01               0
GRID*              14444               05.6591522292E-011.8574041080E-01+
*       -2.500000000E-01               0
GRID*              14445               06.4155961580E-01-6.394436631E-02+
*       -2.500000000E-01               0
GRID*              14446               07.1561737344E-01-6.443085221E-02+
*       -2.500000000E-01               0
GRID*              14447               06.7929616632E-01-1.261723090E-01+
*       -2.500000000E-01               0
GRID*              14448               06.0373869275E-01-1.455018366E-03+
*       -2.500000000E-01               0
GRID*              14449               05.6638892908E-016.1153885884E-02+
*       -2.500000000E-01               0
GRID*              14450               06.4053105924E-016.0405994771E-02+
*       -2.500000000E-01               0
GRID*              14451               07.1732234387E-01-1.885963349E-01+
*       -2.500000000E-01               0
GRID*              14452               07.9216603029E-01-1.884335701E-01+
*       -2.500000000E-01               0
GRID*              14453               07.5613445019E-01-2.503711101E-01+
*       -2.500000000E-01               0
GRID*              14454               07.9451328960E-01-3.127375342E-01+
*       -2.500000000E-01               0
GRID*              14455               08.7068318483E-01-3.124548681E-01+
*       -2.500000000E-01               0
GRID*              14456               08.3421833781E-01-3.749840571E-01+
*       -2.500000000E-01               0
GRID*              14457               01.0256515029E+00-6.883526953E-01+
*       -2.500000000E-01               0
GRID*              14458               01.1016015008E+00-6.883526953E-01+
*       -2.500000000E-01               0
GRID*              14459               08.7280074801E-01-4.374254731E-01+
*       -2.500000000E-01               0
GRID*              14460               09.4937956158E-01-4.378770417E-01+
*       -2.500000000E-01               0
GRID*              14461               09.1179207655E-01-5.006011238E-01+
*       -2.500000000E-01               0
GRID*              14462               09.8782524448E-01-6.260140168E-01+
*       -2.500000000E-01               0
GRID*              14463               09.5003417298E-01-5.631876677E-01+
*       -2.500000000E-01               0
GRID*              14464               01.0261619616E+00-5.638790415E-01+
*       -2.500000000E-01               0
GRID*              14465               06.0255790339E-012.4740930943E-01+
*       -2.500000000E-01               0
GRID*              14466               06.3989174364E-013.0946270087E-01+
*       -2.500000000E-01               0
GRID*              14467               06.3982397604E-011.8468379765E-01+
*       -2.500000000E-01               0
GRID*              14468               07.1297221775E-011.8346881371E-01+
*       -2.500000000E-01               0
GRID*              14469               06.7632953728E-011.2179991508E-01+
*       -2.500000000E-01               0
GRID*              14470               07.8827051789E-01-6.515150004E-02+
*       -2.500000000E-01               0
GRID*              14471               08.6138796601E-01-6.434392140E-02+
*       -2.500000000E-01               0
GRID*              14472               08.2647137208E-01-1.258512163E-01+
*       -2.500000000E-01               0
GRID*              14473               07.5053396737E-01-2.923557303E-03+
*       -2.500000000E-01               0
GRID*              14474               07.1367930096E-015.9191010833E-02+
*       -2.500000000E-01               0
GRID*              14475               07.8633244541E-015.8470363009E-02+
*       -2.500000000E-01               0
GRID*              14476               08.6528347841E-01-1.876259915E-01+
*       -2.500000000E-01               0
GRID*              14477               09.4114511478E-01-1.854456155E-01+
*       -2.500000000E-01               0
GRID*              14478               09.0683977299E-01-2.480279693E-01+
*       -2.500000000E-01               0
GRID*              14479               09.4654482120E-01-3.102744921E-01+
*       -2.500000000E-01               0
GRID*              14480               01.0246255819E+00-3.099427106E-01+
*       -2.500000000E-01               0
GRID*              14481               09.8846899376E-01-3.743696094E-01+
*       -2.500000000E-01               0
GRID*              14482               01.1767693695E+00-6.896272431E-01+
*       -2.500000000E-01               0
GRID*              14483               01.2527193674E+00-6.896272431E-01+
*       -2.500000000E-01               0
GRID*              14484               01.1391209018E+00-6.279799384E-01+
*       -2.500000000E-01               0
GRID*              14485               01.0274603223E+00-4.375452602E-01+
*       -2.500000000E-01               0
GRID*              14486               01.1042030006E+00-4.393900916E-01+
*       -2.500000000E-01               0
GRID*              14487               01.0651135684E+00-5.028975238E-01+
*       -2.500000000E-01               0
GRID*              14488               01.1029046399E+00-5.657238729E-01+
*       -2.500000000E-01               0
GRID*              14489               01.1780725086E+00-5.669984207E-01+
*       -2.500000000E-01               0
GRID*              14490               07.9177595060E-015.5867571500E-01+
*       -2.500000000E-01               0
GRID*              14491               07.5313657476E-014.9584631144E-01+
*       -2.500000000E-01               0
GRID*              14492               01.0162520858E+005.5438382160E-01+
*       -2.500000000E-01               0
GRID*              14493               01.0505139204E+004.8680324625E-01+
*       -2.500000000E-01               0
GRID*              14494               08.7094828009E-016.8547425981E-01+
*       -2.500000000E-01               0
GRID*              14495               08.3131812376E-016.2189575292E-01+
*       -2.500000000E-01               0
GRID*              14496               09.4689827800E-016.8547425981E-01+
*       -2.500000000E-01               0
GRID*              14497               09.8172102259E-016.1971624162E-01+
*       -2.500000000E-01               0
GRID*              14498               08.6690441011E-015.5772848169E-01+
*       -2.500000000E-01               0
GRID*              14499               09.4097764650E-015.5561609960E-01+
*       -2.500000000E-01               0
GRID*              14500               09.0143547335E-014.9239606168E-01+
*       -2.500000000E-01               0
GRID*              14501               07.1487145399E-014.3346930178E-01+
*       -2.500000000E-01               0
GRID*              14502               07.8909711619E-014.3213143412E-01+
*       -2.500000000E-01               0
GRID*              14503               06.7707441310E-013.7116356496E-01+
*       -2.500000000E-01               0
GRID*              14504               07.1364932596E-013.0805356037E-01+
*       -2.500000000E-01               0
GRID*              14505               08.6215375123E-014.3004620826E-01+
*       -2.500000000E-01               0
GRID*              14506               09.3622698762E-014.2793382616E-01+
*       -2.500000000E-01               0
GRID*              14507               08.2388863046E-013.6766919860E-01+
*       -2.500000000E-01               0
GRID*              14508               07.8638729014E-013.0630773981E-01+
*       -2.500000000E-01               0
GRID*              14509               08.5944392518E-013.0422251395E-01+
*       -2.500000000E-01               0
GRID*              14510               07.4920462068E-012.4460687572E-01+
*       -2.500000000E-01               0
GRID*              14511               07.8571018193E-011.8172299316E-01+
*       -2.500000000E-01               0
GRID*              14512               01.0088149367E+004.2439612573E-01+
*       -2.500000000E-01               0
GRID*              14513               09.6953321458E-013.6204627230E-01+
*       -2.500000000E-01               0
GRID*              14514               01.0838201474E+004.2091569239E-01+
*       -2.500000000E-01               0
GRID*              14515               01.1136212764E+003.5248734591E-01+
*       -2.500000000E-01               0
GRID*              14516               01.1447366829E+002.8792632002E-01+
*       -2.500000000E-01               0
GRID*              14517               01.0732365702E+002.9394754597E-01+
*       -2.500000000E-01               0
GRID*              14518               01.1713930007E+002.2359973432E-01+
*       -2.500000000E-01               0
GRID*              14519               09.3092440322E-013.0156179590E-01+
*       -2.500000000E-01               0
GRID*              14520               08.9342306290E-012.4020033711E-01+
*       -2.500000000E-01               0
GRID*              14521               01.0035123523E+002.9802409546E-01+
*       -2.500000000E-01               0
GRID*              14522               01.0346277588E+002.3346306956E-01+
*       -2.500000000E-01               0
GRID*              14523               01.2581017677E+00-4.478441516E-01+
*       -2.500000000E-01               0
GRID*              14524               01.3044864376E+00-3.922081345E-01+
*       -2.500000000E-01               0
GRID*              14525               01.3371071007E+00-4.578522076E-01+
*       -2.500000000E-01               0
GRID*              14526               01.2162893387E+00-5.091152900E-01+
*       -2.500000000E-01               0
GRID*              14527               01.2525056006E+00-5.713713555E-01+
*       -2.500000000E-01               0
GRID*              14528               01.1836686756E+00-4.434712168E-01+
*       -2.500000000E-01               0
GRID*              14529               01.1460154295E+00-3.781189532E-01+
*       -2.500000000E-01               0
GRID*              14530               01.3240278766E+00-6.904231280E-01+
*       -2.500000000E-01               0
GRID*              14531               01.3999778745E+00-6.904231280E-01+
*       -2.500000000E-01               0
GRID*              14532               01.2855972796E+00-6.300503711E-01+
*       -2.500000000E-01               0
GRID*              14533               01.3238141098E+00-5.721672404E-01+
*       -2.500000000E-01               0
GRID*              14534               01.3553852350E+00-5.213675517E-01+
*       -2.500000000E-01               0
GRID*              14535               01.3884769140E+00-5.800465674E-01+
*       -2.500000000E-01               0
GRID*              14536               01.4017699050E+00-4.657315346E-01+
*       -2.500000000E-01               0
GRID*              14537               01.4289009792E+00-4.332264906E-01+
*       -2.500000000E-01               0
GRID*              14538               01.4471791135E+00-4.967418346E-01+
*       -2.500000000E-01               0
GRID*              14539               01.4428284916E+00-3.940528205E-01+
*       -2.500000000E-01               0
GRID*              14540               01.4882377001E+00-4.250631205E-01+
*       -2.500000000E-01               0
GRID*              14541               01.5020966855E+00-4.627814420E-01+
*       -2.500000000E-01               0
GRID*              14542               01.5020888992E+00-5.014314158E-01+
*       -2.500000000E-01               0
GRID*              14543               01.4749578250E+00-5.339364599E-01+
*       -2.500000000E-01               0
GRID*              14544               01.5160537122E+00-6.414265111E-01+
*       -2.500000000E-01               0
GRID*              14545               01.5280332312E+00-6.090488518E-01+
*       -2.500000000E-01               0
GRID*              14546               01.4619254816E+00-6.834903010E-01+
*       -2.500000000E-01               0
GRID*              14547               01.4188533959E+00-6.239134290E-01+
*       -2.500000000E-01               0
GRID*              14548               01.5053343068E+00-5.778033215E-01+
*       -2.500000000E-01               0
GRID*              14549               01.4504245211E+00-5.731137403E-01+
*       -2.500000000E-01               0
GRID*              14550               08.5734924448E-011.8039978438E-01+
*       -2.500000000E-01               0
GRID*              14551               09.2882972251E-011.7773906632E-01+
*       -2.500000000E-01               0
GRID*              14552               08.2111684155E-011.1926172237E-01+
*       -2.500000000E-01               0
GRID*              14553               08.5797150795E-015.7147154230E-02+
*       -2.500000000E-01               0
GRID*              14554               08.9388618607E-01-3.377886279E-03+
*       -2.500000000E-01               0
GRID*              14555               09.3208704027E-01-6.407760255E-02+
*       -2.500000000E-01               0
GRID*              14556               09.2867058221E-015.7413473078E-02+
*       -2.500000000E-01               0
GRID*              14557               09.9831228104E-011.7554182115E-01+
*       -2.500000000E-01               0
GRID*              14558               01.0680364989E+001.7146527166E-01+
*       -2.500000000E-01               0
GRID*              14559               09.6223846263E-011.1574126842E-01+
*       -2.500000000E-01               0
GRID*              14560               09.9815314074E-015.5216227907E-02+
*       -2.500000000E-01               0
GRID*              14561               09.7041019230E-01-1.208366581E-01+
*       -2.500000000E-01               0
GRID*              14562               01.0119664869E+00-1.812386359E-01+
*       -2.500000000E-01               0
GRID*              14563               01.0029084124E+00-5.987062296E-02+
*       -2.500000000E-01               0
GRID*              14564               01.1087215337E+00-3.021049429E-01+
*       -2.500000000E-01               0
GRID*              14565               01.1881872087E+00-3.061860681E-01+
*       -2.500000000E-01               0
GRID*              14566               01.0667973611E+00-2.380098256E-01+
*       -2.500000000E-01               0
GRID*              14567               01.0960624386E+00-1.734008681E-01+
*       -2.500000000E-01               0
GRID*              14568               01.1345585073E+001.6828401010E-01+
*       -2.500000000E-01               0
GRID*              14569               01.0982430295E+001.1036276169E-01+
*       -2.500000000E-01               0
GRID*              14570               01.2015995313E+001.6249722434E-01+
*       -2.500000000E-01               0
GRID*              14571               01.2294424660E+001.0194166498E-01+
*       -2.500000000E-01               0
GRID*              14572               01.2702390924E+00-3.216921848E-01+
*       -2.500000000E-01               0
GRID*              14573               01.3492444255E+00-3.317002409E-01+
*       -2.500000000E-01               0
GRID*              14574               01.2329451966E+00-2.456781745E-01+
*       -2.500000000E-01               0
GRID*              14575               01.1532412095E+00-1.626029532E-01+
*       -2.500000000E-01               0
GRID*              14576               01.0984103352E+00-1.058317635E-01+
*       -2.500000000E-01               0
GRID*              14577               01.2088395359E+00-1.788723127E-01+
*       -2.500000000E-01               0
GRID*              14578               01.2908914197E+00-1.943784295E-01+
*       -2.500000000E-01               0
GRID*              14579               01.2111874325E+00-1.113032081E-01+
*       -2.500000000E-01               0
GRID*              14580               01.0307063430E+00-1.701657535E-03+
*       -2.500000000E-01               0
GRID*              14581               01.0642742234E+005.6626137803E-02+
*       -2.500000000E-01               0
GRID*              14582               01.0690294951E+00-5.846071307E-02+
*       -2.500000000E-01               0
GRID*              14583               01.1262082659E+00-4.766279810E-02+
*       -2.500000000E-01               0
GRID*              14584               01.1885000770E+00-5.165563108E-02+
*       -2.500000000E-01               0
GRID*              14585               01.2440984035E+00-6.792499065E-02+
*       -2.500000000E-01               0
GRID*              14586               01.1591192368E+00-4.284580618E-03+
*       -2.500000000E-01               0
GRID*              14587               01.1307962318E+005.3444876246E-02+
*       -2.500000000E-01               0
GRID*              14588               01.1930880429E+004.9452043267E-02+
*       -2.500000000E-01               0
GRID*              14589               01.3857192356E+00-2.695950187E-01+
*       -2.500000000E-01               0
GRID*              14590               01.3589391675E+00-2.052951092E-01+
*       -2.500000000E-01               0
GRID*              14591               01.4199665808E+00-3.401109684E-01+
*       -2.500000000E-01               0
GRID*              14592               01.3348335069E+00-1.384892474E-01+
*       -2.500000000E-01               0
GRID*              14593               01.3079382230E+00-7.569498872E-02+
*       -2.500000000E-01               0
GRID*              14594               01.2852508675E+00-1.604741166E-02+
*       -2.500000000E-01               0
GRID*              14595               01.2577654710E+004.4212208115E-02+
*       -2.500000000E-01               0
GRID*              14596               01.8004212922E+00-4.585611183E-01+
*       -2.500000000E-01               0
GRID*              14597               01.8004134849E+00-4.971702810E-01+
*       -2.500000000E-01               0
GRID*              14598               01.8150364533E+00-4.071821865E-01+
*       -2.500000000E-01               0
GRID*              14599               01.8659737291E+00-4.528537061E-01+
*       -2.500000000E-01               0
GRID*              14600               01.8659737291E+00-5.278537061E-01+
*       -2.500000000E-01               0
GRID*              14601               0-1.800411768E+004.5853052985E-01+
*       -2.500000000E-01               0
GRID*              14602               0-1.800403957E+004.9718050423E-01+
*       -2.500000000E-01               0
GRID*              14603               0-1.814576608E+004.0803254230E-01+
*       -2.500000000E-01               0
GRID*              14604               0-1.865970554E+004.5284350995E-01+
*       -2.500000000E-01               0
GRID*              14605               0-1.865970554E+005.2784350995E-01+
*       -2.500000000E-01               0
GRID*              14606               01.8004173820E+004.9713429876E-01+
*       -2.500000000E-01               0
GRID*              14607               01.8004096014E+004.5852513599E-01+
*       -2.500000000E-01               0
GRID*              14608               01.8143324695E+004.0627265574E-01+
*       -2.500000000E-01               0
GRID*              14609               01.8659698322E+004.5284171200E-01+
*       -2.500000000E-01               0
GRID*              14610               01.8659698322E+005.2784171200E-01+
*       -2.500000000E-01               0
GRID*              14611               0-1.800407861E+00-4.971444799E-01+
*       -2.500000000E-01               0
GRID*              14612               0-1.800400055E+00-4.584945055E-01+
*       -2.500000000E-01               0
GRID*              14613               0-1.817408801E+00-4.058217930E-01+
*       -2.500000000E-01               0
GRID*              14614               0-1.865966650E+00-4.528315018E-01+
*       -2.500000000E-01               0
GRID*              14615               0-1.865966650E+00-5.278315018E-01+
*       -2.500000000E-01               0
GRID*              14616               01.5865656067E+00-6.766862076E-01+
*       -2.500000000E-01               0
GRID*              14617               01.6083873740E+00-7.187499975E-01+
*       -2.500000000E-01               0
GRID*              14618               01.6352622100E+00-6.562499924E-01+
*       -2.500000000E-01               0
GRID*              14619               01.6843373719E+00-7.187499975E-01+
*       -2.500000000E-01               0
GRID*              14620               01.6720175461E+00-6.443182038E-01+
*       -2.500000000E-01               0
GRID*              14621               01.6400102372E+006.3630240293E-01+
*       -2.500000000E-01               0
GRID*              14622               0-1.586571146E+006.7669682475E-01+
*       -2.500000000E-01               0
GRID*              14623               0-1.608399954E+007.1875000000E-01+
*       -2.500000000E-01               0
GRID*              14624               0-1.635299950E+006.5625000000E-01+
*       -2.500000000E-01               0
GRID*              14625               0-1.684349952E+007.1875000000E-01+
*       -2.500000000E-01               0
GRID*              14626               0-1.672021793E+006.4432340244E-01+
*       -2.500000000E-01               0
GRID*              14627               0-1.640006523E+00-6.362979674E-01+
*       -2.500000000E-01               0
GRID*              14628               0-1.818826449E+005.5015691097E-01+
*       -2.500000000E-01               0
GRID*              14629               01.8188335852E+00-5.501627765E-01+
*       -2.500000000E-01               0
GRID*              14630               0-1.810714604E+00-5.531905441E-01+
*       -2.500000000E-01               0
GRID*              14631               01.8107202352E+005.5319747065E-01+
*       -2.500000000E-01               0
GRID*              14632               01.5368787260E+006.5051074503E-01+
*       -2.500000000E-01               0
GRID*              14633               01.5802171922E+006.3836006421E-01+
*       -2.500000000E-01               0
GRID*              14634               01.5900390347E+007.1278668807E-01+
*       -2.500000000E-01               0
GRID*              14635               01.6449211561E+006.7351571760E-01+
*       -2.500000000E-01               0
GRID*              14636               0-1.536845428E+00-6.505147891E-01+
*       -2.500000000E-01               0
GRID*              14637               0-1.580204805E+00-6.383523524E-01+
*       -2.500000000E-01               0
GRID*              14638               0-1.590034905E+00-7.127841175E-01+
*       -2.500000000E-01               0
GRID*              14639               0-1.644921574E+00-6.735138498E-01+
*       -2.500000000E-01               0
GRID*              14640               0-1.713155844E+006.6606340102E-01+
*       -2.500000000E-01               0
GRID*              14641               01.7131472259E+00-6.660590678E-01+
*       -2.500000000E-01               0
GRID*              14642               03.0588248290E-01-6.241959803E-01+
*       0.0000000000E+00               0
GRID*              14643               02.2916306987E-01-4.988949474E-01+
*       0.0000000000E+00               0
GRID*              14644               01.5266726050E-01-3.740165233E-01+
*       0.0000000000E+00               0
GRID*              14645               07.6240395781E-02-2.493005453E-01+
*       0.0000000000E+00               0
GRID*              14646               0-1.158407484E-04-1.247347686E-01+
*       0.0000000000E+00               0
GRID*              14647               0-7.637297663E-02-3.522085222E-04+
*       0.0000000000E+00               0
GRID*              14648               0-1.524954556E-011.2387555723E-01+
*       0.0000000000E+00               0
GRID*              14649               0-2.284850775E-012.4794537691E-01+
*       0.0000000000E+00               0
GRID*              14650               0-3.045958369E-013.7212877751E-01+
*       0.0000000000E+00               0
GRID*              14651               0-3.809718818E-014.9651511641E-01+
*       0.0000000000E+00               0
GRID*              14652               0-4.577867627E-016.2193020870E-01+
*       0.0000000000E+00               0
GRID*              14653               0-1.532414867E-01-6.247570990E-01+
*       0.0000000000E+00               0
GRID*              14654               0-2.298080777E-01-4.996580361E-01+
*       0.0000000000E+00               0
GRID*              14655               0-3.061546992E-01-3.749678326E-01+
*       0.0000000000E+00               0
GRID*              14656               0-3.818417761E-01-2.508350705E-01+
*       0.0000000000E+00               0
GRID*              14657               0-4.556619065E-01-1.274629043E-01+
*       0.0000000000E+00               0
GRID*              14658               0-5.269092512E-01-5.588698338E-03+
*       0.0000000000E+00               0
GRID*              14659               0-5.979398984E-011.1314000847E-01+
*       0.0000000000E+00               0
GRID*              14660               0-6.725058084E-012.2988885459E-01+
*       0.0000000000E+00               0
GRID*              14661               0-7.499131047E-013.4942154247E-01+
*       0.0000000000E+00               0
GRID*              14662               0-8.279419772E-014.7314478915E-01+
*       0.0000000000E+00               0
GRID*              14663               0-9.054142644E-016.0134334908E-01+
*       0.0000000000E+00               0
GRID*              14664               0-4.584667382E-01-3.755883058E-01+
*       0.0000000000E+00               0
GRID*              14665               0-5.352497095E-01-5.006217227E-01+
*       0.0000000000E+00               0
GRID*              14666               0-6.124542797E-01-6.252040754E-01+
*       0.0000000000E+00               0
GRID*              14667               0-3.825527766E-01-5.001225947E-01+
*       0.0000000000E+00               0
GRID*              14668               0-3.062715445E-01-6.249318092E-01+
*       0.0000000000E+00               0
GRID*              14669               0-4.592381811E-01-6.251488876E-01+
*       0.0000000000E+00               0
GRID*              14670               0-5.317935388E-01-2.514089855E-01+
*       0.0000000000E+00               0
GRID*              14671               0-6.091846391E-01-3.755324190E-01+
*       0.0000000000E+00               0
GRID*              14672               0-6.882290605E-01-4.990490382E-01+
*       0.0000000000E+00               0
GRID*              14673               0-7.675309872E-01-6.227266058E-01+
*       0.0000000000E+00               0
GRID*              14674               0-6.008631929E-01-1.269332853E-01+
*       0.0000000000E+00               0
GRID*              14675               0-6.797765644E-01-2.475270169E-01+
*       0.0000000000E+00               0
GRID*              14676               0-7.615271598E-01-3.700356519E-01+
*       0.0000000000E+00               0
GRID*              14677               0-8.442787993E-01-4.924543989E-01+
*       0.0000000000E+00               0
GRID*              14678               0-9.301265186E-01-6.161971166E-01+
*       0.0000000000E+00               0
GRID*              14679               0-1.012016817E+004.1520650866E-02+
*       0.0000000000E+00               0
GRID*              14680               0-8.676872217E-017.6910053836E-02+
*       0.0000000000E+00               0
GRID*              14681               0-7.337952875E-011.0266513034E-01+
*       0.0000000000E+00               0
GRID*              14682               0-8.134414163E-012.1306217611E-01+
*       0.0000000000E+00               0
GRID*              14683               0-8.948731498E-013.3254654305E-01+
*       0.0000000000E+00               0
GRID*              14684               0-9.610014922E-011.8851766311E-01+
*       0.0000000000E+00               0
GRID*              14685               0-1.041025019E+003.1454985497E-01+
*       0.0000000000E+00               0
GRID*              14686               0-9.738379459E-014.5627877627E-01+
*       0.0000000000E+00               0
GRID*              14687               0-1.033743202E+005.6867029385E-01+
*       0.0000000000E+00               0
GRID*              14688               0-7.805758168E-01-4.992943297E-03+
*       0.0000000000E+00               0
GRID*              14689               0-7.418856057E-01-1.175406437E-01+
*       0.0000000000E+00               0
GRID*              14690               0-6.636705356E-01-6.313264049E-03+
*       0.0000000000E+00               0
GRID*              14691               0-8.973209847E-01-7.828889983E-02+
*       0.0000000000E+00               0
GRID*              14692               0-8.325360088E-01-2.346010391E-01+
*       0.0000000000E+00               0
GRID*              14693               0-1.004681228E+00-2.254098196E-01+
*       0.0000000000E+00               0
GRID*              14694               0-1.043702382E+00-8.127568337E-02+
*       0.0000000000E+00               0
GRID*              14695               0-9.148846304E-01-3.623515923E-01+
*       0.0000000000E+00               0
GRID*              14696               0-1.044476139E+00-3.649077190E-01+
*       0.0000000000E+00               0
GRID*              14697               0-1.004297798E+00-4.800126298E-01+
*       0.0000000000E+00               0
GRID*              14698               01.5292103086E-01-6.245346518E-01+
*       0.0000000000E+00               0
GRID*              14699               0-1.220604677E-04-6.247192758E-01+
*       0.0000000000E+00               0
GRID*              14700               07.6270863734E-02-4.993556499E-01+
*       0.0000000000E+00               0
GRID*              14701               0-7.672969964E-02-4.995945502E-01+
*       0.0000000000E+00               0
GRID*              14702               0-4.529618422E-011.1866316643E-01+
*       0.0000000000E+00               0
GRID*              14703               0-3.037677451E-011.2185490069E-01+
*       0.0000000000E+00               0
GRID*              14704               0-4.550719609E-013.6805171988E-01+
*       0.0000000000E+00               0
GRID*              14705               0-6.031760774E-013.6076162762E-01+
*       0.0000000000E+00               0
GRID*              14706               0-5.268229425E-012.3916363336E-01+
*       0.0000000000E+00               0
GRID*              14707               0-3.785820730E-012.4452408637E-01+
*       0.0000000000E+00               0
GRID*              14708               0-6.801951945E-014.8453868930E-01+
*       0.0000000000E+00               0
GRID*              14709               0-7.589179069E-016.1274512938E-01+
*       0.0000000000E+00               0
GRID*              14710               0-5.309901799E-014.9163158466E-01+
*       0.0000000000E+00               0
GRID*              14711               0-6.087590385E-016.1834015513E-01+
*       0.0000000000E+00               0
GRID*              14712               0-3.048241899E-01-1.263286974E-01+
*       0.0000000000E+00               0
GRID*              14713               0-1.527500212E-01-1.254211748E-01+
*       0.0000000000E+00               0
GRID*              14714               0-2.283440862E-01-1.610403088E-03+
*       0.0000000000E+00               0
GRID*              14715               0-3.787047421E-01-3.423538911E-03+
*       0.0000000000E+00               0
GRID*              14716               0-7.661112064E-02-2.497690935E-01+
*       0.0000000000E+00               0
GRID*              14717               0-2.434702442E-04-3.744220908E-01+
*       0.0000000000E+00               0
GRID*              14718               0-1.531765378E-01-3.747554229E-01+
*       0.0000000000E+00               0
GRID*              14719               0-2.291985982E-01-2.503565618E-01+
*       0.0000000000E+00               0
GRID*              14720               07.6008843000E-01-6.142010094E-01+
*       0.0000000000E+00               0
GRID*              14721               06.8184447253E-01-4.861647868E-01+
*       0.0000000000E+00               0
GRID*              14722               06.0490233658E-01-3.616779444E-01+
*       0.0000000000E+00               0
GRID*              14723               05.2891289510E-01-2.395679842E-01+
*       0.0000000000E+00               0
GRID*              14724               04.5400439742E-01-1.183164599E-01+
*       0.0000000000E+00               0
GRID*              14725               03.7973820853E-013.4199644473E-03+
*       0.0000000000E+00               0
GRID*              14726               03.0495899141E-011.2637814041E-01+
*       0.0000000000E+00               0
GRID*              14727               02.2934017691E-012.5023210784E-01+
*       0.0000000000E+00               0
GRID*              14728               01.5318386234E-013.7466990549E-01+
*       0.0000000000E+00               0
GRID*              14729               07.6727493531E-024.9956462808E-01+
*       0.0000000000E+00               0
GRID*              14730               01.1974690592E-046.2471143129E-01+
*       0.0000000000E+00               0
GRID*              14731               07.6410103809E-023.0120751554E-04+
*       0.0000000000E+00               0
GRID*              14732               02.2860340651E-011.4982059906E-03+
*       0.0000000000E+00               0
GRID*              14733               0-1.523761429E-013.7359090513E-01+
*       0.0000000000E+00               0
GRID*              14734               02.9167569641E-043.7433909120E-01+
*       0.0000000000E+00               0
GRID*              14735               0-1.528808777E-016.2444791199E-01+
*       0.0000000000E+00               0
GRID*              14736               0-7.618719992E-024.9921591646E-01+
*       0.0000000000E+00               0
GRID*              14737               0-3.055310737E-016.2355198032E-01+
*       0.0000000000E+00               0
GRID*              14738               0-2.287315501E-014.9818860341E-01+
*       0.0000000000E+00               0
GRID*              14739               07.6609445894E-022.4975908272E-01+
*       0.0000000000E+00               0
GRID*              14740               01.5265740463E-011.2550408716E-01+
*       0.0000000000E+00               0
GRID*              14741               01.0188560487E-041.2471893892E-01+
*       0.0000000000E+00               0
GRID*              14742               0-7.605119778E-022.4901495160E-01+
*       0.0000000000E+00               0
GRID*              14743               04.5560771344E-01-3.684385516E-01+
*       0.0000000000E+00               0
GRID*              14744               03.0474427893E-01-3.721228153E-01+
*       0.0000000000E+00               0
GRID*              14745               04.5820248781E-01-6.226469302E-01+
*       0.0000000000E+00               0
GRID*              14746               03.8099432559E-01-4.966060141E-01+
*       0.0000000000E+00               0
GRID*              14747               06.0959494643E-01-6.193163413E-01+
*       0.0000000000E+00               0
GRID*              14748               05.3176932098E-01-4.923092495E-01+
*       0.0000000000E+00               0
GRID*              14749               02.2859584823E-01-2.478820133E-01+
*       0.0000000000E+00               0
GRID*              14750               01.5240475415E-01-1.237204391E-01+
*       0.0000000000E+00               0
GRID*              14751               03.0393310686E-01-1.216861266E-01+
*       0.0000000000E+00               0
GRID*              14752               03.7923537968E-01-2.445595292E-01+
*       0.0000000000E+00               0
GRID*              14753               09.0587568988E-01-6.019503856E-01+
*       0.0000000000E+00               0
GRID*              14754               08.2857402849E-01-4.736459109E-01+
*       0.0000000000E+00               0
GRID*              14755               07.5040145961E-01-3.493046114E-01+
*       0.0000000000E+00               0
GRID*              14756               06.7275322284E-01-2.291719333E-01+
*       0.0000000000E+00               0
GRID*              14757               05.9778757131E-01-1.121823130E-01+
*       0.0000000000E+00               0
GRID*              14758               05.2618156450E-016.1246476325E-03+
*       0.0000000000E+00               0
GRID*              14759               04.5484131482E-011.2774072571E-01+
*       0.0000000000E+00               0
GRID*              14760               03.8119637891E-012.5100698092E-01+
*       0.0000000000E+00               0
GRID*              14761               03.0580740288E-013.7512545246E-01+
*       0.0000000000E+00               0
GRID*              14762               02.2964922465E-014.9980153568E-01+
*       0.0000000000E+00               0
GRID*              14763               01.5318578622E-016.2481531556E-01+
*       0.0000000000E+00               0
GRID*              14764               04.5817442151E-013.7574178567E-01+
*       0.0000000000E+00               0
GRID*              14765               05.3512788984E-015.0070996336E-01+
*       0.0000000000E+00               0
GRID*              14766               06.1240936171E-016.2523923293E-01+
*       0.0000000000E+00               0
GRID*              14767               03.8237716905E-015.0022705874E-01+
*       0.0000000000E+00               0
GRID*              14768               03.0619390308E-016.2499014833E-01+
*       0.0000000000E+00               0
GRID*              14769               04.5916483707E-016.2519724440E-01+
*       0.0000000000E+00               0
GRID*              14770               05.3135331131E-012.5163556963E-01+
*       0.0000000000E+00               0
GRID*              14771               06.0896893477E-013.7568009343E-01+
*       0.0000000000E+00               0
GRID*              14772               06.8813247380E-014.9912703115E-01+
*       0.0000000000E+00               0
GRID*              14773               07.6749518957E-016.2275703048E-01+
*       0.0000000000E+00               0
GRID*              14774               06.0039370257E-011.2729631570E-01+
*       0.0000000000E+00               0
GRID*              14775               06.7951094657E-012.4775671681E-01+
*       0.0000000000E+00               0
GRID*              14776               07.6139134484E-013.7016472978E-01+
*       0.0000000000E+00               0
GRID*              14777               08.4421540536E-014.9251655744E-01+
*       0.0000000000E+00               0
GRID*              14778               09.3010301459E-016.1621854221E-01+
*       0.0000000000E+00               0
GRID*              14779               01.0120153006E+00-4.139534683E-02+
*       0.0000000000E+00               0
GRID*              14780               08.6769549583E-01-7.655557922E-02+
*       0.0000000000E+00               0
GRID*              14781               07.3376147236E-01-1.020964285E-01+
*       0.0000000000E+00               0
GRID*              14782               08.1362131499E-01-2.128037015E-01+
*       0.0000000000E+00               0
GRID*              14783               08.9518563845E-01-3.326635681E-01+
*       0.0000000000E+00               0
GRID*              14784               09.6111933368E-01-1.884521969E-01+
*       0.0000000000E+00               0
GRID*              14785               01.0411631063E+00-3.146504639E-01+
*       0.0000000000E+00               0
GRID*              14786               09.7414682784E-01-4.565337322E-01+
*       0.0000000000E+00               0
GRID*              14787               01.0338881614E+00-5.688865733E-01+
*       0.0000000000E+00               0
GRID*              14788               07.8044433861E-015.4098397534E-03+
*       0.0000000000E+00               0
GRID*              14789               07.4164155923E-011.1787937825E-01+
*       0.0000000000E+00               0
GRID*              14790               06.6338893678E-016.8369094534E-03+
*       0.0000000000E+00               0
GRID*              14791               08.9724661897E-017.8518944009E-02+
*       0.0000000000E+00               0
GRID*              14792               08.3239677035E-012.3478445551E-01+
*       0.0000000000E+00               0
GRID*              14793               01.0046347798E+002.2549246121E-01+
*       0.0000000000E+00               0
GRID*              14794               01.0436786850E+008.1364208606E-02+
*       0.0000000000E+00               0
GRID*              14795               09.1481202635E-013.6244049217E-01+
*       0.0000000000E+00               0
GRID*              14796               01.0444482322E+003.6494558858E-01+
*       0.0000000000E+00               0
GRID*              14797               01.0042661475E+004.8004954658E-01+
*       0.0000000000E+00               0
GRID*              14798               0-1.914957500E-01-6.873785495E-01+
*       0.0000000000E+00               0
GRID*              14799               0-1.149124122E-01-6.873785495E-01+
*       0.0000000000E+00               0
GRID*              14800               0-5.742688221E-01-6.876020377E-01+
*       0.0000000000E+00               0
GRID*              14801               0-6.508521599E-01-6.876020377E-01+
*       0.0000000000E+00               0
GRID*              14802               0-3.823107187E-01-3.752780692E-01+
*       0.0000000000E+00               0
GRID*              14803               0-3.439982376E-01-3.129014515E-01+
*       0.0000000000E+00               0
GRID*              14804               0-4.201542571E-01-3.132116881E-01+
*       0.0000000000E+00               0
GRID*              14805               0-3.443537379E-01-4.375452137E-01+
*       0.0000000000E+00               0
GRID*              14806               0-3.061804272E-01-4.998903154E-01+
*       0.0000000000E+00               0
GRID*              14807               0-2.679813885E-01-4.373129343E-01+
*       0.0000000000E+00               0
GRID*              14808               0-4.205097574E-01-4.378554502E-01+
*       0.0000000000E+00               0
GRID*              14809               0-4.968582238E-01-4.381050142E-01+
*       0.0000000000E+00               0
GRID*              14810               0-4.589012430E-01-5.003721587E-01+
*       0.0000000000E+00               0
GRID*              14811               0-2.297565156E-01-6.248444541E-01+
*       0.0000000000E+00               0
GRID*              14812               0-2.680107789E-01-6.874659046E-01+
*       0.0000000000E+00               0
GRID*              14813               0-2.680398111E-01-5.622949226E-01+
*       0.0000000000E+00               0
GRID*              14814               0-3.444121605E-01-5.625272020E-01+
*       0.0000000000E+00               0
GRID*              14815               0-1.915247822E-01-5.622075675E-01+
*       0.0000000000E+00               0
GRID*              14816               0-3.445941167E-01-6.874659046E-01+
*       0.0000000000E+00               0
GRID*              14817               0-5.358462304E-01-6.251764815E-01+
*       0.0000000000E+00               0
GRID*              14818               0-4.972439453E-01-5.628853051E-01+
*       0.0000000000E+00               0
GRID*              14819               0-5.738519946E-01-5.629128990E-01+
*       0.0000000000E+00               0
GRID*              14820               0-4.976607728E-01-6.875744438E-01+
*       0.0000000000E+00               0
GRID*              14821               0-4.210774350E-01-6.875744438E-01+
*       0.0000000000E+00               0
GRID*              14822               0-3.827548628E-01-6.250403484E-01+
*       0.0000000000E+00               0
GRID*              14823               0-4.208954788E-01-5.626357411E-01+
*       0.0000000000E+00               0
GRID*              14824               0-4.568176574E-01-2.511220280E-01+
*       0.0000000000E+00               0
GRID*              14825               0-4.187518413E-01-1.891489874E-01+
*       0.0000000000E+00               0
GRID*              14826               0-4.937277226E-01-1.894359449E-01+
*       0.0000000000E+00               0
GRID*              14827               0-4.951301385E-01-3.134986456E-01+
*       0.0000000000E+00               0
GRID*              14828               0-5.704890889E-01-3.134707022E-01+
*       0.0000000000E+00               0
GRID*              14829               0-5.338256886E-01-3.755603624E-01+
*       0.0000000000E+00               0
GRID*              14830               0-5.722171743E-01-4.380770708E-01+
*       0.0000000000E+00               0
GRID*              14831               0-6.487068498E-01-4.372907286E-01+
*       0.0000000000E+00               0
GRID*              14832               0-6.117393850E-01-4.998353804E-01+
*       0.0000000000E+00               0
GRID*              14833               0-7.283905136E-01-6.863633029E-01+
*       0.0000000000E+00               0
GRID*              14834               0-8.049738514E-01-6.863633029E-01+
*       0.0000000000E+00               0
GRID*              14835               0-6.899926335E-01-6.239653406E-01+
*       0.0000000000E+00               0
GRID*              14836               0-6.503416701E-01-5.621265568E-01+
*       0.0000000000E+00               0
GRID*              14837               0-7.278800239E-01-5.608878220E-01+
*       0.0000000000E+00               0
GRID*              14838               0-5.282625497E-01-1.271980948E-01+
*       0.0000000000E+00               0
GRID*              14839               0-4.912855788E-01-6.652580131E-02+
*       0.0000000000E+00               0
GRID*              14840               0-5.638862220E-01-6.626099183E-02+
*       0.0000000000E+00               0
GRID*              14841               0-5.663283658E-01-1.891711354E-01+
*       0.0000000000E+00               0
GRID*              14842               0-6.403198786E-01-1.872301511E-01+
*       0.0000000000E+00               0
GRID*              14843               0-6.057850516E-01-2.494680012E-01+
*       0.0000000000E+00               0
GRID*              14844               0-6.444806017E-01-3.115297180E-01+
*       0.0000000000E+00               0
GRID*              14845               0-7.206518621E-01-3.087813344E-01+
*       0.0000000000E+00               0
GRID*              14846               0-6.853558994E-01-3.727840355E-01+
*       0.0000000000E+00               0
GRID*              14847               0-7.248781102E-01-4.345423450E-01+
*       0.0000000000E+00               0
GRID*              14848               0-8.029029795E-01-4.312450254E-01+
*       0.0000000000E+00               0
GRID*              14849               0-7.662539299E-01-4.957517186E-01+
*       0.0000000000E+00               0
GRID*              14850               0-8.862716171E-01-6.830985583E-01+
*       0.0000000000E+00               0
GRID*              14851               0-9.628549549E-01-6.830985583E-01+
*       0.0000000000E+00               0
GRID*              14852               0-8.488287529E-01-6.194618612E-01+
*       0.0000000000E+00               0
GRID*              14853               0-8.059048933E-01-5.575905024E-01+
*       0.0000000000E+00               0
GRID*              14854               0-8.872026590E-01-5.543257577E-01+
*       0.0000000000E+00               0
GRID*              14855               0-7.429736124E-012.2147551535E-01+
*       0.0000000000E+00               0
GRID*              14856               0-7.112094565E-012.8965519853E-01+
*       0.0000000000E+00               0
GRID*              14857               0-7.816772605E-012.8124185929E-01+
*       0.0000000000E+00               0
GRID*              14858               0-7.031505480E-011.6627699247E-01+
*       0.0000000000E+00               0
GRID*              14859               0-6.658675930E-011.0790256941E-01+
*       0.0000000000E+00               0
GRID*              14860               0-6.352228534E-011.7151443153E-01+
*       0.0000000000E+00               0
GRID*              14861               0-7.736183519E-011.5786365323E-01+
*       0.0000000000E+00               0
GRID*              14862               0-8.405643190E-011.4498611497E-01+
*       0.0000000000E+00               0
GRID*              14863               0-8.007412546E-018.9787592090E-02+
*       0.0000000000E+00               0
GRID*              14864               0-9.143443569E-011.3271385847E-01+
*       0.0000000000E+00               0
GRID*              14865               0-9.865091548E-011.1501915699E-01+
*       0.0000000000E+00               0
GRID*              14866               0-9.398520195E-015.9215352351E-02+
*       0.0000000000E+00               0
GRID*              14867               0-8.872214543E-012.0078991961E-01+
*       0.0000000000E+00               0
GRID*              14868               0-8.223931273E-013.4098404276E-01+
*       0.0000000000E+00               0
GRID*              14869               0-7.889275409E-014.1128316581E-01+
*       0.0000000000E+00               0
GRID*              14870               0-8.614075635E-014.0284566610E-01+
*       0.0000000000E+00               0
GRID*              14871               0-8.541572831E-012.7280435958E-01+
*       0.0000000000E+00               0
GRID*              14872               0-9.279373210E-012.6053210308E-01+
*       0.0000000000E+00               0
GRID*              14873               0-1.080383442E+009.5760325433E-02+
*       0.0000000000E+00               0
GRID*              14874               0-1.080383442E+002.0760325433E-02+
*       0.0000000000E+00               0
GRID*              14875               0-1.054875779E+001.6925883155E-01+
*       0.0000000000E+00               0
GRID*              14876               0-1.001013255E+002.5153375904E-01+
*       0.0000000000E+00               0
GRID*              14877               0-9.679490842E-013.2354819901E-01+
*       0.0000000000E+00               0
GRID*              14878               0-1.094887543E+002.3227492749E-01+
*       0.0000000000E+00               0
GRID*              14879               0-1.094887543E+003.0727492749E-01+
*       0.0000000000E+00               0
GRID*              14880               0-9.008899616E-014.6471178271E-01+
*       0.0000000000E+00               0
GRID*              14881               0-8.666781208E-015.3724406911E-01+
*       0.0000000000E+00               0
GRID*              14882               0-9.396261052E-015.2881106268E-01+
*       0.0000000000E+00               0
GRID*              14883               0-9.343555479E-013.9441265966E-01+
*       0.0000000000E+00               0
GRID*              14884               0-1.007431482E+003.8541431562E-01+
*       0.0000000000E+00               0
GRID*              14885               0-1.094887543E+003.8227492749E-01+
*       0.0000000000E+00               0
GRID*              14886               0-1.061294006E+004.5313938814E-01+
*       0.0000000000E+00               0
GRID*              14887               0-1.003790574E+005.1247453506E-01+
*       0.0000000000E+00               0
GRID*              14888               0-1.091246634E+005.0933514692E-01+
*       0.0000000000E+00               0
GRID*              14889               0-1.091246634E+005.8433514692E-01+
*       0.0000000000E+00               0
GRID*              14890               0-9.695787332E-015.8500682146E-01+
*       0.0000000000E+00               0
GRID*              14891               0-9.504988278E-016.7567167454E-01+
*       0.0000000000E+00               0
GRID*              14892               0-1.014663297E+006.5933514692E-01+
*       0.0000000000E+00               0
GRID*              14893               0-5.952898934E-01-5.950981194E-03+
*       0.0000000000E+00               0
GRID*              14894               0-6.322668642E-01-6.662327468E-02+
*       0.0000000000E+00               0
GRID*              14895               0-6.308052170E-015.3413372209E-02+
*       0.0000000000E+00               0
GRID*              14896               0-6.987329116E-014.8175933148E-02+
*       0.0000000000E+00               0
GRID*              14897               0-5.624245748E-015.3775655064E-02+
*       0.0000000000E+00               0
GRID*              14898               0-6.713743993E-01-1.222369645E-01+
*       0.0000000000E+00               0
GRID*              14899               0-7.108310850E-01-1.825338303E-01+
*       0.0000000000E+00               0
GRID*              14900               0-7.027780706E-01-6.192695386E-02+
*       0.0000000000E+00               0
GRID*              14901               0-7.571855522E-014.8836093523E-02+
*       0.0000000000E+00               0
GRID*              14902               0-8.241315192E-013.5958555269E-02+
*       0.0000000000E+00               0
GRID*              14903               0-7.221231762E-01-5.653103673E-03+
*       0.0000000000E+00               0
GRID*              14904               0-7.612307112E-01-6.126679348E-02+
*       0.0000000000E+00               0
GRID*              14905               0-7.561562866E-01-2.410640280E-01+
*       0.0000000000E+00               0
GRID*              14906               0-7.970315843E-01-3.023183455E-01+
*       0.0000000000E+00               0
GRID*              14907               0-8.825041032E-01-6.894229953E-04+
*       0.0000000000E+00               0
GRID*              14908               0-9.546689010E-01-1.838412448E-02+
*       0.0000000000E+00               0
GRID*              14909               0-7.872108072E-01-1.760708414E-01+
*       0.0000000000E+00               0
GRID*              14910               0-8.196032952E-01-9.791477175E-02+
*       0.0000000000E+00               0
GRID*              14911               0-8.649284967E-01-1.564449695E-01+
*       0.0000000000E+00               0
GRID*              14912               0-8.389484007E-01-4.164092156E-02+
*       0.0000000000E+00               0
GRID*              14913               0-9.510011065E-01-1.518493597E-01+
*       0.0000000000E+00               0
GRID*              14914               0-9.186086186E-01-2.300054293E-01+
*       0.0000000000E+00               0
GRID*              14915               0-1.076715648E+00-1.877049098E-01+
*       0.0000000000E+00               0
GRID*              14916               0-1.076715648E+00-2.627049098E-01+
*       0.0000000000E+00               0
GRID*              14917               0-1.024191805E+00-1.533427515E-01+
*       0.0000000000E+00               0
GRID*              14918               0-1.096226224E+00-1.156378417E-01+
*       0.0000000000E+00               0
GRID*              14919               0-9.705116834E-01-7.978229160E-02+
*       0.0000000000E+00               0
GRID*              14920               0-1.096226224E+00-4.063784168E-02+
*       0.0000000000E+00               0
GRID*              14921               0-1.027859600E+00-1.987751625E-02+
*       0.0000000000E+00               0
GRID*              14922               0-8.382058951E-01-3.661936221E-01+
*       0.0000000000E+00               0
GRID*              14923               0-8.795817148E-01-4.274029956E-01+
*       0.0000000000E+00               0
GRID*              14924               0-8.737103196E-01-2.984763157E-01+
*       0.0000000000E+00               0
GRID*              14925               0-9.597829294E-01-2.938807060E-01+
*       0.0000000000E+00               0
GRID*              14926               0-1.024578684E+00-2.951587693E-01+
*       0.0000000000E+00               0
GRID*              14927               0-9.796803848E-01-3.636296557E-01+
*       0.0000000000E+00               0
GRID*              14928               0-1.096613103E+00-3.324538595E-01+
*       0.0000000000E+00               0
GRID*              14929               0-1.096613103E+00-4.074538595E-01+
*       0.0000000000E+00               0
GRID*              14930               0-9.595912142E-01-4.211821111E-01+
*       0.0000000000E+00               0
GRID*              14931               0-1.024386969E+00-4.224601744E-01+
*       0.0000000000E+00               0
GRID*              14932               0-9.242882987E-01-4.862335144E-01+
*       0.0000000000E+00               0
GRID*              14933               0-9.672121583E-01-5.481048732E-01+
*       0.0000000000E+00               0
GRID*              14934               0-1.076523932E+00-4.650063149E-01+
*       0.0000000000E+00               0
GRID*              14935               0-1.076523932E+00-5.400063149E-01+
*       0.0000000000E+00               0
GRID*              14936               0-1.039438293E+00-6.080985583E-01+
*       0.0000000000E+00               0
GRID*              14937               0-3.835269913E-02-6.873596379E-01+
*       0.0000000000E+00               0
GRID*              14938               0-7.668177356E-02-6.247381874E-01+
*       0.0000000000E+00               0
GRID*              14939               03.8230638658E-02-6.873596379E-01+
*       0.0000000000E+00               0
GRID*              14940               01.1475218432E-01-6.872673259E-01+
*       0.0000000000E+00               0
GRID*              14941               07.6399485196E-02-6.246269638E-01+
*       0.0000000000E+00               0
GRID*              14942               02.6781624812E-01-6.870979901E-01+
*       0.0000000000E+00               0
GRID*              14943               03.4439958591E-01-6.870979901E-01+
*       0.0000000000E+00               0
GRID*              14944               01.9133552211E-01-6.872673259E-01+
*       0.0000000000E+00               0
GRID*              14945               02.2940175688E-01-6.243653160E-01+
*       0.0000000000E+00               0
GRID*              14946               0-1.149855931E-01-5.621758246E-01+
*       0.0000000000E+00               0
GRID*              14947               0-1.532688887E-01-4.996262931E-01+
*       0.0000000000E+00               0
GRID*              14948               0-3.842588005E-02-5.621569130E-01+
*       0.0000000000E+00               0
GRID*              14949               01.9104205036E-01-5.617147996E-01+
*       0.0000000000E+00               0
GRID*              14950               02.6752277638E-01-5.615454638E-01+
*       0.0000000000E+00               0
GRID*              14951               01.5271696680E-01-4.991252986E-01+
*       0.0000000000E+00               0
GRID*              14952               01.1459594730E-01-5.619451508E-01+
*       0.0000000000E+00               0
GRID*              14953               03.8074401633E-02-5.620374628E-01+
*       0.0000000000E+00               0
GRID*              14954               0-2.294179530E-04-4.994751000E-01+
*       0.0000000000E+00               0
GRID*              14955               0-8.739154900E-016.7567167454E-01+
*       0.0000000000E+00               0
GRID*              14956               0-6.378409429E-012.9532524110E-01+
*       0.0000000000E+00               0
GRID*              14957               0-5.996643755E-012.3452624397E-01+
*       0.0000000000E+00               0
GRID*              14958               0-5.649995100E-012.9996263049E-01+
*       0.0000000000E+00               0
GRID*              14959               0-6.765445911E-013.5509158505E-01+
*       0.0000000000E+00               0
GRID*              14960               0-5.623814205E-011.7615182091E-01+
*       0.0000000000E+00               0
GRID*              14961               0-5.254508703E-011.1590158745E-01+
*       0.0000000000E+00               0
GRID*              14962               0-4.898923924E-011.7891339989E-01+
*       0.0000000000E+00               0
GRID*              14963               0-2.661264113E-011.8490013880E-01+
*       0.0000000000E+00               0
GRID*              14964               0-3.035335753E-012.4623473164E-01+
*       0.0000000000E+00               0
GRID*              14965               0-3.411749091E-011.8318949353E-01+
*       0.0000000000E+00               0
GRID*              14966               0-2.281316004E-011.2286522896E-01+
*       0.0000000000E+00               0
GRID*              14967               0-1.904902666E-011.8591046707E-01+
*       0.0000000000E+00               0
GRID*              14968               0-3.415889550E-013.0832643194E-01+
*       0.0000000000E+00               0
GRID*              14969               0-3.798338989E-013.7009024869E-01+
*       0.0000000000E+00               0
GRID*              14970               0-4.168270170E-013.0628790312E-01+
*       0.0000000000E+00               0
GRID*              14971               0-2.665404572E-013.1003707721E-01+
*       0.0000000000E+00               0
GRID*              14972               0-4.157719576E-011.8159362640E-01+
*       0.0000000000E+00               0
GRID*              14973               0-4.527025078E-012.4184385986E-01+
*       0.0000000000E+00               0
GRID*              14974               0-3.783647937E-011.2025903356E-01+
*       0.0000000000E+00               0
GRID*              14975               0-4.909474517E-013.0360767662E-01+
*       0.0000000000E+00               0
GRID*              14976               0-5.291240192E-013.6440667375E-01+
*       0.0000000000E+00               0
GRID*              14977               0-8.321660857E-016.0704423923E-01+
*       0.0000000000E+00               0
GRID*              14978               0-8.006673112E-016.8137256469E-01+
*       0.0000000000E+00               0
GRID*              14979               0-7.150541496E-014.1698011589E-01+
*       0.0000000000E+00               0
GRID*              14980               0-7.540685858E-014.7884173923E-01+
*       0.0000000000E+00               0
GRID*              14981               0-6.416856360E-014.2265015846E-01+
*       0.0000000000E+00               0
GRID*              14982               0-7.934299420E-015.4294495926E-01+
*       0.0000000000E+00               0
GRID*              14983               0-7.195565507E-015.4864190934E-01+
*       0.0000000000E+00               0
GRID*              14984               0-7.240839735E-016.8137256469E-01+
*       0.0000000000E+00               0
GRID*              14985               0-5.670831287E-014.2619660614E-01+
*       0.0000000000E+00               0
GRID*              14986               0-6.055926872E-014.8808513698E-01+
*       0.0000000000E+00               0
GRID*              14987               0-4.930310704E-014.2984165227E-01+
*       0.0000000000E+00               0
GRID*              14988               0-4.180219214E-014.3228341814E-01+
*       0.0000000000E+00               0
GRID*              14989               0-3.427838594E-014.3432194696E-01+
*       0.0000000000E+00               0
GRID*              14990               0-4.559810309E-014.9407335053E-01+
*       0.0000000000E+00               0
GRID*              14991               0-6.838384727E-016.1554264225E-01+
*       0.0000000000E+00               0
GRID*              14992               0-6.490045393E-016.8417007756E-01+
*       0.0000000000E+00               0
GRID*              14993               0-6.444771165E-015.5143942221E-01+
*       0.0000000000E+00               0
GRID*              14994               0-5.698746092E-015.5498586989E-01+
*       0.0000000000E+00               0
GRID*              14995               0-5.724212015E-016.8417007756E-01+
*       0.0000000000E+00               0
GRID*              14996               0-5.332729006E-016.2013518191E-01+
*       0.0000000000E+00               0
GRID*              14997               0-4.969350636E-016.8596510435E-01+
*       0.0000000000E+00               0
GRID*              14998               0-4.943884713E-015.5678089668E-01+
*       0.0000000000E+00               0
GRID*              14999               0-4.193793223E-015.5922266255E-01+
*       0.0000000000E+00               0
GRID*              15000               0-1.145614989E-01-6.288669166E-02+
*       0.0000000000E+00               0
GRID*              15001               0-1.523585314E-01-9.813058050E-04+
*       0.0000000000E+00               0
GRID*              15002               0-1.905470537E-01-6.351578894E-02+
*       0.0000000000E+00               0
GRID*              15003               0-7.643293096E-02-1.250779717E-01+
*       0.0000000000E+00               0
GRID*              15004               0-3.824440869E-02-6.254348857E-02+
*       0.0000000000E+00               0
GRID*              15005               0-1.904197709E-016.1132577073E-02+
*       0.0000000000E+00               0
GRID*              15006               0-2.660559157E-016.0122248803E-02+
*       0.0000000000E+00               0
GRID*              15007               0-1.144342161E-016.1761674356E-02+
*       0.0000000000E+00               0
GRID*              15008               0-4.899355467E-015.6537234045E-02+
*       0.0000000000E+00               0
GRID*              15009               0-4.528069967E-01-4.506118624E-03+
*       0.0000000000E+00               0
GRID*              15010               0-4.158332922E-015.7619813759E-02+
*       0.0000000000E+00               0
GRID*              15011               0-4.171833243E-01-6.544322159E-02+
*       0.0000000000E+00               0
GRID*              15012               0-3.802430482E-01-1.268958008E-01+
*       0.0000000000E+00               0
GRID*              15013               0-3.417644660E-01-6.487611816E-02+
*       0.0000000000E+00               0
GRID*              15014               0-3.412362436E-015.9215680892E-02+
*       0.0000000000E+00               0
GRID*              15015               0-3.035244142E-01-2.516970999E-03+
*       0.0000000000E+00               0
GRID*              15016               0-2.665841381E-01-6.396955025E-02+
*       0.0000000000E+00               0
GRID*              15017               0-2.287871055E-01-1.258749361E-01+
*       0.0000000000E+00               0
GRID*              15018               0-3.836348070E-02-1.872519311E-01+
*       0.0000000000E+00               0
GRID*              15019               0-1.853624310E-04-2.495348194E-01+
*       0.0000000000E+00               0
GRID*              15020               03.8062277516E-02-1.870176569E-01+
*       0.0000000000E+00               0
GRID*              15021               0-1.146805709E-01-1.875951341E-01+
*       0.0000000000E+00               0
GRID*              15022               01.1446906212E-01-4.366860866E-01+
*       0.0000000000E+00               0
GRID*              15023               07.6211895126E-02-3.742193071E-01+
*       0.0000000000E+00               0
GRID*              15024               03.8013696745E-02-4.368888703E-01+
*       0.0000000000E+00               0
GRID*              15025               01.9091516518E-01-4.364557354E-01+
*       0.0000000000E+00               0
GRID*              15026               03.7998462769E-02-3.118613180E-01+
*       0.0000000000E+00               0
GRID*              15027               0-3.842729544E-02-3.120955922E-01+
*       0.0000000000E+00               0
GRID*              15028               01.1445382814E-01-3.116585343E-01+
*       0.0000000000E+00               0
GRID*              15029               0-1.914923078E-01-4.372067295E-01+
*       0.0000000000E+00               0
GRID*              15030               0-2.296656185E-01-3.748616277E-01+
*       0.0000000000E+00               0
GRID*              15031               0-1.149531187E-01-4.371749865E-01+
*       0.0000000000E+00               0
GRID*              15032               0-3.848658494E-02-4.370083205E-01+
*       0.0000000000E+00               0
GRID*              15033               0-7.671000400E-02-3.745887568E-01+
*       0.0000000000E+00               0
GRID*              15034               0-3.433329830E-01-1.885818839E-01+
*       0.0000000000E+00               0
GRID*              15035               0-3.055201871E-01-2.505958161E-01+
*       0.0000000000E+00               0
GRID*              15036               0-2.670113941E-01-1.883426296E-01+
*       0.0000000000E+00               0
GRID*              15037               0-2.676766487E-01-3.126621972E-01+
*       0.0000000000E+00               0
GRID*              15038               0-1.911875680E-01-3.125559923E-01+
*       0.0000000000E+00               0
GRID*              15039               0-1.909743097E-01-1.878888683E-01+
*       0.0000000000E+00               0
GRID*              15040               0-1.529048594E-01-2.500628276E-01+
*       0.0000000000E+00               0
GRID*              15041               0-1.148938292E-01-3.122622582E-01+
*       0.0000000000E+00               0
GRID*              15042               03.8509584614E-024.3695185964E-01+
*       0.0000000000E+00               0
GRID*              15043               02.7014680725E-044.9939027227E-01+
*       0.0000000000E+00               0
GRID*              15044               0-3.794776211E-024.3677750383E-01+
*       0.0000000000E+00               0
GRID*              15045               07.6737769020E-023.7450449835E-01+
*       0.0000000000E+00               0
GRID*              15046               01.1495567794E-014.3711726679E-01+
*       0.0000000000E+00               0
GRID*              15047               0-1.147321077E-016.8722395600E-01+
*       0.0000000000E+00               0
GRID*              15048               0-7.638056540E-026.2457967164E-01+
*       0.0000000000E+00               0
GRID*              15049               0-3.823179544E-026.8735571565E-01+
*       0.0000000000E+00               0
GRID*              15050               0-1.913154455E-016.8722395600E-01+
*       0.0000000000E+00               0
GRID*              15051               0-3.803372651E-025.6196367388E-01+
*       0.0000000000E+00               0
GRID*              15052               03.8423620218E-025.6213802969E-01+
*       0.0000000000E+00               0
GRID*              15053               0-1.145340388E-015.6183191422E-01+
*       0.0000000000E+00               0
GRID*              15054               0-4.203517258E-016.8596510435E-01+
*       0.0000000000E+00               0
GRID*              15055               0-2.676405435E-016.8677599016E-01+
*       0.0000000000E+00               0
GRID*              15056               0-2.292059757E-016.2399994616E-01+
*       0.0000000000E+00               0
GRID*              15057               0-3.442238813E-016.8677599016E-01+
*       0.0000000000E+00               0
GRID*              15058               0-3.816589182E-016.2274109451E-01+
*       0.0000000000E+00               0
GRID*              15059               0-1.142816714E-014.3640341080E-01+
*       0.0000000000E+00               0
GRID*              15060               0-1.524593750E-014.9870225993E-01+
*       0.0000000000E+00               0
GRID*              15061               0-1.905538465E-014.3588975427E-01+
*       0.0000000000E+00               0
GRID*              15062               0-7.604223360E-023.7396499817E-01+
*       0.0000000000E+00               0
GRID*              15063               0-1.908062139E-015.6131825770E-01+
*       0.0000000000E+00               0
GRID*              15064               0-2.671313119E-015.6087029186E-01+
*       0.0000000000E+00               0
GRID*              15065               0-2.666636935E-014.3515869046E-01+
*       0.0000000000E+00               0
GRID*              15066               0-3.048517160E-014.9735185991E-01+
*       0.0000000000E+00               0
GRID*              15067               0-2.284859899E-013.7285984132E-01+
*       0.0000000000E+00               0
GRID*              15068               0-3.432514777E-015.6003354836E-01+
*       0.0000000000E+00               0
GRID*              15069               02.6678119896E-016.3938173201E-02+
*       0.0000000000E+00               0
GRID*              15070               02.2880819802E-011.2594111378E-01+
*       0.0000000000E+00               0
GRID*              15071               01.9063040557E-016.3501146574E-02+
*       0.0000000000E+00               0
GRID*              15072               03.0417080752E-012.4590852189E-03+
*       0.0000000000E+00               0
GRID*              15073               03.4234859997E-016.4899052430E-02+
*       0.0000000000E+00               0
GRID*              15074               01.1489665412E-013.1221449411E-01+
*       0.0000000000E+00               0
GRID*              15075               01.5297481140E-012.4999559528E-01+
*       0.0000000000E+00               0
GRID*              15076               01.9126201963E-013.1245100667E-01+
*       0.0000000000E+00               0
GRID*              15077               03.8450560795E-023.1204908696E-01+
*       0.0000000000E+00               0
GRID*              15078               01.9099879077E-011.8786809750E-01+
*       0.0000000000E+00               0
GRID*              15079               02.6714958416E-011.8830512413E-01+
*       0.0000000000E+00               0
GRID*              15080               01.1463342526E-011.8763158494E-01+
*       0.0000000000E+00               0
GRID*              15081               0-3.813554551E-026.2183365197E-02+
*       0.0000000000E+00               0
GRID*              15082               0-7.619678502E-021.2429724807E-01+
*       0.0000000000E+00               0
GRID*              15083               01.8563588043E-05-2.550050334E-05+
*       0.0000000000E+00               0
GRID*              15084               03.8255994707E-026.2510073216E-02+
*       0.0000000000E+00               0
GRID*              15085               01.1453375422E-016.2902647336E-02+
*       0.0000000000E+00               0
GRID*              15086               01.5250675516E-018.9970675308E-04+
*       0.0000000000E+00               0
GRID*              15087               07.6379645120E-021.2511151304E-01+
*       0.0000000000E+00               0
GRID*              15088               0-1.904306102E-013.1076814102E-01+
*       0.0000000000E+00               0
GRID*              15089               0-1.522681376E-012.4848016425E-01+
*       0.0000000000E+00               0
GRID*              15090               0-1.142136703E-013.1130292836E-01+
*       0.0000000000E+00               0
GRID*              15091               0-1.142733267E-011.8644525441E-01+
*       0.0000000000E+00               0
GRID*              15092               0-3.797465609E-021.8686694526E-01+
*       0.0000000000E+00               0
GRID*              15093               0-3.787976104E-023.1167702140E-01+
*       0.0000000000E+00               0
GRID*              15094               02.7912405525E-042.4938701716E-01+
*       0.0000000000E+00               0
GRID*              15095               03.8355665750E-021.8723901082E-01+
*       0.0000000000E+00               0
GRID*              15096               02.6695367440E-01-4.355088813E-01+
*       0.0000000000E+00               0
GRID*              15097               03.0507869773E-01-4.977504807E-01+
*       0.0000000000E+00               0
GRID*              15098               03.4286930226E-01-4.343644147E-01+
*       0.0000000000E+00               0
GRID*              15099               02.2870576971E-01-3.730696693E-01+
*       0.0000000000E+00               0
GRID*              15100               04.2055958836E-01-6.863234651E-01+
*       0.0000000000E+00               0
GRID*              15101               03.8204248535E-01-6.234214552E-01+
*       0.0000000000E+00               0
GRID*              15102               04.9714292615E-01-6.863234651E-01+
*       0.0000000000E+00               0
GRID*              15103               03.4343840424E-01-5.604009972E-01+
*       0.0000000000E+00               0
GRID*              15104               04.1959840670E-01-5.596264722E-01+
*       0.0000000000E+00               0
GRID*              15105               07.2466923503E-01-6.821005047E-01+
*       0.0000000000E+00               0
GRID*              15106               08.0125257281E-01-6.821005047E-01+
*       0.0000000000E+00               0
GRID*              15107               05.7283915546E-01-6.846581707E-01+
*       0.0000000000E+00               0
GRID*              15108               05.3389871712E-01-6.209816358E-01+
*       0.0000000000E+00               0
GRID*              15109               06.4942249324E-01-6.846581707E-01+
*       0.0000000000E+00               0
GRID*              15110               06.8484168822E-01-6.167586754E-01+
*       0.0000000000E+00               0
GRID*              15111               04.1830101951E-01-4.325222829E-01+
*       0.0000000000E+00               0
GRID*              15112               04.5638182328E-01-4.944576318E-01+
*       0.0000000000E+00               0
GRID*              15113               04.9368851721E-01-4.303739006E-01+
*       0.0000000000E+00               0
GRID*              15114               03.8017599619E-01-3.702806835E-01+
*       0.0000000000E+00               0
GRID*              15115               04.9498590439E-01-5.574780898E-01+
*       0.0000000000E+00               0
GRID*              15116               05.7068213370E-01-5.558127954E-01+
*       0.0000000000E+00               0
GRID*              15117               05.6833582878E-01-4.269935969E-01+
*       0.0000000000E+00               0
GRID*              15118               06.0680689676E-01-4.892370181E-01+
*       0.0000000000E+00               0
GRID*              15119               06.4337340456E-01-4.239213656E-01+
*       0.0000000000E+00               0
GRID*              15120               05.3025502501E-01-3.650582480E-01+
*       0.0000000000E+00               0
GRID*              15121               06.4571970948E-01-5.527405641E-01+
*       0.0000000000E+00               0
GRID*              15122               07.2096645127E-01-5.501828981E-01+
*       0.0000000000E+00               0
GRID*              15123               01.9063155436E-01-3.109492683E-01+
*       0.0000000000E+00               0
GRID*              15124               01.5241812201E-01-2.485912793E-01+
*       0.0000000000E+00               0
GRID*              15125               02.6667006358E-01-3.100024143E-01+
*       0.0000000000E+00               0
GRID*              15126               03.8147131530E-02-6.221678056E-02+
*       0.0000000000E+00               0
GRID*              15127               07.6144456702E-02-1.242276038E-01+
*       0.0000000000E+00               0
GRID*              15128               01.1440742898E-01-6.170961577E-02+
*       0.0000000000E+00               0
GRID*              15129               01.1432257497E-01-1.865104922E-01+
*       0.0000000000E+00               0
GRID*              15130               01.9050030119E-01-1.858012262E-01+
*       0.0000000000E+00               0
GRID*              15131               03.4183565769E-01-5.913308109E-02+
*       0.0000000000E+00               0
GRID*              15132               03.7896875214E-01-1.200012933E-01+
*       0.0000000000E+00               0
GRID*              15133               04.1687130297E-01-5.744824775E-02+
*       0.0000000000E+00               0
GRID*              15134               02.6626825668E-01-6.009396031E-02+
*       0.0000000000E+00               0
GRID*              15135               01.9050408033E-01-6.111111653E-02+
*       0.0000000000E+00               0
GRID*              15136               02.2816893051E-01-1.227032828E-01+
*       0.0000000000E+00               0
GRID*              15137               04.9226030427E-01-3.040032679E-01+
*       0.0000000000E+00               0
GRID*              15138               04.5407413739E-01-2.420637567E-01+
*       0.0000000000E+00               0
GRID*              15139               04.1742154656E-01-3.064990404E-01+
*       0.0000000000E+00               0
GRID*              15140               05.6690761584E-01-3.006229643E-01+
*       0.0000000000E+00               0
GRID*              15141               04.1661988855E-01-1.814379946E-01+
*       0.0000000000E+00               0
GRID*              15142               03.4158424327E-01-1.831228279E-01+
*       0.0000000000E+00               0
GRID*              15143               04.9145864626E-01-1.789422221E-01+
*       0.0000000000E+00               0
GRID*              15144               03.4198982931E-01-3.083411723E-01+
*       0.0000000000E+00               0
GRID*              15145               03.0391561396E-01-2.462207712E-01+
*       0.0000000000E+00               0
GRID*              15146               02.6626447755E-01-1.847840700E-01+
*       0.0000000000E+00               0
GRID*              15147               03.8351542345E-026.8735571565E-01+
*       0.0000000000E+00               0
GRID*              15148               07.6652766565E-026.2476337343E-01+
*       0.0000000000E+00               0
GRID*              15149               01.1488456200E-016.8740765778E-01+
*       0.0000000000E+00               0
GRID*              15150               01.1495663988E-015.6218997182E-01+
*       0.0000000000E+00               0
GRID*              15151               01.5318835909E-014.9968308188E-01+
*       0.0000000000E+00               0
GRID*              15152               01.9141750544E-015.6230842562E-01+
*       0.0000000000E+00               0
GRID*              15153               04.1728976168E-016.5580345078E-02+
*       0.0000000000E+00               0
GRID*              15154               03.7990015312E-011.2705943306E-01+
*       0.0000000000E+00               0
GRID*              15155               04.5295988651E-014.7723060399E-03+
*       0.0000000000E+00               0
GRID*              15156               04.9051143966E-016.6932686671E-02+
*       0.0000000000E+00               0
GRID*              15157               03.4307768516E-011.8869256067E-01+
*       0.0000000000E+00               0
GRID*              15158               03.0526827791E-012.5061954438E-01+
*       0.0000000000E+00               0
GRID*              15159               04.1801884687E-011.8937385332E-01+
*       0.0000000000E+00               0
GRID*              15160               01.9141654350E-014.3723572059E-01+
*       0.0000000000E+00               0
GRID*              15161               02.2949563261E-013.7489767897E-01+
*       0.0000000000E+00               0
GRID*              15162               02.6772831377E-014.3746349407E-01+
*       0.0000000000E+00               0
GRID*              15163               02.6757378990E-013.1267878015E-01+
*       0.0000000000E+00               0
GRID*              15164               03.4350189090E-013.1306621669E-01+
*       0.0000000000E+00               0
GRID*              15165               08.7414620275E-01-6.759751928E-01+
*       0.0000000000E+00               0
GRID*              15166               08.3298205994E-01-6.080756975E-01+
*       0.0000000000E+00               0
GRID*              15167               09.5072954053E-01-6.759751928E-01+
*       0.0000000000E+00               0
GRID*              15168               04.9009298096E-01-5.609590615E-02+
*       0.0000000000E+00               0
GRID*              15169               05.2589598437E-01-1.152493865E-01+
*       0.0000000000E+00               0
GRID*              15170               05.6198456791E-01-5.302883268E-02+
*       0.0000000000E+00               0
GRID*              15171               05.6335023320E-01-1.758751486E-01+
*       0.0000000000E+00               0
GRID*              15172               06.0083305897E-01-2.343699587E-01+
*       0.0000000000E+00               0
GRID*              15173               06.3527039708E-01-1.706771231E-01+
*       0.0000000000E+00               0
GRID*              15174               07.9433122925E-01-5.439234602E-01+
*       0.0000000000E+00               0
GRID*              15175               07.5520925051E-01-4.799053489E-01+
*       0.0000000000E+00               0
GRID*              15176               08.6722485919E-01-5.377981483E-01+
*       0.0000000000E+00               0
GRID*              15177               06.3882777971E-01-2.954249388E-01+
*       0.0000000000E+00               0
GRID*              15178               06.7765189810E-01-3.554912779E-01+
*       0.0000000000E+00               0
GRID*              15179               07.1157734122E-01-2.892382723E-01+
*       0.0000000000E+00               0
GRID*              15180               07.1612296607E-01-4.177346991E-01+
*       0.0000000000E+00               0
GRID*              15181               07.8948774405E-01-4.114752612E-01+
*       0.0000000000E+00               0
GRID*              15182               01.9146789979E-016.8740765778E-01+
*       0.0000000000E+00               0
GRID*              15183               05.7424636310E-016.8761961647E-01+
*       0.0000000000E+00               0
GRID*              15184               06.5082970088E-016.8761961647E-01+
*       0.0000000000E+00               0
GRID*              15185               03.8199091219E-013.7543361906E-01+
*       0.0000000000E+00               0
GRID*              15186               04.1968540021E-013.1337438330E-01+
*       0.0000000000E+00               0
GRID*              15187               03.4409228596E-014.3767625560E-01+
*       0.0000000000E+00               0
GRID*              15188               03.0601319685E-015.0001429721E-01+
*       0.0000000000E+00               0
GRID*              15189               04.2027579528E-014.3798442220E-01+
*       0.0000000000E+00               0
GRID*              15190               04.9665115567E-014.3822587451E-01+
*       0.0000000000E+00               0
GRID*              15191               04.5875252944E-015.0046851105E-01+
*       0.0000000000E+00               0
GRID*              15192               02.2968984465E-016.2490273194E-01+
*       0.0000000000E+00               0
GRID*              15193               02.6797195822E-016.8749507416E-01+
*       0.0000000000E+00               0
GRID*              15194               02.6792156387E-015.6239584200E-01+
*       0.0000000000E+00               0
GRID*              15195               03.4428553607E-015.6260860353E-01+
*       0.0000000000E+00               0
GRID*              15196               03.4455529600E-016.8749507416E-01+
*       0.0000000000E+00               0
GRID*              15197               05.3578709939E-016.2521823867E-01+
*       0.0000000000E+00               0
GRID*              15198               04.9714636346E-015.6295360388E-01+
*       0.0000000000E+00               0
GRID*              15199               05.7376862577E-015.6297459815E-01+
*       0.0000000000E+00               0
GRID*              15200               04.9762410078E-016.8759862220E-01+
*       0.0000000000E+00               0
GRID*              15201               04.2104076300E-016.8759862220E-01+
*       0.0000000000E+00               0
GRID*              15202               03.8267937008E-016.2509369636E-01+
*       0.0000000000E+00               0
GRID*              15203               04.2077100306E-015.6271215157E-01+
*       0.0000000000E+00               0
GRID*              15204               04.5627484511E-012.5132127528E-01+
*       0.0000000000E+00               0
GRID*              15205               04.9309731307E-011.8968814767E-01+
*       0.0000000000E+00               0
GRID*              15206               04.9476386641E-013.1368867765E-01+
*       0.0000000000E+00               0
GRID*              15207               05.7016112304E-013.1365783153E-01+
*       0.0000000000E+00               0
GRID*              15208               05.3357167814E-013.7571093955E-01+
*       0.0000000000E+00               0
GRID*              15209               05.7204841231E-014.3819502840E-01+
*       0.0000000000E+00               0
GRID*              15210               06.4855070429E-014.3740356229E-01+
*       0.0000000000E+00               0
GRID*              15211               06.1163018182E-014.9991849726E-01+
*       0.0000000000E+00               0
GRID*              15212               07.2837261481E-016.8637851524E-01+
*       0.0000000000E+00               0
GRID*              15213               08.0495595259E-016.8637851524E-01+
*       0.0000000000E+00               0
GRID*              15214               06.8995227564E-016.2399813171E-01+
*       0.0000000000E+00               0
GRID*              15215               06.5027091775E-015.6218313204E-01+
*       0.0000000000E+00               0
GRID*              15216               07.2781383168E-015.6094203081E-01+
*       0.0000000000E+00               0
GRID*              15217               05.2761750870E-011.2751852070E-01+
*       0.0000000000E+00               0
GRID*              15218               05.6328763354E-016.6710481666E-02+
*       0.0000000000E+00               0
GRID*              15219               05.6587350694E-011.8946594267E-01+
*       0.0000000000E+00               0
GRID*              15220               06.3995232457E-011.8752651626E-01+
*       0.0000000000E+00               0
GRID*              15221               06.0543212894E-012.4969614322E-01+
*       0.0000000000E+00               0
GRID*              15222               06.4423994067E-013.1171840512E-01+
*       0.0000000000E+00               0
GRID*              15223               07.2045114570E-013.0896072330E-01+
*       0.0000000000E+00               0
GRID*              15224               06.8518013981E-013.7292241161E-01+
*       0.0000000000E+00               0
GRID*              15225               07.2476190932E-014.3464588047E-01+
*       0.0000000000E+00               0
GRID*              15226               08.0280337510E-014.3134064361E-01+
*       0.0000000000E+00               0
GRID*              15227               07.6617393958E-014.9582179430E-01+
*       0.0000000000E+00               0
GRID*              15228               08.8625986511E-016.8310927110E-01+
*       0.0000000000E+00               0
GRID*              15229               09.6284320289E-016.8310927110E-01+
*       0.0000000000E+00               0
GRID*              15230               08.4879910208E-016.1948778634E-01+
*       0.0000000000E+00               0
GRID*              15231               08.0585529746E-015.5763679396E-01+
*       0.0000000000E+00               0
GRID*              15232               08.8715920998E-015.5436754982E-01+
*       0.0000000000E+00               0
GRID*              15233               07.4318726892E-01-2.209878174E-01+
*       0.0000000000E+00               0
GRID*              15234               07.8201138730E-01-2.810541564E-01+
*       0.0000000000E+00               0
GRID*              15235               07.0325734760E-01-1.656341809E-01+
*       0.0000000000E+00               0
GRID*              15236               06.6577452184E-01-1.071393708E-01+
*       0.0000000000E+00               0
GRID*              15237               07.7369139368E-01-1.574500650E-01+
*       0.0000000000E+00               0
GRID*              15238               08.4065840541E-01-1.446796403E-01+
*       0.0000000000E+00               0
GRID*              15239               08.0072848410E-01-8.932600388E-02+
*       0.0000000000E+00               0
GRID*              15240               09.1440741476E-01-1.325038881E-01+
*       0.0000000000E+00               0
GRID*              15241               09.8656731716E-01-1.149237719E-01+
*       0.0000000000E+00               0
GRID*              15242               09.3985539824E-01-5.897546303E-02+
*       0.0000000000E+00               0
GRID*              15243               08.8737032434E-01-2.006279492E-01+
*       0.0000000000E+00               0
GRID*              15244               08.2279354903E-01-3.409840897E-01+
*       0.0000000000E+00               0
GRID*              15245               08.6187983347E-01-4.031547395E-01+
*       0.0000000000E+00               0
GRID*              15246               08.5440347672E-01-2.727336348E-01+
*       0.0000000000E+00               0
GRID*              15247               09.2815248607E-01-2.605578825E-01+
*       0.0000000000E+00               0
GRID*              15248               01.0803826837E+00-9.569767342E-02+
*       0.0000000000E+00               0
GRID*              15249               01.0803826837E+00-2.069767342E-02+
*       0.0000000000E+00               0
GRID*              15250               01.0549347002E+00-1.692260985E-01+
*       0.0000000000E+00               0
GRID*              15251               01.0011412200E+00-2.515513304E-01+
*       0.0000000000E+00               0
GRID*              15252               09.6817437236E-01-3.236570160E-01+
*       0.0000000000E+00               0
GRID*              15253               01.0949565865E+00-2.323252319E-01+
*       0.0000000000E+00               0
GRID*              15254               01.0949565865E+00-3.073252319E-01+
*       0.0000000000E+00               0
GRID*              15255               09.0136042817E-01-4.650898216E-01+
*       0.0000000000E+00               0
GRID*              15256               09.4001125886E-01-5.292420589E-01+
*       0.0000000000E+00               0
GRID*              15257               09.3466623315E-01-3.945986501E-01+
*       0.0000000000E+00               0
GRID*              15258               01.0076549671E+00-3.855920980E-01+
*       0.0000000000E+00               0
GRID*              15259               01.0949565865E+00-3.823252319E-01+
*       0.0000000000E+00               0
GRID*              15260               01.0614484473E+00-4.532668661E-01+
*       0.0000000000E+00               0
GRID*              15261               01.0040174946E+00-5.127101527E-01+
*       0.0000000000E+00               0
GRID*              15262               01.0913191141E+00-5.094432866E-01+
*       0.0000000000E+00               0
GRID*              15263               01.0913191141E+00-5.844432866E-01+
*       0.0000000000E+00               0
GRID*              15264               09.6988192565E-01-5.854184794E-01+
*       0.0000000000E+00               0
GRID*              15265               01.0147357763E+00-6.594432866E-01+
*       0.0000000000E+00               0
GRID*              15266               05.9478525064E-016.4807785429E-03+
*       0.0000000000E+00               0
GRID*              15267               06.3189131967E-016.7066612577E-02+
*       0.0000000000E+00               0
GRID*              15268               06.3058825404E-01-5.267270177E-02+
*       0.0000000000E+00               0
GRID*              15269               06.9857520457E-01-4.762975954E-02+
*       0.0000000000E+00               0
GRID*              15270               06.7101763090E-011.2258784698E-01+
*       0.0000000000E+00               0
GRID*              15271               07.1057625290E-011.8281804753E-01+
*       0.0000000000E+00               0
GRID*              15272               07.0251524800E-016.2358143852E-02+
*       0.0000000000E+00               0
GRID*              15273               07.5710290549E-01-4.834329439E-02+
*       0.0000000000E+00               0
GRID*              15274               08.2406991722E-01-3.557286973E-02+
*       0.0000000000E+00               0
GRID*              15275               07.2191663769E-016.1233746034E-03+
*       0.0000000000E+00               0
GRID*              15276               07.6104294892E-016.1644609002E-02+
*       0.0000000000E+00               0
GRID*              15277               07.5595385846E-012.4127058616E-01+
*       0.0000000000E+00               0
GRID*              15278               07.9689405759E-013.0247459264E-01+
*       0.0000000000E+00               0
GRID*              15279               08.8247105740E-019.8168239320E-04+
*       0.0000000000E+00               0
GRID*              15280               09.5463095980E-011.8561798587E-02+
*       0.0000000000E+00               0
GRID*              15281               07.8701916479E-011.7633191688E-01+
*       0.0000000000E+00               0
GRID*              15282               08.1944408910E-019.8199161129E-02+
*       0.0000000000E+00               0
GRID*              15283               08.6482169466E-011.5665169976E-01+
*       0.0000000000E+00               0
GRID*              15284               08.3884547879E-014.1964391881E-02+
*       0.0000000000E+00               0
GRID*              15285               09.5094069939E-011.5200570261E-01+
*       0.0000000000E+00               0
GRID*              15286               09.1851577508E-012.3013845836E-01+
*       0.0000000000E+00               0
GRID*              15287               01.0766924233E+001.8774623060E-01+
*       0.0000000000E+00               0
GRID*              15288               01.0766924233E+002.6274623060E-01+
*       0.0000000000E+00               0
GRID*              15289               01.0241567324E+001.5342833491E-01+
*       0.0000000000E+00               0
GRID*              15290               01.0962143759E+001.1568210430E-01+
*       0.0000000000E+00               0
GRID*              15291               09.7046265200E-017.9941576307E-02+
*       0.0000000000E+00               0
GRID*              15292               01.0962143759E+004.0682104303E-02+
*       0.0000000000E+00               0
GRID*              15293               01.0278469928E+001.9984430886E-02+
*       0.0000000000E+00               0
GRID*              15294               08.3810168559E-013.6630261097E-01+
*       0.0000000000E+00               0
GRID*              15295               08.7951371585E-014.2747852480E-01+
*       0.0000000000E+00               0
GRID*              15296               08.7360439835E-012.9861247384E-01+
*       0.0000000000E+00               0
GRID*              15297               09.5972340308E-012.9396647669E-01+
*       0.0000000000E+00               0
GRID*              15298               01.0245415060E+002.9521902489E-01+
*       0.0000000000E+00               0
GRID*              15299               09.7963012928E-013.6369304038E-01+
*       0.0000000000E+00               0
GRID*              15300               01.0965991495E+003.3247279429E-01+
*       0.0000000000E+00               0
GRID*              15301               01.0965991495E+004.0747279429E-01+
*       0.0000000000E+00               0
GRID*              15302               09.5953908693E-014.2124501937E-01+
*       0.0000000000E+00               0
GRID*              15303               01.0243571899E+004.2249756758E-01+
*       0.0000000000E+00               0
GRID*              15304               09.2424077644E-014.8628305201E-01+
*       0.0000000000E+00               0
GRID*              15305               09.6718458105E-015.4813404439E-01+
*       0.0000000000E+00               0
GRID*              15306               01.0765081071E+004.6502477329E-01+
*       0.0000000000E+00               0
GRID*              15307               01.0765081071E+005.4002477329E-01+
*       0.0000000000E+00               0
GRID*              15308               01.0394265407E+006.0810927110E-01+
*       0.0000000000E+00               0
GRID*              15309               0-1.039438293E+00-6.830985583E-01+
*       0.0000000000E+00               0
GRID*              15310               01.0913191141E+00-6.594432866E-01+
*       0.0000000000E+00               0
GRID*              15311               0-1.091246634E+006.5933514692E-01+
*       0.0000000000E+00               0
GRID*              15312               01.0394265407E+006.8310927110E-01+
*       0.0000000000E+00               0
GRID*              15313               01.2117061235E+007.5000000000E-01+
*       -1.322818318E-01               0
GRID*              15314               01.2741405206E+007.5000000000E-01+
*       8.2177876124E-02               0
GRID*              15315               01.2735449065E+007.5000000000E-01+
*       3.7421533066E-01               0
GRID*              15316               01.2738626508E+007.5000000000E-01+
*       2.2593342772E-01               0
GRID*              15317               01.2737111742E+007.5000000000E-01+
*       5.2263959880E-01               0
GRID*              15318               01.2737424186E+007.5000000000E-01+
*       6.5860139419E-01               0
GRID*              15319               01.6572407554E+007.5000000000E-01+
*       -1.251379284E-01               0
GRID*              15320               01.8018582578E+007.5000000000E-01+
*       -1.251669679E-01               0
GRID*              15321               01.3535064413E+007.5000000000E-01+
*       -1.326261555E-01               0
GRID*              15322               01.5025718814E+007.5000000000E-01+
*       -1.267801245E-01               0
GRID*              15323               01.2778338281E+007.5000000000E-01+
*       -3.695620593E-02               0
GRID*              15324               0-1.273994699E+007.5000000000E-01+
*       8.2256001556E-02               0
GRID*              15325               0-1.273529510E+007.5000000000E-01+
*       3.7420761862E-01               0
GRID*              15326               0-1.273836314E+007.5000000000E-01+
*       2.2595044734E-01               0
GRID*              15327               0-1.273708259E+007.5000000000E-01+
*       5.2263834704E-01               0
GRID*              15328               0-1.273741849E+007.5000000000E-01+
*       6.5860119665E-01               0
GRID*              15329               01.5253299712E-017.5000000000E-01+
*       -1.250233208E-01               0
GRID*              15330               01.0664041798E+007.5000000000E-01+
*       -1.264495970E-01               0
GRID*              15331               09.1500100694E-017.5000000000E-01+
*       -1.252923805E-01               0
GRID*              15332               07.6263828638E-017.5000000000E-01+
*       -1.250690372E-01               0
GRID*              15333               06.1013434810E-017.5000000000E-01+
*       -1.250184785E-01               0
GRID*              15334               03.0507045966E-017.5000000000E-01+
*       -1.250095080E-01               0
GRID*              15335               04.5760031282E-017.5000000000E-01+
*       -1.250113670E-01               0
GRID*              15336               0-1.657811296E+007.5000000000E-01+
*       -1.251439778E-01               0
GRID*              15337               0-1.801949320E+007.5000000000E-01+
*       -1.251715390E-01               0
GRID*              15338               0-1.065202884E+007.5000000000E-01+
*       -1.259475365E-01               0
GRID*              15339               0-1.500846320E+007.5000000000E-01+
*       -1.256927359E-01               0
GRID*              15340               0-1.352850054E+007.5000000000E-01+
*       -1.322718967E-01               0
GRID*              15341               0-1.212735776E+007.5000000000E-01+
*       -1.329285688E-01               0
GRID*              15342               0-1.277906386E+007.5000000000E-01+
*       -3.705019684E-02               0
GRID*              15343               0-9.147861373E-017.5000000000E-01+
*       -1.252044174E-01               0
GRID*              15344               0-7.626005535E-017.5000000000E-01+
*       -1.250535969E-01               0
GRID*              15345               05.6149176664E-077.5000000000E-01+
*       -1.250173988E-01               0
GRID*              15346               0-6.101234395E-017.5000000000E-01+
*       -1.250235284E-01               0
GRID*              15347               0-1.525371616E-017.5000000000E-01+
*       -1.250083056E-01               0
GRID*              15348               0-4.576029205E-017.5000000000E-01+
*       -1.250096311E-01               0
GRID*              15349               0-3.050669922E-017.5000000000E-01+
*       -1.250095225E-01               0
GRID*              15350               01.3364452341E+007.5000000000E-01+
*       1.1608893806E-01               0
GRID*              15351               01.3364452341E+007.5000000000E-01+
*       4.1088938062E-02               0
GRID*              15352               01.2113063588E+007.5000000000E-01+
*       1.8796671386E-01               0
GRID*              15353               01.2113063588E+007.5000000000E-01+
*       2.6296671386E-01               0
GRID*              15354               01.2740015857E+007.5000000000E-01+
*       1.5405565192E-01               0
GRID*              15355               01.3363062992E+007.5000000000E-01+
*       1.8796671386E-01               0
GRID*              15356               01.2114452937E+007.5000000000E-01+
*       1.1608893806E-01               0
GRID*              15357               01.3363062992E+007.5000000000E-01+
*       2.6296671386E-01               0
GRID*              15358               01.2111474866E+007.5000000000E-01+
*       3.3710766533E-01               0
GRID*              15359               01.2111474866E+007.5000000000E-01+
*       4.1210766533E-01               0
GRID*              15360               01.2737037786E+007.5000000000E-01+
*       3.0007437919E-01               0
GRID*              15361               01.3361474270E+007.5000000000E-01+
*       3.3710766533E-01               0
GRID*              15362               01.3361474270E+007.5000000000E-01+
*       4.1210766533E-01               0
GRID*              15363               01.2112306205E+007.5000000000E-01+
*       4.8631979940E-01               0
GRID*              15364               01.2112306205E+007.5000000000E-01+
*       5.6131979940E-01               0
GRID*              15365               01.2736280403E+007.5000000000E-01+
*       4.4842746473E-01               0
GRID*              15366               01.3362305609E+007.5000000000E-01+
*       4.8631979940E-01               0
GRID*              15367               01.3362305609E+007.5000000000E-01+
*       5.6131979940E-01               0
GRID*              15368               01.2112462427E+007.5000000000E-01+
*       6.2930069709E-01               0
GRID*              15369               01.2737267964E+007.5000000000E-01+
*       5.9062049649E-01               0
GRID*              15370               01.2112462427E+007.5000000000E-01+
*       7.0430069709E-01               0
GRID*              15371               01.2737462129E+007.5000000000E-01+
*       7.0430069709E-01               0
GRID*              15372               01.3362461831E+007.5000000000E-01+
*       6.2930069709E-01               0
GRID*              15373               01.3362461831E+007.5000000000E-01+
*       7.0430069709E-01               0
GRID*              15374               01.7020453536E+007.5000000000E-01+
*       -1.875689642E-01               0
GRID*              15375               01.6260953557E+007.5000000000E-01+
*       -1.875689642E-01               0
GRID*              15376               01.7669707693E+007.5000000000E-01+
*       -6.258348393E-02               0
GRID*              15377               01.7295495066E+007.5000000000E-01+
*       -1.251524481E-01               0
GRID*              15378               01.6946620181E+007.5000000000E-01+
*       -6.256896418E-02               0
GRID*              15379               01.8503041027E+007.5000000000E-01+
*       -6.258348393E-02               0
GRID*              15380               01.8503041027E+007.5000000000E-01+
*       -1.250834839E-01               0
GRID*              15381               01.7743541048E+007.5000000000E-01+
*       -1.875834839E-01               0
GRID*              15382               01.8503041027E+007.5000000000E-01+
*       -1.875834839E-01               0
GRID*              15383               01.5487609187E+007.5000000000E-01+
*       -1.883900622E-01               0
GRID*              15384               01.5799063184E+007.5000000000E-01+
*       -1.259590264E-01               0
GRID*              15385               01.4728109208E+007.5000000000E-01+
*       -1.883900622E-01               0
GRID*              15386               01.3982782007E+007.5000000000E-01+
*       -1.913130778E-01               0
GRID*              15387               01.4280391613E+007.5000000000E-01+
*       -1.297031400E-01               0
GRID*              15388               01.3223282028E+007.5000000000E-01+
*       -1.913130778E-01               0
GRID*              15389               01.2514280439E+007.5000000000E-01+
*       -1.911409159E-01               0
GRID*              15390               01.2826062824E+007.5000000000E-01+
*       -1.324539937E-01               0
GRID*              15391               01.6113286848E+007.5000000000E-01+
*       -6.256896418E-02               0
GRID*              15392               01.5339942478E+007.5000000000E-01+
*       -6.339006223E-02               0
GRID*              15393               01.2114452937E+007.5000000000E-01+
*       4.1088938062E-02               0
GRID*              15394               01.4506609145E+007.5000000000E-01+
*       -6.339006223E-02               0
GRID*              15395               01.3761281944E+007.5000000000E-01+
*       -6.631307775E-02               0
GRID*              15396               01.2759871743E+007.5000000000E-01+
*       2.2610835098E-02               0
GRID*              15397               01.2132919474E+007.5000000000E-01+
*       -1.847810296E-02               0
GRID*              15398               01.2447699758E+007.5000000000E-01+
*       -8.461901888E-02               0
GRID*              15399               01.1802280951E+007.5000000000E-01+
*       -6.614091591E-02               0
GRID*              15400               01.3156701347E+007.5000000000E-01+
*       -8.479118072E-02               0
GRID*              15401               01.3382918878E+007.5000000000E-01+
*       -1.847810296E-02               0
GRID*              15402               0-1.336293131E+007.5000000000E-01+
*       1.8797522367E-01               0
GRID*              15403               0-1.336293131E+007.5000000000E-01+
*       2.6297522367E-01               0
GRID*              15404               0-1.336372323E+007.5000000000E-01+
*       1.1612800078E-01               0
GRID*              15405               0-1.336372323E+007.5000000000E-01+
*       4.1128000778E-02               0
GRID*              15406               0-1.273915507E+007.5000000000E-01+
*       1.5410322445E-01               0
GRID*              15407               0-1.211293190E+007.5000000000E-01+
*       1.8797522367E-01               0
GRID*              15408               0-1.211372383E+007.5000000000E-01+
*       1.1612800078E-01               0
GRID*              15409               0-1.211293190E+007.5000000000E-01+
*       2.6297522367E-01               0
GRID*              15410               0-1.336139729E+007.5000000000E-01+
*       3.3710380931E-01               0
GRID*              15411               0-1.336139729E+007.5000000000E-01+
*       4.1210380931E-01               0
GRID*              15412               0-1.273682912E+007.5000000000E-01+
*       3.0007903298E-01               0
GRID*              15413               0-1.211139788E+007.5000000000E-01+
*       3.3710380931E-01               0
GRID*              15414               0-1.211139788E+007.5000000000E-01+
*       4.1210380931E-01               0
GRID*              15415               0-1.336229103E+007.5000000000E-01+
*       4.8631917352E-01               0
GRID*              15416               0-1.336229103E+007.5000000000E-01+
*       5.6131917352E-01               0
GRID*              15417               0-1.273618884E+007.5000000000E-01+
*       4.4842298283E-01               0
GRID*              15418               0-1.211229163E+007.5000000000E-01+
*       4.8631917352E-01               0
GRID*              15419               0-1.211229163E+007.5000000000E-01+
*       5.6131917352E-01               0
GRID*              15420               0-1.336245898E+007.5000000000E-01+
*       6.2930059833E-01               0
GRID*              15421               0-1.273725054E+007.5000000000E-01+
*       5.9061977185E-01               0
GRID*              15422               0-1.336245898E+007.5000000000E-01+
*       7.0430059833E-01               0
GRID*              15423               0-1.273745928E+007.5000000000E-01+
*       7.0430059833E-01               0
GRID*              15424               0-1.211245958E+007.5000000000E-01+
*       6.2930059833E-01               0
GRID*              15425               0-1.211245958E+007.5000000000E-01+
*       7.0430059833E-01               0
GRID*              15426               01.1075771233E+007.5000000000E-01+
*       -6.322479852E-02               0
GRID*              15427               01.0309937855E+007.5000000000E-01+
*       -6.322479852E-02               0
GRID*              15428               01.1390551517E+007.5000000000E-01+
*       -1.293657144E-01               0
GRID*              15429               01.1754780460E+007.5000000000E-01+
*       -1.911409159E-01               0
GRID*              15430               01.1028270742E+007.5000000000E-01+
*       -1.882247985E-01               0
GRID*              15431               09.5529219906E-017.5000000000E-01+
*       -6.264619024E-02               0
GRID*              15432               08.7870886128E-017.5000000000E-01+
*       -6.264619024E-02               0
GRID*              15433               09.9070259337E-017.5000000000E-01+
*       -1.258709888E-01               0
GRID*              15434               01.0268770763E+007.5000000000E-01+
*       -1.882247985E-01               0
GRID*              15435               09.5117548983E-017.5000000000E-01+
*       -1.876461902E-01               0
GRID*              15436               08.0252750100E-017.5000000000E-01+
*       -6.253451860E-02               0
GRID*              15437               07.2594416322E-017.5000000000E-01+
*       -6.253451860E-02               0
GRID*              15438               08.3881964666E-017.5000000000E-01+
*       -1.251807088E-01               0
GRID*              15439               08.7522549193E-017.5000000000E-01+
*       -1.876461902E-01               0
GRID*              15440               07.9904413165E-017.5000000000E-01+
*       -1.875345186E-01               0
GRID*              15441               06.4969219408E-017.5000000000E-01+
*       -6.250923925E-02               0
GRID*              15442               05.7310885629E-017.5000000000E-01+
*       -6.250923925E-02               0
GRID*              15443               06.8638631724E-017.5000000000E-01+
*       -1.250437578E-01               0
GRID*              15444               07.2309413375E-017.5000000000E-01+
*       -1.875345186E-01               0
GRID*              15445               06.4684216461E-017.5000000000E-01+
*       -1.875092393E-01               0
GRID*              15446               02.6646022668E-017.5000000000E-01+
*       -1.875047540E-01               0
GRID*              15447               03.4241022458E-017.5000000000E-01+
*       -1.875047540E-01               0
GRID*              15448               01.9019149541E-017.5000000000E-01+
*       -1.875116604E-01               0
GRID*              15449               02.2880172839E-017.5000000000E-01+
*       -1.250164144E-01               0
GRID*              15450               01.9114150524E-017.5000000000E-01+
*       -6.251166038E-02               0
GRID*              15451               01.1455816745E-017.5000000000E-01+
*       -6.251166038E-02               0
GRID*              15452               02.6741023651E-017.5000000000E-01+
*       -6.250475399E-02               0
GRID*              15453               04.9684183865E-017.5000000000E-01+
*       -6.250568351E-02               0
GRID*              15454               04.2025850087E-017.5000000000E-01+
*       -6.250568351E-02               0
GRID*              15455               05.3386733046E-017.5000000000E-01+
*       -1.250149228E-01               0
GRID*              15456               05.7089216671E-017.5000000000E-01+
*       -1.875092393E-01               0
GRID*              15457               04.9462514907E-017.5000000000E-01+
*       -1.875056835E-01               0
GRID*              15458               03.4399357429E-017.5000000000E-01+
*       -6.250475399E-02               0
GRID*              15459               03.8133538624E-017.5000000000E-01+
*       -1.250104375E-01               0
GRID*              15460               04.1867515117E-017.5000000000E-01+
*       -1.875056835E-01               0
GRID*              15461               0-1.702330624E+007.5000000000E-01+
*       -1.875719889E-01               0
GRID*              15462               0-1.626380626E+007.5000000000E-01+
*       -1.875719889E-01               0
GRID*              15463               0-1.767016300E+007.5000000000E-01+
*       -6.258576950E-02               0
GRID*              15464               0-1.694947288E+007.5000000000E-01+
*       -6.257198891E-02               0
GRID*              15465               0-1.729880308E+007.5000000000E-01+
*       -1.251577584E-01               0
GRID*              15466               0-1.850349634E+007.5000000000E-01+
*       -6.258576950E-02               0
GRID*              15467               0-1.850349634E+007.5000000000E-01+
*       -1.250857695E-01               0
GRID*              15468               0-1.774399636E+007.5000000000E-01+
*       -1.875857695E-01               0
GRID*              15469               0-1.850349634E+007.5000000000E-01+
*       -1.875857695E-01               0
GRID*              15470               0-1.547898138E+007.5000000000E-01+
*       -1.878463680E-01               0
GRID*              15471               0-1.471948140E+007.5000000000E-01+
*       -1.878463680E-01               0
GRID*              15472               0-1.579328808E+007.5000000000E-01+
*       -1.254183569E-01               0
GRID*              15473               0-1.397950007E+007.5000000000E-01+
*       -1.911359483E-01               0
GRID*              15474               0-1.322000009E+007.5000000000E-01+
*       -1.911359483E-01               0
GRID*              15475               0-1.426848187E+007.5000000000E-01+
*       -1.289823163E-01               0
GRID*              15476               0-1.251942870E+007.5000000000E-01+
*       -1.914642844E-01               0
GRID*              15477               0-1.282792915E+007.5000000000E-01+
*       -1.326002327E-01               0
GRID*              15478               0-1.175992872E+007.5000000000E-01+
*       -1.914642844E-01               0
GRID*              15479               0-1.138969330E+007.5000000000E-01+
*       -1.294380526E-01               0
GRID*              15480               0-1.102226426E+007.5000000000E-01+
*       -1.879737682E-01               0
GRID*              15481               0-1.106976475E+007.5000000000E-01+
*       -6.297376824E-02               0
GRID*              15482               0-1.030393137E+007.5000000000E-01+
*       -6.297376824E-02               0
GRID*              15483               0-1.611613955E+007.5000000000E-01+
*       -6.257198891E-02               0
GRID*              15484               0-1.533131467E+007.5000000000E-01+
*       -6.284636796E-02               0
GRID*              15485               0-1.180742921E+007.5000000000E-01+
*       -6.646428439E-02               0
GRID*              15486               0-1.449798134E+007.5000000000E-01+
*       -6.284636796E-02               0
GRID*              15487               0-1.375800001E+007.5000000000E-01+
*       -6.613594834E-02               0
GRID*              15488               0-1.245321081E+007.5000000000E-01+
*       -8.498938281E-02               0
GRID*              15489               0-1.213328227E+007.5000000000E-01+
*       -1.852509842E-02               0
GRID*              15490               0-1.275950543E+007.5000000000E-01+
*       2.2602902356E-02               0
GRID*              15491               0-1.211372383E+007.5000000000E-01+
*       4.1128000778E-02               0
GRID*              15492               0-1.338328167E+007.5000000000E-01+
*       -1.852509842E-02               0
GRID*              15493               0-1.315378220E+007.5000000000E-01+
*       -8.466104676E-02               0
GRID*              15494               0-1.026276428E+007.5000000000E-01+
*       -1.879737682E-01               0
GRID*              15495               0-9.899945105E-017.5000000000E-01+
*       -1.255759769E-01               0
GRID*              15496               0-9.510680550E-017.5000000000E-01+
*       -1.876022087E-01               0
GRID*              15497               0-9.551847643E-017.5000000000E-01+
*       -6.260220870E-02               0
GRID*              15498               0-8.786014265E-017.5000000000E-01+
*       -6.260220870E-02               0
GRID*              15499               0-8.751180571E-017.5000000000E-01+
*       -1.876022087E-01               0
GRID*              15500               0-8.386933454E-017.5000000000E-01+
*       -1.251290071E-01               0
GRID*              15501               0-7.990252652E-017.5000000000E-01+
*       -1.875267984E-01               0
GRID*              15502               0-8.025086346E-017.5000000000E-01+
*       -6.252679844E-02               0
GRID*              15503               0-7.259252968E-017.5000000000E-01+
*       -6.252679844E-02               0
GRID*              15504               07.6266779305E-027.5000000000E-01+
*       -1.250203598E-01               0
GRID*              15505               03.8291949638E-027.5000000000E-01+
*       -6.250869939E-02               0
GRID*              15506               03.7975279697E-027.5000000000E-01+
*       -1.875086994E-01               0
GRID*              15507               0-3.797471821E-027.5000000000E-01+
*       -1.875086994E-01               0
GRID*              15508               01.1424149751E-017.5000000000E-01+
*       -1.875116604E-01               0
GRID*              15509               0-7.230752673E-017.5000000000E-01+
*       -1.875267984E-01               0
GRID*              15510               0-6.863619965E-017.5000000000E-01+
*       -1.250385626E-01               0
GRID*              15511               0-6.468367103E-017.5000000000E-01+
*       -1.875117642E-01               0
GRID*              15512               0-6.496867398E-017.5000000000E-01+
*       -6.251176421E-02               0
GRID*              15513               0-5.731034020E-017.5000000000E-01+
*       -6.251176421E-02               0
GRID*              15514               0-3.829138815E-027.5000000000E-01+
*       -6.250869939E-02               0
GRID*              15515               0-7.626830006E-027.5000000000E-01+
*       -1.250128522E-01               0
GRID*              15516               0-1.145602497E-017.5000000000E-01+
*       -6.250415280E-02               0
GRID*              15517               0-1.142435798E-017.5000000000E-01+
*       -1.875041528E-01               0
GRID*              15518               0-1.901935777E-017.5000000000E-01+
*       -1.875041528E-01               0
GRID*              15519               0-5.708867124E-017.5000000000E-01+
*       -1.875117642E-01               0
GRID*              15520               0-5.338631800E-017.5000000000E-01+
*       -1.250165798E-01               0
GRID*              15521               0-4.946264529E-017.5000000000E-01+
*       -1.875048155E-01               0
GRID*              15522               0-4.968431425E-017.5000000000E-01+
*       -6.250481554E-02               0
GRID*              15523               0-4.202598047E-017.5000000000E-01+
*       -6.250481554E-02               0
GRID*              15524               0-1.911435875E-017.5000000000E-01+
*       -6.250415280E-02               0
GRID*              15525               0-2.288020769E-017.5000000000E-01+
*       -1.250089140E-01               0
GRID*              15526               0-2.674085028E-017.5000000000E-01+
*       -6.250476124E-02               0
GRID*              15527               0-2.664584930E-017.5000000000E-01+
*       -1.875047612E-01               0
GRID*              15528               0-3.424084909E-017.5000000000E-01+
*       -1.875047612E-01               0
GRID*              15529               0-3.439918406E-017.5000000000E-01+
*       -6.250476124E-02               0
GRID*              15530               0-3.813349564E-017.5000000000E-01+
*       -1.250095768E-01               0
GRID*              15531               0-4.186764550E-017.5000000000E-01+
*       -1.875048155E-01               0
GRID*              15532               01.1487500434E+006.2301332144E-01+
*       5.2306527314E-01               0
GRID*              15533               01.1487500065E+005.0996621505E-01+
*       5.9673946850E-01               0
GRID*              15534               01.1487499770E+004.1345274859E-01+
*       6.5844017738E-01               0
GRID*              15535               01.1487499886E+003.2505100189E-01+
*       7.0987589363E-01               0
GRID*              15536               01.1487500423E+00-6.188267807E-01+
*       5.3775658852E-01               0
GRID*              15537               01.1487500046E+00-5.011350941E-01+
*       6.2279094566E-01               0
GRID*              15538               01.1487499745E+00-3.996493064E-01+
*       6.9268899944E-01               0
GRID*              15539               01.1487499531E+00-3.152967143E-01+
*       7.4680927494E-01               0
GRID*              15540               01.1487500223E+008.7019103116E-02+
*       1.4146723616E-01               0
GRID*              15541               01.1487499693E+004.2483214526E-02+
*       2.9651985501E-01               0
GRID*              15542               01.1487499509E+00-2.190465196E-02+
*       4.1624060585E-01               0
GRID*              15543               01.1487500412E+006.2351443726E-01+
*       3.7470718208E-01               0
GRID*              15544               01.1487499941E+004.8287513757E-01+
*       4.5740601360E-01               0
GRID*              15545               01.1487499634E+003.4222121806E-01+
*       4.8741974693E-01               0
GRID*              15546               01.1487499507E+002.3754530636E-01+
*       5.2306921765E-01               0
GRID*              15547               01.1487499725E+004.1077831149E-01+
*       5.6244544041E-01               0
GRID*              15548               01.1487499528E+003.1055042343E-01+
*       6.0402908952E-01               0
GRID*              15549               01.1487499520E+007.5534061650E-02+
*       4.2802030346E-01               0
GRID*              15550               01.1487499647E+001.5954159942E-01+
*       3.5898308496E-01               0
GRID*              15551               01.1487499857E+001.5929727498E-01+
*       2.4876896500E-01               0
GRID*              15552               01.1487500238E+002.4535523107E-01+
*       1.4389408723E-01               0
GRID*              15553               01.1487500453E+006.3144453572E-01+
*       2.2665657980E-01               0
GRID*              15554               01.1487500121E+004.9933766172E-01+
*       2.9684683755E-01               0
GRID*              15555               01.1487499816E+003.6858561729E-01+
*       3.6238779815E-01               0
GRID*              15556               01.1487499616E+002.5465607885E-01+
*       4.1618244899E-01               0
GRID*              15557               01.1487499511E+001.6207493872E-01+
*       4.6713933611E-01               0
GRID*              15558               01.1487499847E+002.6068562360E-01+
*       2.9369461311E-01               0
GRID*              15559               01.1487500111E+003.7698574509E-01+
*       2.2289827123E-01               0
GRID*              15560               01.1487500427E+003.7675867582E-01+
*       1.0003710456E-01               0
GRID*              15561               01.1487500412E+005.1199392396E-01+
*       1.3554061747E-01               0
GRID*              15562               01.1487500568E+006.4892810121E-01+
*       1.0325612782E-01               0
GRID*              15563               01.1487499523E+00-3.085255667E-01+
*       6.5916722730E-01               0
GRID*              15564               01.1487500293E+00-2.228959988E-01+
*       1.2827613886E-01               0
GRID*              15565               01.1487499886E+00-1.736519008E-01+
*       2.4072573917E-01               0
GRID*              15566               01.1487499664E+00-9.116980236E-02+
*       3.1733518200E-01               0
GRID*              15567               01.1487500143E+00-7.227062953E-02+
*       1.6029645497E-01               0
GRID*              15568               01.1487499710E+00-2.012813428E-01+
*       3.4314717925E-01               0
GRID*              15569               01.1487499539E+00-2.266466517E-01+
*       4.7077477864E-01               0
GRID*              15570               01.1487499515E+00-2.812570723E-01+
*       5.7048512582E-01               0
GRID*              15571               01.1487499541E+00-1.196404781E-01+
*       4.3190459474E-01               0
GRID*              15572               01.1487500347E+00-3.600998227E-01+
*       1.2284537013E-01               0
GRID*              15573               01.1487499970E+00-2.815686322E-01+
*       2.3918500854E-01               0
GRID*              15574               01.1487500420E+00-4.986943812E-01+
*       1.2304290414E-01               0
GRID*              15575               01.1487500108E+00-4.094504901E-01+
*       2.4172985304E-01               0
GRID*              15576               01.1487499773E+00-3.223979912E-01+
*       3.5535549158E-01               0
GRID*              15577               01.1487499672E+00-3.595688654E-01+
*       4.7447572382E-01               0
GRID*              15578               01.1487499671E+00-3.889031418E-01+
*       5.8651616237E-01               0
GRID*              15579               01.1487499952E+00-4.871597700E-01+
*       4.9435327737E-01               0
GRID*              15580               01.1487500361E+00-6.081071297E-01+
*       3.7519992438E-01               0
GRID*              15581               01.1487499955E+00-4.539290708E-01+
*       3.6421238332E-01               0
GRID*              15582               01.1487500265E+00-5.423253521E-01+
*       2.4401624713E-01               0
GRID*              15583               01.1487500512E+00-6.565006651E-01+
*       2.3701755257E-01               0
GRID*              15584               01.1487500528E+00-6.315756954E-01+
*       1.2685473348E-01               0
GRID*              15585               01.1487499475E+00-1.753685920E-02+
*       1.0650814164E+00               0
GRID*              15586               01.1487499475E+00-6.517617335E-02+
*       1.1435416779E+00               0
GRID*              15587               01.1487499475E+00-1.258959332E-01+
*       1.2405878711E+00               0
GRID*              15588               01.1487499475E+00-2.040459052E-01+
*       1.3422437371E+00               0
GRID*              15589               01.1487499475E+003.0169349589E-01+
*       9.0139777911E-01               0
GRID*              15590               01.1487499475E+004.3379546834E-01+
*       8.8896454661E-01               0
GRID*              15591               01.1487499475E+005.8643279531E-01+
*       9.0732538481E-01               0
GRID*              15592               01.1487500473E+006.2655219761E-01+
*       6.6217574057E-01               0
GRID*              15593               01.1487499744E+003.2577567540E-01+
*       8.0470524231E-01               0
GRID*              15594               01.1487500574E+004.2062972681E-01+
*       7.6381536410E-01               0
GRID*              15595               01.1487500141E+005.1636604375E-01+
*       7.1381446163E-01               0
GRID*              15596               01.1487500227E+006.2023507150E-01+
*       7.8946324897E-01               0
GRID*              15597               01.1487499997E+005.1547011677E-01+
*       8.1147161190E-01               0
GRID*              15598               01.1487499475E+00-7.112514248E-02+
*       1.3662329820E+00               0
GRID*              15599               01.1487499475E+004.5482680803E-01+
*       1.1392491989E+00               0
GRID*              15600               01.1487499475E+003.0892376526E-01+
*       1.1155615800E+00               0
GRID*              15601               01.1487499475E+001.8675435186E-01+
*       1.0974511998E+00               0
GRID*              15602               01.1487499475E+008.0437933778E-02+
*       1.0677000600E+00               0
GRID*              15603               01.1487499475E+007.3072404573E-03+
*       1.2502586911E+00               0
GRID*              15604               01.1487499475E+001.1088576329E-01+
*       1.1775590435E+00               0
GRID*              15605               01.1487499475E+002.2935621546E-02+
*       1.1387754664E+00               0
GRID*              15606               01.1487499475E+002.2842878956E-01+
*       1.2124860658E+00               0
GRID*              15607               01.1487499475E+003.6631907452E-01+
*       1.2433672171E+00               0
GRID*              15608               01.1487499475E+002.6423566919E-01+
*       1.3393538258E+00               0
GRID*              15609               01.1487499475E+001.3360038801E-01+
*       1.3044628520E+00               0
GRID*              15610               01.1487499475E+004.2174951920E-02+
*       1.3806440444E+00               0
GRID*              15611               01.1487499475E+002.4086638665E-01+
*       9.9634495980E-01               0
GRID*              15612               01.1487499475E+001.4990140053E-01+
*       1.0169308781E+00               0
GRID*              15613               01.1487499475E+003.7746266768E-01+
*       1.0109625140E+00               0
GRID*              15614               01.1487499475E+005.2794068933E-01+
*       1.0250503764E+00               0
GRID*              15615               01.1487499475E+00-1.073037697E-01+
*       1.0507620860E+00               0
GRID*              15616               01.1487500462E+00-6.212612793E-01+
*       6.7730490972E-01               0
GRID*              15617               01.1487499475E+00-2.128834825E-01+
*       1.0109762520E+00               0
GRID*              15618               01.1487499475E+00-3.371616802E-01+
*       9.9502139404E-01               0
GRID*              15619               01.1487499475E+00-4.560847890E-01+
*       9.7005495151E-01               0
GRID*              15620               01.1487499475E+00-5.862237829E-01+
*       9.3816115441E-01               0
GRID*              15621               01.1487499475E+00-2.974469768E-01+
*       1.1026404111E+00               0
GRID*              15622               01.1487499475E+00-2.551588245E-01+
*       1.2176203116E+00               0
GRID*              15623               01.1487499475E+00-1.772540802E-01+
*       1.1276559132E+00               0
GRID*              15624               01.1487499475E+00-5.452043506E-01+
*       1.0567985566E+00               0
GRID*              15625               01.1487499475E+00-4.205941700E-01+
*       1.0776079801E+00               0
GRID*              15626               01.1487499475E+00-3.419381946E-01+
*       1.3065972166E+00               0
GRID*              15627               01.1487499475E+00-3.890790757E-01+
*       1.1882546818E+00               0
GRID*              15628               01.1487499475E+00-5.009698445E-01+
*       1.1523351526E+00               0
GRID*              15629               01.1487499475E+00-3.034369748E-01+
*       8.3300446423E-01               0
GRID*              15630               01.1487499475E+00-3.739609843E-01+
*       8.9451604045E-01               0
GRID*              15631               01.1487499475E+00-2.727892402E-01+
*       9.1797629566E-01               0
GRID*              15632               01.1487499665E+00-6.121288149E-01+
*       8.1037272895E-01               0
GRID*              15633               01.1487499475E+00-4.864811115E-01+
*       8.5840236857E-01               0
GRID*              15634               01.1487499475E+00-3.959582846E-01+
*       7.9478023753E-01               0
GRID*              15635               01.1487500082E+00-5.021417744E-01+
*       7.4286586689E-01               0
GRID*              15636               01.1487500593E+006.8675721863E-01+
*       4.1235359104E-01               0
GRID*              15637               01.1487500588E+006.8675721863E-01+
*       3.3735359104E-01               0
GRID*              15638               01.1487500420E+006.2326387935E-01+
*       4.4888622761E-01               0
GRID*              15639               01.1487500175E+005.5319478741E-01+
*       4.1605659784E-01               0
GRID*              15640               01.1487500184E+005.5294422950E-01+
*       4.9023564337E-01               0
GRID*              15641               01.1487500597E+006.8650666072E-01+
*       4.8653263657E-01               0
GRID*              15642               01.1487499826E+004.4682672453E-01+
*       5.0992572700E-01               0
GRID*              15643               01.1487499766E+004.1254817781E-01+
*       4.7241288026E-01               0
GRID*              15644               01.1487499660E+003.7649976477E-01+
*       5.2493259367E-01               0
GRID*              15645               01.1487499990E+004.9642067631E-01+
*       5.2707274105E-01               0
GRID*              15646               01.1487500253E+005.6648976825E-01+
*       5.5990237082E-01               0
GRID*              15647               01.1487499884E+004.6037226327E-01+
*       5.7959245446E-01               0
GRID*              15648               01.1487499617E+003.6200158601E-01+
*       6.3123463345E-01               0
GRID*              15649               01.1487499537E+003.1780071266E-01+
*       6.5695249158E-01               0
GRID*              15650               01.1487499657E+003.6925187524E-01+
*       6.8415803551E-01               0
GRID*              15651               01.1487499743E+004.1211553004E-01+
*       6.1044280890E-01               0
GRID*              15652               01.1487499911E+004.6170948182E-01+
*       6.2758982294E-01               0
GRID*              15653               01.1487499607E+003.6066436746E-01+
*       5.8323726497E-01               0
GRID*              15654               01.1487499579E+003.2638582074E-01+
*       5.4572441822E-01               0
GRID*              15655               01.1487499511E+002.7404786490E-01+
*       5.6354915358E-01               0
GRID*              15656               01.1487499561E+002.8988326221E-01+
*       5.0524448229E-01               0
GRID*              15657               01.1487499517E+002.8197176133E-01+
*       6.9309368753E-01               0
GRID*              15658               01.1487500471E+002.8752550095E-01+
*       7.2993794682E-01               0
GRID*              15659               01.1487499484E+002.2205168544E-01+
*       5.6612021507E-01               0
GRID*              15660               01.1487499484E+001.9670798201E-01+
*       5.3880683170E-01               0
GRID*              15661               01.1487499489E+002.5855424397E-01+
*       6.0660015101E-01               0
GRID*              15662               01.1487499490E+002.7472147210E-01+
*       6.4017028548E-01               0
GRID*              15663               01.1487500509E+001.9767761553E-01+
*       7.1947043616E-02               0
GRID*              15664               01.1487500512E+002.7267761553E-01+
*       7.1947043616E-02               0
GRID*              15665               01.1487500226E+001.6618716709E-01+
*       1.4268066170E-01               0
GRID*              15666               01.1487500015E+001.2315818905E-01+
*       1.9511810058E-01               0
GRID*              15667               01.1487500036E+002.0232625303E-01+
*       1.9633152612E-01               0
GRID*              15668               01.1487500512E+001.1850955156E-01+
*       7.0733618079E-02               0
GRID*              15669               01.1487499483E+00-1.611190487E-03+
*       4.5847083700E-01               0
GRID*              15670               01.1487499488E+00-3.876739546E-02+
*       4.6125466520E-01               0
GRID*              15671               01.1487499506E+002.6814704843E-02+
*       4.2213045466E-01               0
GRID*              15672               01.1487499490E+004.7108166320E-02+
*       4.6436068580E-01               0
GRID*              15673               01.1487499767E+001.0089024475E-01+
*       2.7264441000E-01               0
GRID*              15674               01.1487499649E+001.0101240697E-01+
*       3.2775146999E-01               0
GRID*              15675               01.1487499730E+001.5941943720E-01+
*       3.0387602498E-01               0
GRID*              15676               01.1487499919E+006.4751158821E-02+
*       2.1899354558E-01               0
GRID*              15677               01.1487499577E+005.9008638088E-02+
*       3.6227007924E-01               0
GRID*              15678               01.1487499576E+001.0289281281E-02+
*       3.5638023043E-01               0
GRID*              15679               01.1487499575E+001.1753783053E-01+
*       3.9350169421E-01               0
GRID*              15680               01.1487499484E+001.5897279819E-01+
*       5.1084189093E-01               0
GRID*              15681               01.1487499485E+001.2670454054E-01+
*       4.9221179613E-01               0
GRID*              15682               01.1487500594E+006.9072226786E-01+
*       2.6332828990E-01               0
GRID*              15683               01.1487500424E+006.2747948649E-01+
*       3.0068188094E-01               0
GRID*              15684               01.1487500595E+006.9072226786E-01+
*       1.8832828990E-01               0
GRID*              15685               01.1487499506E+001.9981012254E-01+
*       4.9510427688E-01               0
GRID*              15686               01.1487499552E+002.4610069261E-01+
*       4.6962583332E-01               0
GRID*              15687               01.1487499555E+002.0836550879E-01+
*       4.4166089255E-01               0
GRID*              15688               01.1487499614E+002.9843864845E-01+
*       4.5180109796E-01               0
GRID*              15689               01.1487500219E+005.6142604949E-01+
*       3.3577700982E-01               0
GRID*              15690               01.1487500292E+005.6539109872E-01+
*       2.6175170867E-01               0
GRID*              15691               01.1487499716E+003.5540341768E-01+
*       4.2490377254E-01               0
GRID*              15692               01.1487499710E+003.1162084807E-01+
*       3.8928512357E-01               0
GRID*              15693               01.1487499856E+004.2573037743E-01+
*       4.0989690587E-01               0
GRID*              15694               01.1487500015E+004.9110639964E-01+
*       3.7712642557E-01               0
GRID*              15695               01.1487499961E+004.3396163951E-01+
*       3.2961731785E-01               0
GRID*              15696               01.1487499489E+008.3434102002E-02+
*       4.7265227980E-01               0
GRID*              15697               01.1487499727E+002.5767085123E-01+
*       3.5493853105E-01               0
GRID*              15698               01.1487499828E+003.1463562045E-01+
*       3.2804120563E-01               0
GRID*              15699               01.1487499518E+001.1880450019E-01+
*       4.4757981979E-01               0
GRID*              15700               01.1487499578E+001.6080826907E-01+
*       4.1306121053E-01               0
GRID*              15701               01.1487499741E+002.1011361151E-01+
*       3.2633884903E-01               0
GRID*              15702               01.1487499835E+002.0999144929E-01+
*       2.7123178905E-01               0
GRID*              15703               01.1487499637E+002.0709883913E-01+
*       3.8758276698E-01               0
GRID*              15704               01.1487499956E+003.7278568119E-01+
*       2.9264303469E-01               0
GRID*              15705               01.1487500085E+004.3816170340E-01+
*       2.5987255439E-01               0
GRID*              15706               01.1487499977E+003.1883568434E-01+
*       2.5829644217E-01               0
GRID*              15707               01.1487499996E+002.5302042734E-01+
*       2.1879435017E-01               0
GRID*              15708               01.1487500135E+003.1117048808E-01+
*       1.8339617923E-01               0
GRID*              15709               01.1487500584E+003.3837933791E-01+
*       5.0018552278E-02               0
GRID*              15710               01.1487500586E+004.1337933791E-01+
*       5.0018552278E-02               0
GRID*              15711               01.1487500335E+003.1105695345E-01+
*       1.2196559589E-01               0
GRID*              15712               01.1487500240E+003.7687221045E-01+
*       1.6146768789E-01               0
GRID*              15713               01.1487500252E+005.0566579284E-01+
*       2.1619372751E-01               0
GRID*              15714               01.1487500390E+005.7171922984E-01+
*       1.8109859863E-01               0
GRID*              15715               01.1487500267E+004.4448983452E-01+
*       1.7921944435E-01               0
GRID*              15716               01.1487500398E+004.4437629989E-01+
*       1.1778886101E-01               0
GRID*              15717               01.1487500544E+004.8099696198E-01+
*       6.7770308734E-02               0
GRID*              15718               01.1487500562E+005.5599696198E-01+
*       6.7770308734E-02               0
GRID*              15719               01.1487500610E+006.2446405061E-01+
*       5.1628063912E-02               0
GRID*              15720               01.1487500641E+006.9946405061E-01+
*       5.1628063912E-02               0
GRID*              15721               01.1487500617E+006.9946405061E-01+
*       1.2662806391E-01               0
GRID*              15722               01.1487500508E+006.4018631847E-01+
*       1.6495635381E-01               0
GRID*              15723               01.1487500499E+005.8046101259E-01+
*       1.1939837265E-01               0
GRID*              15724               01.1487499491E+00-2.812507564E-01+
*       7.2977454971E-01               0
GRID*              15725               01.1487499475E+00-2.812507561E-01+
*       7.6703472713E-01               0
GRID*              15726               01.1487499492E+00-2.778651826E-01+
*       6.8595352589E-01               0
GRID*              15727               01.1487499484E+00-2.668829512E-01+
*       6.5034854272E-01               0
GRID*              15728               01.1487499537E+00-3.119111405E-01+
*       7.0298825112E-01               0
GRID*              15729               01.1487499616E+00-3.540874366E-01+
*       6.7592811337E-01               0
GRID*              15730               01.1487499628E+00-3.574730104E-01+
*       7.1974913719E-01               0
GRID*              15731               01.1487500536E+00-1.864479994E-01+
*       6.4138069428E-02               0
GRID*              15732               01.1487500538E+00-2.614479994E-01+
*       6.4138069428E-02               0
GRID*              15733               01.1487500217E+00-1.475833141E-01+
*       1.4428629691E-01               0
GRID*              15734               01.1487500075E+00-1.982739498E-01+
*       1.8450093901E-01               0
GRID*              15735               01.1487499996E+00-1.229612652E-01+
*       2.0051109707E-01               0
GRID*              15736               01.1487500477E+00-1.111353148E-01+
*       8.0148227483E-02               0
GRID*              15737               01.1487500476E+00-3.613531476E-02+
*       8.0148227483E-02               0
GRID*              15738               01.1487500511E+004.3509551558E-02+
*       7.0733618079E-02               0
GRID*              15739               01.1487500180E+007.3742367952E-03+
*       1.5088184556E-01               0
GRID*              15740               01.1487499883E+00-1.489370750E-02+
*       2.2840815499E-01               0
GRID*              15741               01.1487499667E+00-2.434329392E-02+
*       3.0692751851E-01               0
GRID*              15742               01.1487499570E+00-5.653722716E-02+
*       3.6678789393E-01               0
GRID*              15743               01.1487499858E+00-8.172021594E-02+
*       2.3881581848E-01               0
GRID*              15744               01.1487499766E+00-1.324108516E-01+
*       2.7903046059E-01               0
GRID*              15745               01.1487499520E+00-7.077256502E-02+
*       4.2407260029E-01               0
GRID*              15746               01.1487499492E+00-8.763530852E-02+
*       4.6908665965E-01               0
GRID*              15747               01.1487499585E+00-1.054051402E-01+
*       3.7461988837E-01               0
GRID*              15748               01.1487499674E+00-1.462255726E-01+
*       3.3024118063E-01               0
GRID*              15749               01.1487499774E+00-1.874666218E-01+
*       2.9193645921E-01               0
GRID*              15750               01.1487499620E+00-1.604609104E-01+
*       3.8752588699E-01               0
GRID*              15751               01.1487499531E+00-1.731435649E-01+
*       4.5133968669E-01               0
GRID*              15752               01.1487499609E+00-2.139639972E-01+
*       4.0696097894E-01               0
GRID*              15753               01.1487499486E+00-2.532487040E-01+
*       6.0600749197E-01               0
GRID*              15754               01.1487499511E+00-2.948913195E-01+
*       6.1482617656E-01               0
GRID*              15755               01.1487499489E+00-1.223202390E-01+
*       4.8269911850E-01               0
GRID*              15756               01.1487499485E+00-2.322597310E-01+
*       5.7522119294E-01               0
GRID*              15757               01.1487499491E+00-2.049545207E-01+
*       5.2536601936E-01               0
GRID*              15758               01.1487499520E+00-2.539518620E-01+
*       5.2062995223E-01               0
GRID*              15759               01.1487499492E+00-1.758233258E-01+
*       5.0213421045E-01               0
GRID*              15760               01.1487500549E+00-3.300499113E-01+
*       6.1422685063E-02               0
GRID*              15761               01.1487500317E+00-2.914979107E-01+
*       1.2556075449E-01               0
GRID*              15762               01.1487500553E+00-4.050499113E-01+
*       6.1422685063E-02               0
GRID*              15763               01.1487499922E+00-2.276102665E-01+
*       2.3995537385E-01               0
GRID*              15764               01.1487499828E+00-2.414249875E-01+
*       2.9116609389E-01               0
GRID*              15765               01.1487500100E+00-2.522323155E-01+
*       1.8373057370E-01               0
GRID*              15766               01.1487500148E+00-3.208342274E-01+
*       1.8101518933E-01               0
GRID*              15767               01.1487499744E+00-2.618396670E-01+
*       3.4925133541E-01               0
GRID*              15768               01.1487499639E+00-2.745223214E-01+
*       4.1306513511E-01               0
GRID*              15769               01.1487500560E+00-4.743471906E-01+
*       6.1521452070E-02               0
GRID*              15770               01.1487500573E+00-5.493471906E-01+
*       6.1521452070E-02               0
GRID*              15771               01.1487500376E+00-4.293971019E-01+
*       1.2294413713E-01               0
GRID*              15772               01.1487500275E+00-4.540724356E-01+
*       1.8238637859E-01               0
GRID*              15773               01.1487500196E+00-3.847751564E-01+
*       1.8228761158E-01               0
GRID*              15774               01.1487499901E+00-3.019833117E-01+
*       2.9727025006E-01               0
GRID*              15775               01.1487500040E+00-3.455095612E-01+
*       2.4045743079E-01               0
GRID*              15776               01.1487499937E+00-3.659242406E-01+
*       2.9854267231E-01               0
GRID*              15777               01.1487499586E+00-3.487143543E-01+
*       6.2284169484E-01               0
GRID*              15778               01.1487499704E+00-3.942762241E-01+
*       6.3960258091E-01               0
GRID*              15779               01.1487499589E+00-2.931077585E-01+
*       4.7262525123E-01               0
GRID*              15780               01.1487499581E+00-3.204129688E-01+
*       5.2248042482E-01               0
GRID*              15781               01.1487499706E+00-3.409834283E-01+
*       4.1491560770E-01               0
GRID*              15782               01.1487499567E+00-3.350801070E-01+
*       5.7850064410E-01               0
GRID*              15783               01.1487499652E+00-3.742360036E-01+
*       5.3049594310E-01               0
GRID*              15784               01.1487500575E+00-6.790535648E-01+
*       4.1259996219E-01               0
GRID*              15785               01.1487500570E+00-6.790535648E-01+
*       3.3759996219E-01               0
GRID*              15786               01.1487500593E+00-6.844133904E-01+
*       4.9387829426E-01               0
GRID*              15787               01.1487500389E+00-6.134669552E-01+
*       4.5647825645E-01               0
GRID*              15788               01.1487499844E+00-4.450191179E-01+
*       6.0465355402E-01               0
GRID*              15789               01.1487499888E+00-4.503922002E-01+
*       6.5773997255E-01               0
GRID*              15790               01.1487499801E+00-4.380314559E-01+
*       5.4043471987E-01               0
GRID*              15791               01.1487499993E+00-4.941474320E-01+
*       5.5857211152E-01               0
GRID*              15792               01.1487500191E+00-5.529932754E-01+
*       5.1605493295E-01               0
GRID*              15793               01.1487500156E+00-5.476334499E-01+
*       4.3477660088E-01               0
GRID*              15794               01.1487500238E+00-5.599809374E-01+
*       5.8027376709E-01               0
GRID*              15795               01.1487499775E+00-4.233643177E-01+
*       4.8441450060E-01               0
GRID*              15796               01.1487499805E+00-4.067489681E-01+
*       4.1934405357E-01               0
GRID*              15797               01.1487499921E+00-4.705444204E-01+
*       4.2928283035E-01               0
GRID*              15798               01.1487499845E+00-3.881635310E-01+
*       3.5978393745E-01               0
GRID*              15799               01.1487499999E+00-4.316897805E-01+
*       3.0297111818E-01               0
GRID*              15800               01.1487500167E+00-4.758879211E-01+
*       2.4287305009E-01               0
GRID*              15801               01.1487500329E+00-5.205098666E-01+
*       1.8352957564E-01               0
GRID*              15802               01.1487500110E+00-4.981272115E-01+
*       3.0411431523E-01               0
GRID*              15803               01.1487500117E+00-5.310181003E-01+
*       3.6970615385E-01               0
GRID*              15804               01.1487500270E+00-5.752162409E-01+
*       3.0960808576E-01               0
GRID*              15805               01.1487500620E+00-7.032503326E-01+
*       2.6850877629E-01               0
GRID*              15806               01.1487500619E+00-7.032503326E-01+
*       1.9350877629E-01               0
GRID*              15807               01.1487500438E+00-6.323038974E-01+
*       3.0610873848E-01               0
GRID*              15808               01.1487500375E+00-5.994130086E-01+
*       2.4051689985E-01               0
GRID*              15809               01.1487500601E+00-6.907878477E-01+
*       1.3842736674E-01               0
GRID*              15810               01.1487500502E+00-6.440381803E-01+
*       1.8193614303E-01               0
GRID*              15811               01.1487500630E+00-6.907878477E-01+
*       6.3427366740E-02               0
GRID*              15812               01.1487500592E+00-6.157878477E-01+
*       6.3427366740E-02               0
GRID*              15813               01.1487500484E+00-5.651350383E-01+
*       1.2494881881E-01               0
GRID*              15814               01.1487500409E+00-5.869505238E-01+
*       1.8543549031E-01               0
GRID*              15815               01.1487500609E+006.8827609880E-01+
*       6.3108787028E-01               0
GRID*              15816               01.1487500614E+006.8827609880E-01+
*       7.0608787028E-01               0
GRID*              15817               01.1487500453E+006.2478275952E-01+
*       5.9262050685E-01               0
GRID*              15818               01.1487500284E+005.6825920633E-01+
*       6.2945760453E-01               0
GRID*              15819               01.1487500602E+006.8650666072E-01+
*       5.6153263657E-01               0
GRID*              15820               01.1487500353E+002.8788783770E-01+
*       7.7735262116E-01               0
GRID*              15821               01.1487499495E+002.8233409808E-01+
*       8.1419688044E-01               0
GRID*              15822               01.1487500639E+003.2541333865E-01+
*       7.5729056797E-01               0
GRID*              15823               01.1487500422E+003.7320270111E-01+
*       7.8426030321E-01               0
GRID*              15824               01.1487500591E+003.7284036435E-01+
*       7.3684562887E-01               0
GRID*              15825               01.1487499838E+004.1704123770E-01+
*       7.1112777074E-01               0
GRID*              15826               01.1487500104E+005.1316612940E-01+
*       6.5527696506E-01               0
GRID*              15827               01.1487500315E+005.7145912068E-01+
*       6.8799510110E-01               0
GRID*              15828               01.1487499951E+004.6490939617E-01+
*       6.8612731951E-01               0
GRID*              15829               01.1487500567E+004.6849788528E-01+
*       7.3881491287E-01               0
GRID*              15830               01.1487499475E+002.7029300833E-01+
*       8.6254314883E-01               0
GRID*              15831               01.1487499475E+002.5412578009E-01+
*       8.9611328318E-01               0
GRID*              15832               01.1487500543E+006.8511753575E-01+
*       7.6973162449E-01               0
GRID*              15833               01.1487500480E+006.2339363456E-01+
*       7.2581949477E-01               0
GRID*              15834               01.1487499542E+006.7791165767E-01+
*       8.4289041666E-01               0
GRID*              15835               01.1487499476E+006.0333393341E-01+
*       8.4839431689E-01               0
GRID*              15836               01.1487499475E+006.6101051957E-01+
*       9.0182148457E-01               0
GRID*              15837               01.1487500666E+005.6830055763E-01+
*       7.5163885530E-01               0
GRID*              15838               01.1487499475E+003.1373458565E-01+
*       8.5305151071E-01               0
GRID*              15839               01.1487499475E+003.7978557187E-01+
*       8.4683489446E-01               0
GRID*              15840               01.1487499519E+004.2721259758E-01+
*       8.2638995536E-01               0
GRID*              15841               01.1487499475E+003.6774448212E-01+
*       8.9518116286E-01               0
GRID*              15842               01.1487499475E+005.5095145604E-01+
*       8.5939849836E-01               0
GRID*              15843               01.1487499475E+004.7463279256E-01+
*       8.5021807926E-01               0
GRID*              15844               01.1487499475E+005.1011413182E-01+
*       8.9814496571E-01               0
GRID*              15845               01.1487500252E+004.6804992179E-01+
*       7.8764348800E-01               0
GRID*              15846               01.1487500594E+005.1591808026E-01+
*       7.6264303677E-01               0
GRID*              15847               01.1487500022E+005.6785259414E-01+
*       8.0046743044E-01               0
GRID*              15848               01.1487499475E+00-1.087214127E-01+
*       1.4259107904E+00               0
GRID*              15849               01.1487499475E+00-3.556257124E-02+
*       1.4331160149E+00               0
GRID*              15850               01.1487499475E+00-1.375855238E-01+
*       1.3542383596E+00               0
GRID*              15851               01.1487499475E+00-9.851053784E-02+
*       1.3034104265E+00               0
GRID*              15852               01.1487499475E+00-1.649709192E-01+
*       1.2914158041E+00               0
GRID*              15853               01.1487499475E+00-1.751817941E-01+
*       1.4139161679E+00               0
GRID*              15854               01.1487499475E+00-2.455291959E-01+
*       1.3925765987E+00               0
GRID*              15855               01.1487499475E+009.5661848532E-02+
*       1.1226295518E+00               0
GRID*              15856               01.1487499475E+001.4882005757E-01+
*       1.1375051217E+00               0
GRID*              15857               01.1487499475E+001.3359614282E-01+
*       1.0825756299E+00               0
GRID*              15858               01.1487499475E+005.1686777662E-02+
*       1.1032377632E+00               0
GRID*              15859               01.1487499475E+006.6910692416E-02+
*       1.1581672550E+00               0
GRID*              15860               01.1487499475E+002.6993811735E-03+
*       1.1019284414E+00               0
GRID*              15861               01.1487499475E+00-4.135651627E-02+
*       1.1043115471E+00               0
GRID*              15862               01.1487499475E+00-2.112027590E-02+
*       1.1411585722E+00               0
GRID*              15863               01.1487499475E+003.1450537289E-02+
*       1.0663907382E+00               0
GRID*              15864               01.1487499475E+00-5.929434637E-02+
*       1.2454232811E+00               0
GRID*              15865               01.1487499475E+00-3.190895101E-02+
*       1.3082458366E+00               0
GRID*              15866               01.1487499475E+001.5121431002E-02+
*       1.1945170788E+00               0
GRID*              15867               01.1487499475E+005.9096501871E-02+
*       1.2139088673E+00               0
GRID*              15868               01.1487499475E+00-2.893446645E-02+
*       1.1969001845E+00               0
GRID*              15869               01.1487499475E+00-9.553605327E-02+
*       1.1920647745E+00               0
GRID*              15870               01.1487499475E+002.0759157071E-01+
*       1.1549686328E+00               0
GRID*              15871               01.1487499475E+002.6867627741E-01+
*       1.1640238229E+00               0
GRID*              15872               01.1487499475E+002.4783905856E-01+
*       1.1065063899E+00               0
GRID*              15873               01.1487499475E+001.6965727642E-01+
*       1.1950225547E+00               0
GRID*              15874               01.1487499475E+004.9257826119E-01+
*       1.2097894491E+00               0
GRID*              15875               01.1487499475E+004.1057294127E-01+
*       1.1913082080E+00               0
GRID*              15876               01.1487499475E+004.4832439443E-01+
*       1.2618484583E+00               0
GRID*              15877               01.1487499475E+005.3921447747E-01+
*       1.1529634220E+00               0
GRID*              15878               01.1487499475E+003.3762141989E-01+
*       1.1794643986E+00               0
GRID*              15879               01.1487499475E+002.9737393204E-01+
*       1.2279266415E+00               0
GRID*              15880               01.1487499475E+003.8187528664E-01+
*       1.1274053894E+00               0
GRID*              15881               01.1487499475E+003.9149811955E-01+
*       1.3084843392E+00               0
GRID*              15882               01.1487499475E+003.4045641689E-01+
*       1.3564776435E+00               0
GRID*              15883               01.1487499475E+002.7562407790E-01+
*       1.3911316430E+00               0
GRID*              15884               01.1487499475E+003.1527737185E-01+
*       1.2913605215E+00               0
GRID*              15885               01.1487499475E+002.4633222938E-01+
*       1.2759199458E+00               0
GRID*              15886               01.1487499475E+001.2224307565E-01+
*       1.2410109478E+00               0
GRID*              15887               01.1487499475E+007.0453814232E-02+
*       1.2773607715E+00               0
GRID*              15888               01.1487499475E+001.8101458879E-01+
*       1.2584744589E+00               0
GRID*              15889               01.1487499475E+001.9891802860E-01+
*       1.3219083389E+00               0
GRID*              15890               01.1487499475E+002.4741096189E-02+
*       1.3154513677E+00               0
GRID*              15891               01.1487499475E+008.7887669964E-02+
*       1.3425534482E+00               0
GRID*              15892               01.1487499475E+00-1.447509528E-02+
*       1.3734385132E+00               0
GRID*              15893               01.1487499475E+002.1087475960E-02+
*       1.4403215461E+00               0
GRID*              15894               01.1487499475E+009.4246317409E-02+
*       1.4331163216E+00               0
GRID*              15895               01.1487499475E+002.0527667604E-01+
*       1.4124712123E+00               0
GRID*              15896               01.1487499475E+001.3995903545E-01+
*       1.3950257254E+00               0
GRID*              15897               01.1487499475E+002.1381036926E-01+
*       1.0468980798E+00               0
GRID*              15898               01.1487499475E+002.7489507596E-01+
*       1.0559532699E+00               0
GRID*              15899               01.1487499475E+004.9560103231E-02+
*       1.0334994953E+00               0
GRID*              15900               01.1487499475E+008.5886039872E-02+
*       1.0252079026E+00               0
GRID*              15901               01.1487499475E+005.7270674197E-04+
*       1.0321901735E+00               0
GRID*              15902               01.1487499475E+001.9538389359E-01+
*       1.0066379189E+00               0
GRID*              15903               01.1487499475E+001.6832787620E-01+
*       1.0571910389E+00               0
GRID*              15904               01.1487499475E+001.9836852385E-01+
*       9.7090025913E-01               0
GRID*              15905               01.1487499475E+001.5288603079E-01+
*       9.8119321825E-01               0
GRID*              15906               01.1487499475E+002.2371222547E-01+
*       9.4358687353E-01               0
GRID*              15907               01.1487499475E+001.2061777325E-01+
*       9.9982331166E-01               0
GRID*              15908               01.1487499475E+001.1516966716E-01+
*       1.0423154690E+00               0
GRID*              15909               01.1487499475E+002.7127994127E-01+
*       9.4887136945E-01               0
GRID*              15910               01.1487499475E+003.3957808179E-01+
*       9.5618014653E-01               0
GRID*              15911               01.1487499475E+004.0562906801E-01+
*       9.4996353028E-01               0
GRID*              15912               01.1487499475E+003.0916452717E-01+
*       1.0036537369E+00               0
GRID*              15913               01.1487499475E+003.4319321647E-01+
*       1.0632620470E+00               0
GRID*              15914               01.1487499475E+006.3967081915E-01+
*       9.7216882104E-01               0
GRID*              15915               01.1487499475E+005.7577141812E-01+
*       1.0958640108E+00               0
GRID*              15916               01.1487499475E+004.9138374868E-01+
*       1.0821497876E+00               0
GRID*              15917               01.1487499475E+006.1042476616E-01+
*       1.0310313168E+00               0
GRID*              15918               01.1487499475E+005.5718674232E-01+
*       9.6618788059E-01               0
GRID*              15919               01.1487499475E+004.8086807883E-01+
*       9.5700746149E-01               0
GRID*              15920               01.1487499475E+004.1614473786E-01+
*       1.0751058564E+00               0
GRID*              15921               01.1487499475E+004.5270167851E-01+
*       1.0180064452E+00               0
GRID*              15922               01.1487500598E+00-6.844133904E-01+
*       5.6887829426E-01               0
GRID*              15923               01.1487500442E+00-6.200440300E-01+
*       6.0753074912E-01               0
GRID*              15924               01.1487500267E+00-5.611981867E-01+
*       6.5004792769E-01               0
GRID*              15925               01.1487500605E+00-6.856306396E-01+
*       6.3865245486E-01               0
GRID*              15926               01.1487500611E+00-6.856306396E-01+
*       7.1365245486E-01               0
GRID*              15927               01.1487499475E+00-1.212151268E-01+
*       1.1355987956E+00               0
GRID*              15928               01.1487499475E+00-8.623997151E-02+
*       1.0971518820E+00               0
GRID*              15929               01.1487499475E+00-1.422789249E-01+
*       1.0892089996E+00               0
GRID*              15930               01.1487499475E+00-1.905273788E-01+
*       1.2291040914E+00               0
GRID*              15931               01.1487499475E+00-2.296023648E-01+
*       1.2799320244E+00               0
GRID*              15932               01.1487499475E+00-1.515750067E-01+
*       1.1841218921E+00               0
GRID*              15933               01.1487499475E+00-2.162064523E-01+
*       1.1726381124E+00               0
GRID*              15934               01.1487499475E+00-1.950687813E-01+
*       1.0693160826E+00               0
GRID*              15935               01.1487499475E+00-1.600936261E-01+
*       1.0308691690E+00               0
GRID*              15936               01.1487499475E+00-2.373505285E-01+
*       1.1151481621E+00               0
GRID*              15937               01.1487499475E+00-2.763029006E-01+
*       1.1601303614E+00               0
GRID*              15938               01.1487499475E+00-2.551652296E-01+
*       1.0568083316E+00               0
GRID*              15939               01.1487499475E+00-2.750225813E-01+
*       1.0029988230E+00               0
GRID*              15940               01.1487499475E+00-3.173043285E-01+
*       1.0488309026E+00               0
GRID*              15941               01.1487499475E+00-6.395663129E-01+
*       9.8758670584E-01               0
GRID*              15942               01.1487499475E+00-6.609060133E-01+
*       9.1723936938E-01               0
GRID*              15943               01.1487499475E+00-6.190565968E-01+
*       1.0469054069E+00               0
GRID*              15944               01.1487499475E+00-5.657140667E-01+
*       9.9747985552E-01               0
GRID*              15945               01.1487499475E+00-3.788779251E-01+
*       1.0363146871E+00               0
GRID*              15946               01.1487499475E+00-3.590205734E-01+
*       1.0901241956E+00               0
GRID*              15947               01.1487499475E+00-3.966232346E-01+
*       9.8253817278E-01               0
GRID*              15948               01.1487499475E+00-4.383394795E-01+
*       1.0238314658E+00               0
GRID*              15949               01.1487499475E+00-5.006445698E-01+
*       1.0134267541E+00               0
GRID*              15950               01.1487499475E+00-5.211542859E-01+
*       9.5410805296E-01               0
GRID*              15951               01.1487499475E+00-4.828992603E-01+
*       1.0672032683E+00               0
GRID*              15952               01.1487499475E+00-5.844032487E-01+
*       1.1117381009E+00               0
GRID*              15953               01.1487499475E+00-2.729920499E-01+
*       1.3244204768E+00               0
GRID*              15954               01.1487499475E+00-2.985485096E-01+
*       1.2621087641E+00               0
GRID*              15955               01.1487499475E+00-3.144753406E-01+
*       1.3747533384E+00               0
GRID*              15956               01.1487499475E+00-3.793076796E-01+
*       1.3400993389E+00               0
GRID*              15957               01.1487499475E+00-3.221189501E-01+
*       1.2029374967E+00               0
GRID*              15958               01.1487499475E+00-3.655086352E-01+
*       1.2474259492E+00               0
GRID*              15959               01.1487499475E+00-3.432630262E-01+
*       1.1454475464E+00               0
GRID*              15960               01.1487499475E+00-4.048366229E-01+
*       1.1329313309E+00               0
GRID*              15961               01.1487499475E+00-5.230870975E-01+
*       1.1045668546E+00               0
GRID*              15962               01.1487499475E+00-5.622859957E-01+
*       1.1595063989E+00               0
GRID*              15963               01.1487499475E+00-4.607820072E-01+
*       1.1149715663E+00               0
GRID*              15964               01.1487499475E+00-4.450244601E-01+
*       1.1702949172E+00               0
GRID*              15965               01.1487499475E+00-5.156497794E-01+
*       1.2163324260E+00               0
GRID*              15966               01.1487499475E+00-4.361339545E-01+
*       1.2934634580E+00               0
GRID*              15967               01.1487499475E+00-4.597043950E-01+
*       1.2342921906E+00               0
GRID*              15968               01.1487499475E+00-2.643386544E-01+
*       8.4573730478E-01               0
GRID*              15969               01.1487499475E+00-2.753208863E-01+
*       8.1013232177E-01               0
GRID*              15970               01.1487499475E+00-2.881131075E-01+
*       8.7549037995E-01               0
GRID*              15971               01.1487499475E+00-2.490147871E-01+
*       8.8822322049E-01               0
GRID*              15972               01.1487499475E+00-3.386989796E-01+
*       8.6376025234E-01               0
GRID*              15973               01.1487499475E+00-3.233751123E-01+
*       9.0624616805E-01               0
GRID*              15974               01.1487499475E+00-3.555613323E-01+
*       9.4476871725E-01               0
GRID*              15975               01.1487499475E+00-4.150228867E-01+
*       9.3228549598E-01               0
GRID*              15976               01.1487499475E+00-3.049754602E-01+
*       9.5649884485E-01               0
GRID*              15977               01.1487499475E+00-2.280258134E-01+
*       9.1900951900E-01               0
GRID*              15978               01.1487499475E+00-1.689417430E-01+
*       9.8874131029E-01               0
GRID*              15979               01.1487499475E+00-1.161518866E-01+
*       1.0086342273E+00               0
GRID*              15980               01.1487499475E+00-2.428363613E-01+
*       9.6447627384E-01               0
GRID*              15981               01.1487499475E+00-1.980729345E-01+
*       9.6550949718E-01               0
GRID*              15982               01.1487500349E+00-6.810644075E-01+
*       7.8018636448E-01               0
GRID*              15983               01.1487500461E+00-6.166950471E-01+
*       7.4383881934E-01               0
GRID*              15984               01.1487499475E+00-6.738585294E-01+
*       8.5334515665E-01               0
GRID*              15985               01.1487499475E+00-5.991762989E-01+
*       8.7426694168E-01               0
GRID*              15986               01.1487499475E+00-4.712829502E-01+
*       9.1422866004E-01               0
GRID*              15987               01.1487499475E+00-4.302210479E-01+
*       8.7645920451E-01               0
GRID*              15988               01.1487499475E+00-5.363524472E-01+
*       8.9828176149E-01               0
GRID*              15989               01.1487499475E+00-5.493049632E-01+
*       8.3438754876E-01               0
GRID*              15990               01.1487499475E+00-3.849596345E-01+
*       8.4464813899E-01               0
GRID*              15991               01.1487499475E+00-4.412196980E-01+
*       8.2659130305E-01               0
GRID*              15992               01.1487499475E+00-3.496976297E-01+
*       8.1389235088E-01               0
GRID*              15993               01.1487499475E+00-3.093668445E-01+
*       7.8990686959E-01               0
GRID*              15994               01.1487499482E+00-3.556274994E-01+
*       7.7079475624E-01               0
GRID*              15995               01.1487499728E+00-3.978037955E-01+
*       7.4373461849E-01               0
GRID*              15996               01.1487499489E+00-4.943114429E-01+
*       8.0063411773E-01               0
GRID*              15997               01.1487499737E+00-4.490500295E-01+
*       7.6882305221E-01               0
GRID*              15998               01.1487500019E+00-5.571352947E-01+
*       7.7661929792E-01               0
GRID*              15999               01.1487500292E+00-5.617015269E-01+
*       7.1008538831E-01               0
GRID*              16000               01.1487499916E+00-4.508955404E-01+
*       7.1777743317E-01               0
GRID*              16001               01.1487500076E+00-5.016384343E-01+
*       6.8282840628E-01               0
GRID*              16002               01.1487499475E+00-8.146695304E-02+
*       1.0222466789E+00               0
GRID*              16003               01.1487499475E+00-3.658349780E-02+
*       1.0294063440E+00               0
GRID*              16004               01.1487499475E+00-6.242031443E-02+
*       1.0579217512E+00               0
GRID*              16005               01.3154174318E+002.3889118736E-01+
*       6.7630832852E-01               0
GRID*              16006               01.3154192073E+002.0655125218E-01+
*       6.0916240495E-01               0
GRID*              16007               01.3154207008E+001.5585657504E-01+
*       5.5453370472E-01               0
GRID*              16008               01.3154200417E+009.1320301192E-02+
*       5.1727857862E-01               0
GRID*              16009               01.3154146472E+001.8690608297E-02+
*       5.0070220773E-01               0
GRID*              16010               01.3154147515E+00-5.562224580E-02+
*       5.0626771235E-01               0
GRID*              16011               01.3154166142E+00-1.249999999E-01+
*       5.3349364226E-01               0
GRID*              16012               01.3154174339E+00-1.832644530E-01+
*       5.7995999154E-01               0
GRID*              16013               01.3154192073E+00-2.252445578E-01+
*       6.4154016097E-01               0
GRID*              16014               01.3154207007E+00-2.472070585E-01+
*       7.1275739141E-01               0
GRID*              16015               01.3154200417E+00-2.472027934E-01+
*       7.8727500268E-01               0
GRID*              16016               01.3154146472E+00-2.252435147E-01+
*       8.5846235658E-01               0
GRID*              16017               01.3154147515E+00-1.832672113E-01+
*       9.2003641287E-01               0
GRID*              16018               01.3154166142E+00-1.250000035E-01+
*       9.6650636855E-01               0
GRID*              16019               01.3154174339E+00-5.562674022E-02+
*       9.9373169350E-01               0
GRID*              16020               01.3154192072E+001.8693308059E-02+
*       9.9929743665E-01               0
GRID*              16021               01.3154207008E+009.1350487798E-02+
*       9.8270891680E-01               0
GRID*              16022               01.3154200417E+001.5588249552E-01+
*       9.4544641152E-01               0
GRID*              16023               01.3154146472E+002.0655290870E-01+
*       8.9083543606E-01               0
GRID*              16024               01.3154147494E+002.3888945157E-01+
*       8.2369586171E-01               0
GRID*              16025               01.2320851395E+002.3888945157E-01+
*       6.7630413829E-01               0
GRID*              16026               01.2320852479E+002.0655290870E-01+
*       6.0916456394E-01               0
GRID*              16027               01.2320798534E+001.5588249412E-01+
*       5.5455359239E-01               0
GRID*              16028               01.2320791943E+009.1350482997E-02+
*       5.1729108372E-01               0
GRID*              16029               01.2320806879E+001.8693306366E-02+
*       5.0070256257E-01               0
GRID*              16030               01.2320824612E+00-5.562674261E-02+
*       5.0626830375E-01               0
GRID*              16031               01.2320832809E+00-1.249999999E-01+
*       5.3349364226E-01               0
GRID*              16032               01.2320851436E+00-1.832672139E-01+
*       5.7996358994E-01               0
GRID*              16033               01.2320852479E+00-2.252435164E-01+
*       6.4153764687E-01               0
GRID*              16034               01.2320798534E+00-2.472027940E-01+
*       7.1272500111E-01               0
GRID*              16035               01.2320791944E+00-2.472070579E-01+
*       7.8724261238E-01               0
GRID*              16036               01.2320806878E+00-2.252445562E-01+
*       8.5845984249E-01               0
GRID*              16037               01.2320824612E+00-1.832644504E-01+
*       9.2004001127E-01               0
GRID*              16038               01.2320832809E+00-1.250000035E-01+
*       9.6650636855E-01               0
GRID*              16039               01.2320851436E+00-5.562224342E-02+
*       9.9373228495E-01               0
GRID*              16040               01.2320852479E+001.8690609977E-02+
*       9.9929779152E-01               0
GRID*              16041               01.2320798534E+009.1320305099E-02+
*       9.8272141979E-01               0
GRID*              16042               01.2320791943E+001.5585657777E-01+
*       9.4546630093E-01               0
GRID*              16043               01.2320806878E+002.0655125218E-01+
*       8.9083759505E-01               0
GRID*              16044               01.2320824570E+002.3889118736E-01+
*       8.2369167148E-01               0
GRID*              16045               01.2737514376E+002.3889006666E-01+
*       6.7630562312E-01               0
GRID*              16046               01.2320806857E+002.2524455699E-01+
*       6.4154015924E-01               0
GRID*              16047               01.2737460989E+002.2524664458E-01+
*       6.4154519874E-01               0
GRID*              16048               01.2737537951E+002.0654793170E-01+
*       6.0915807725E-01               0
GRID*              16049               01.3154146461E+002.2524351554E-01+
*       6.4153764515E-01               0
GRID*              16050               01.2320824612E+001.8326445168E-01+
*       5.7995999013E-01               0
GRID*              16051               01.2737484544E+001.8326623425E-01+
*       5.7996231342E-01               0
GRID*              16052               01.2737531302E+001.5585969241E-01+
*       5.5453609667E-01               0
GRID*              16053               01.3154147515E+001.8326721260E-01+
*       5.7996358853E-01               0
GRID*              16054               01.2320832809E+001.2499999820E-01+
*       5.3349364130E-01               0
GRID*              16055               01.2737499475E+001.2499999820E-01+
*       5.3349364130E-01               0
GRID*              16056               01.2737467649E+009.1346852917E-02+
*       5.1728957969E-01               0
GRID*              16057               01.3154166142E+001.2499999820E-01+
*       5.3349364130E-01               0
GRID*              16058               01.2320851436E+005.5622243933E-02+
*       5.0626771192E-01               0
GRID*              16059               01.2737514407E+005.5623837406E-02+
*       5.0626792149E-01               0
GRID*              16060               01.2737461000E+001.8698714551E-02+
*       5.0070327383E-01               0
GRID*              16061               01.3154174339E+005.5626740743E-02+
*       5.0626830333E-01               0
GRID*              16062               01.2320852479E+00-1.869061020E-02+
*       5.0070220787E-01               0
GRID*              16063               01.2737537951E+00-1.869871646E-02+
*       5.0070327398E-01               0
GRID*              16064               01.2737484544E+00-5.562383928E-02+
*       5.0626792191E-01               0
GRID*              16065               01.3154192072E+00-1.869330828E-02+
*       5.0070256271E-01               0
GRID*              16066               01.2320798534E+00-9.132030297E-02+
*       5.1727857932E-01               0
GRID*              16067               01.2737531302E+00-9.134685470E-02+
*       5.1728958038E-01               0
GRID*              16068               01.2737499475E+00-1.249999999E-01+
*       5.3349364226E-01               0
GRID*              16069               01.3154207008E+00-9.135048478E-02+
*       5.1729108442E-01               0
GRID*              16070               01.2737467649E+00-1.558596939E-01+
*       5.5453609786E-01               0
GRID*              16071               01.3154200417E+00-1.558824956E-01+
*       5.5455359359E-01               0
GRID*              16072               01.2320791943E+00-1.558565765E-01+
*       5.5453370591E-01               0
GRID*              16073               01.2737514407E+00-1.832662356E-01+
*       5.7996231482E-01               0
GRID*              16074               01.2737461000E+00-2.065479328E-01+
*       6.0915807883E-01               0
GRID*              16075               01.3154146472E+00-2.065529098E-01+
*       6.0916456552E-01               0
GRID*              16076               01.2320806878E+00-2.065512533E-01+
*       6.0916240653E-01               0
GRID*              16077               01.2737537951E+00-2.252466454E-01+
*       6.4154520047E-01               0
GRID*              16078               01.2737484544E+00-2.388900672E-01+
*       6.7630562496E-01               0
GRID*              16079               01.3154147515E+00-2.388894521E-01+
*       6.7630414012E-01               0
GRID*              16080               01.2320824612E+00-2.388911879E-01+
*       6.7630833035E-01               0
GRID*              16081               01.2737531302E+00-2.472065455E-01+
*       7.1275349569E-01               0
GRID*              16082               01.2737499475E+00-2.500000000E-01+
*       7.5000000192E-01               0
GRID*              16083               01.3154166142E+00-2.500000000E-01+
*       7.5000000192E-01               0
GRID*              16084               01.2320832809E+00-2.500000000E-01+
*       7.5000000192E-01               0
GRID*              16085               01.2737467649E+00-2.472065450E-01+
*       7.8724650809E-01               0
GRID*              16086               01.2737514407E+00-2.388900661E-01+
*       8.2369437871E-01               0
GRID*              16087               01.3154174339E+00-2.388911868E-01+
*       8.2369167331E-01               0
GRID*              16088               01.2320851436E+00-2.388894510E-01+
*       8.2369586355E-01               0
GRID*              16089               01.2737461000E+00-2.252466438E-01+
*       8.5845480299E-01               0
GRID*              16090               01.2737537951E+00-2.065479306E-01+
*       8.9084192434E-01               0
GRID*              16091               01.3154192073E+00-2.065512511E-01+
*       8.9083759664E-01               0
GRID*              16092               01.2320852479E+00-2.065529076E-01+
*       8.9083543764E-01               0
GRID*              16093               01.2737484544E+00-1.832662329E-01+
*       9.2003768799E-01               0
GRID*              16094               01.2737531302E+00-1.558596935E-01+
*       9.4546390995E-01               0
GRID*              16095               01.3154207008E+00-1.558565763E-01+
*       9.4546630213E-01               0
GRID*              16096               01.2320798534E+00-1.558824940E-01+
*       9.4544641271E-01               0
GRID*              16097               01.2737499475E+00-1.250000035E-01+
*       9.6650636855E-01               0
GRID*              16098               01.2737467649E+00-9.134685583E-02+
*       9.8271042128E-01               0
GRID*              16099               01.3154200417E+00-9.132030332E-02+
*       9.8272142049E-01               0
GRID*              16100               01.2320791943E+00-9.135048601E-02+
*       9.8270891750E-01               0
GRID*              16101               01.2737514407E+00-5.562383689E-02+
*       9.9373207537E-01               0
GRID*              16102               01.2737461000E+00-1.869871432E-02+
*       9.9929672548E-01               0
GRID*              16103               01.3154146472E+00-1.869060807E-02+
*       9.9929779167E-01               0
GRID*              16104               01.2320806879E+00-1.869330615E-02+
*       9.9929743680E-01               0
GRID*              16105               01.2737537951E+001.8698716235E-02+
*       9.9929672533E-01               0
GRID*              16106               01.2737484544E+005.5623838761E-02+
*       9.9373207494E-01               0
GRID*              16107               01.3154147515E+005.5622245290E-02+
*       9.9373228452E-01               0
GRID*              16108               01.2320824612E+005.5626742087E-02+
*       9.9373169307E-01               0
GRID*              16109               01.2737531302E+009.1346857607E-02+
*       9.8271042058E-01               0
GRID*              16110               01.2737499475E+001.2500000515E-01+
*       9.6650636759E-01               0
GRID*              16111               01.3154166142E+001.2500000515E-01+
*       9.6650636759E-01               0
GRID*              16112               01.2320832809E+001.2500000515E-01+
*       9.6650636759E-01               0
GRID*              16113               01.2737467649E+001.5585969499E-01+
*       9.4546390876E-01               0
GRID*              16114               01.2737514407E+001.8326623425E-01+
*       9.2003768658E-01               0
GRID*              16115               01.3154174339E+001.8326445168E-01+
*       9.2004000987E-01               0
GRID*              16116               01.2320851436E+001.8326721260E-01+
*       9.2003641147E-01               0
GRID*              16117               01.2737461000E+002.0654793170E-01+
*       8.9084192275E-01               0
GRID*              16118               01.2737537941E+002.2524664458E-01+
*       8.5845480126E-01               0
GRID*              16119               01.3154192063E+002.2524455699E-01+
*       8.5845984076E-01               0
GRID*              16120               01.2320852459E+002.2524351554E-01+
*       8.5846235485E-01               0
GRID*              16121               01.2737484513E+002.3889006666E-01+
*       8.2369437688E-01               0
GRID*              16122               01.3570854728E+002.4720350623E-01+
*       7.1273041133E-01               0
GRID*              16123               01.3154200605E+002.4720279367E-01+
*       7.1272499922E-01               0
GRID*              16124               01.3570835196E+002.3889215230E-01+
*       6.7631065790E-01               0
GRID*              16125               01.2737468036E+002.4720654527E-01+
*       7.1275349383E-01               0
GRID*              16126               01.2320792321E+002.4720705819E-01+
*       7.1275738969E-01               0
GRID*              16127               01.1904150952E+002.4720563366E-01+
*       7.1274656985E-01               0
GRID*              16128               01.1904172348E+002.3889150989E-01+
*       6.7630910711E-01               0
GRID*              16129               01.1904157765E+002.2524163251E-01+
*       6.4153309949E-01               0
GRID*              16130               01.1904145622E+002.0656354587E-01+
*       6.0917842773E-01               0
GRID*              16131               01.1904163744E+001.8326291687E-01+
*       5.7995798976E-01               0
GRID*              16132               01.1904144420E+001.5587816329E-01+
*       5.5455026936E-01               0
GRID*              16133               01.1904166142E+001.2499999820E-01+
*       5.3349364130E-01               0
GRID*              16134               01.1904150376E+009.1340400803E-02+
*       5.1728690641E-01               0
GRID*              16135               01.1904172400E+005.5627576312E-02+
*       5.0626841322E-01               0
GRID*              16136               01.1904157787E+001.8685730088E-02+
*       5.0070156616E-01               0
GRID*              16137               01.1904145623E+00-1.867328504E-02+
*       5.0069992932E-01               0
GRID*              16138               01.1904163744E+00-5.562924242E-02+
*       5.0626863252E-01               0
GRID*              16139               01.1904144421E+00-9.132534607E-02+
*       5.1728066881E-01               0
GRID*              16140               01.1904166142E+00-1.249999999E-01+
*       5.3349364226E-01               0
GRID*              16141               01.1904150375E+00-1.558652348E-01+
*       5.5454034937E-01               0
GRID*              16142               01.1904172400E+00-1.832639400E-01+
*       5.7995932291E-01               0
GRID*              16143               01.1904157786E+00-2.065559049E-01+
*       6.0916846914E-01               0
GRID*              16144               01.1904145622E+00-2.252368288E-01+
*       6.4152150284E-01               0
GRID*              16145               01.1904163744E+00-2.388921529E-01+
*       6.7631065973E-01               0
GRID*              16146               01.1904144421E+00-2.472035065E-01+
*       7.1273041323E-01               0
GRID*              16147               01.1904166142E+00-2.500000000E-01+
*       7.5000000192E-01               0
GRID*              16148               01.1904150377E+00-2.472056333E-01+
*       7.8725343231E-01               0
GRID*              16149               01.1904172400E+00-2.388915093E-01+
*       8.2369089473E-01               0
GRID*              16150               01.1904157786E+00-2.252416317E-01+
*       8.5846690224E-01               0
GRID*              16151               01.1904145622E+00-2.065635448E-01+
*       8.9082157386E-01               0
GRID*              16152               01.1904163744E+00-1.832629156E-01+
*       9.2004201164E-01               0
GRID*              16153               01.1904144420E+00-1.558781634E-01+
*       9.4544973605E-01               0
GRID*              16154               01.1904166142E+00-1.250000035E-01+
*       9.6650636855E-01               0
GRID*              16155               01.1904150376E+00-9.134040352E-02+
*       9.8271309411E-01               0
GRID*              16156               01.1904172400E+00-5.562757576E-02+
*       9.9373158360E-01               0
GRID*              16157               01.1904157787E+00-1.868572988E-02+
*       9.9929843328E-01               0
GRID*              16158               01.1904145623E+001.8673284848E-02+
*       9.9930007024E-01               0
GRID*              16159               01.1904163744E+005.5629241884E-02+
*       9.9373136429E-01               0
GRID*              16160               01.1904144421E+009.1325348344E-02+
*       9.8271933066E-01               0
GRID*              16161               01.1904166142E+001.2500000515E-01+
*       9.6650636759E-01               0
GRID*              16162               01.1904150375E+001.5586523556E-01+
*       9.4545965690E-01               0
GRID*              16163               01.1904172400E+001.8326393867E-01+
*       9.2004067849E-01               0
GRID*              16164               01.1904157786E+002.0655590380E-01+
*       8.9083153245E-01               0
GRID*              16165               01.1904145601E+002.2523682793E-01+
*       8.5847849888E-01               0
GRID*              16166               01.1904163692E+002.3889215230E-01+
*       8.2368934210E-01               0
GRID*              16167               01.1904144997E+002.4720350626E-01+
*       7.8726958846E-01               0
GRID*              16168               01.2320798911E+002.4720279368E-01+
*       7.8727500072E-01               0
GRID*              16169               01.2737531689E+002.4720654526E-01+
*       7.8724650618E-01               0
GRID*              16170               01.3154207195E+002.4720705817E-01+
*       7.8724261049E-01               0
GRID*              16171               01.3570826541E+002.3889150989E-01+
*       8.2369089290E-01               0
GRID*              16172               01.3570848773E+002.4720563362E-01+
*       7.8725343042E-01               0
GRID*              16173               01.3570853329E+002.0656354587E-01+
*       8.9082157227E-01               0
GRID*              16174               01.3570841165E+002.2524163251E-01+
*       8.5846690051E-01               0
GRID*              16175               01.3570854531E+001.5587816491E-01+
*       9.4544973485E-01               0
GRID*              16176               01.3570835207E+001.8326291687E-01+
*       9.2004201024E-01               0
GRID*              16177               01.3570848575E+009.1340405306E-02+
*       9.8271309341E-01               0
GRID*              16178               01.3570832809E+001.2500000515E-01+
*       9.6650636759E-01               0
GRID*              16179               01.3570841164E+001.8685731788E-02+
*       9.9929843313E-01               0
GRID*              16180               01.3570826551E+005.5627577628E-02+
*       9.9373158318E-01               0
GRID*              16181               01.3570835207E+00-5.562924002E-02+
*       9.9373136471E-01               0
GRID*              16182               01.3570853328E+00-1.867328294E-02+
*       9.9930007038E-01               0
GRID*              16183               01.3570832809E+00-1.250000035E-01+
*       9.6650636855E-01               0
GRID*              16184               01.3570854530E+00-9.132534656E-02+
*       9.8271933136E-01               0
GRID*              16185               01.3570826551E+00-1.832639374E-01+
*       9.2004067989E-01               0
GRID*              16186               01.3570848575E+00-1.558652341E-01+
*       9.4545965809E-01               0
GRID*              16187               01.3570853329E+00-2.252368271E-01+
*       8.5847850061E-01               0
GRID*              16188               01.3570841165E+00-2.065559027E-01+
*       8.9083153403E-01               0
GRID*              16189               01.3570854529E+00-2.472035059E-01+
*       7.8726959056E-01               0
GRID*              16190               01.3570835207E+00-2.388921517E-01+
*       8.2368934393E-01               0
GRID*              16191               01.3570848574E+00-2.472056339E-01+
*       7.1274657148E-01               0
GRID*              16192               01.3570832809E+00-2.500000000E-01+
*       7.5000000192E-01               0
GRID*              16193               01.3570841165E+00-2.252416333E-01+
*       6.4153310122E-01               0
GRID*              16194               01.3570826551E+00-2.388915105E-01+
*       6.7630910893E-01               0
GRID*              16195               01.3570835207E+00-1.832629182E-01+
*       5.7995799117E-01               0
GRID*              16196               01.3570853329E+00-2.065635470E-01+
*       6.0917842931E-01               0
GRID*              16197               01.3570832809E+00-1.249999999E-01+
*       5.3349364226E-01               0
GRID*              16198               01.3570854531E+00-1.558781648E-01+
*       5.5455027055E-01               0
GRID*              16199               01.3570826551E+00-5.562757818E-02+
*       5.0626841364E-01               0
GRID*              16200               01.3570848575E+00-9.134040259E-02+
*       5.1728690711E-01               0
GRID*              16201               01.3570853328E+001.8673283134E-02+
*       5.0069992918E-01               0
GRID*              16202               01.3570841164E+00-1.868573200E-02+
*       5.0070156630E-01               0
GRID*              16203               01.3570854530E+009.1325344286E-02+
*       5.1728066811E-01               0
GRID*              16204               01.3570835207E+005.5629240550E-02+
*       5.0626863209E-01               0
GRID*              16205               01.3570848575E+001.5586523328E-01+
*       5.5454034817E-01               0
GRID*              16206               01.3570832809E+001.2499999820E-01+
*       5.3349364130E-01               0
GRID*              16207               01.3570841165E+002.0655590380E-01+
*       6.0916846755E-01               0
GRID*              16208               01.3570826551E+001.8326393867E-01+
*       5.7995932151E-01               0
GRID*              16209               01.3570853329E+002.2523682793E-01+
*       6.4152150112E-01               0
GRID*              16210               01.2737486446E+00-2.177171045E-01+
*       1.4677031037E+00               0
GRID*              16211               01.2737499909E+00-7.159001992E-01+
*       9.7357752294E-01               0
GRID*              16212               01.2737480296E+00-7.446734835E-01+
*       8.3922081111E-01               0
GRID*              16213               01.2737528952E+00-6.609427718E-01+
*       1.1044759318E+00               0
GRID*              16214               01.2737471405E+00-5.796524167E-01+
*       1.2259217478E+00               0
GRID*              16215               01.2737494087E+00-4.757739063E-01+
*       1.3297748998E+00               0
GRID*              16216               01.2737521057E+00-3.535371111E-01+
*       1.4114457084E+00               0
GRID*              16217               01.2737512505E+002.1771710449E-01+
*       1.4677031037E+00               0
GRID*              16218               01.2737486411E+00-7.351682972E-02+
*       1.4963876872E+00               0
GRID*              16219               01.2737512540E+007.3516829722E-02+
*       1.4963876872E+00               0
GRID*              16220               01.2737477900E+003.5354130818E-01+
*       1.4114434653E+00               0
GRID*              16221               01.2737504891E+004.7579613629E-01+
*       1.3297566555E+00               0
GRID*              16222               01.2737527337E+005.7976254131E-01+
*       1.2257875901E+00               0
GRID*              16223               01.2737470793E+006.6143589564E-01+
*       1.1035549756E+00               0
GRID*              16224               01.2737499135E+007.1590019917E-01+
*       9.7357752294E-01               0
GRID*              16225               01.2737519198E+007.4467348352E-01+
*       8.3922081113E-01               0
GRID*              16226               01.2112483515E+00-7.267723154E-01+
*       9.3520438239E-01               0
GRID*              16227               01.2112481203E+00-7.051200648E-01+
*       1.0055480447E+00               0
GRID*              16228               01.3362500222E+00-7.406813731E-01+
*       8.6786003594E-01               0
GRID*              16229               01.3362518932E+00-7.267698574E-01+
*       9.3521517053E-01               0
GRID*              16230               01.2737526914E+00-7.333670881E-01+
*       9.0707053876E-01               0
GRID*              16231               01.3362520051E+00-7.486657937E-01+
*       7.9469916014E-01               0
GRID*              16232               01.2737528755E+00-7.486655968E-01+
*       7.9470178294E-01               0
GRID*              16233               01.2112502830E+00-7.406811887E-01+
*       8.6786084491E-01               0
GRID*              16234               01.2112474976E+00-7.486668636E-01+
*       7.9468491366E-01               0
GRID*              16235               01.3362497426E+00-6.777687166E-01+
*       1.0711377115E+00               0
GRID*              16236               01.3362524063E+00-6.430231970E-01+
*       1.1360311074E+00               0
GRID*              16237               01.3362514887E+00-7.051162125E-01+
*       1.0055578514E+00               0
GRID*              16238               01.2737467706E+00-6.915307849E-01+
*       1.0403164023E+00               0
GRID*              16239               01.2112499113E+00-6.777685235E-01+
*       1.0711382030E+00               0
GRID*              16240               01.2112479849E+00-6.430301104E-01+
*       1.1360191295E+00               0
GRID*              16241               01.3362510785E+00-6.023512530E-01+
*       1.1968465781E+00               0
GRID*              16242               01.3362493701E+00-5.556560860E-01+
*       1.2537320981E+00               0
GRID*              16243               01.2737497323E+00-6.232639209E-01+
*       1.1671833281E+00               0
GRID*              16244               01.2112493990E+00-6.023545279E-01+
*       1.1968424702E+00               0
GRID*              16245               01.2112498288E+00-5.556551916E-01+
*       1.2537332200E+00               0
GRID*              16246               01.3362525469E+00-5.036519748E-01+
*       1.3057278790E+00               0
GRID*              16247               01.3362508619E+00-4.467603291E-01+
*       1.3524154255E+00               0
GRID*              16248               01.2737525036E+00-5.302523083E-01+
*       1.2804066636E+00               0
GRID*              16249               01.2112477628E+00-5.036629434E-01+
*       1.3057176954E+00               0
GRID*              16250               01.3362506612E+00-2.526651517E-01+
*       1.4561582826E+00               0
GRID*              16251               01.3362487193E+00-1.822387101E-01+
*       1.4775220847E+00               0
GRID*              16252               01.2112475926E+00-3.206703887E-01+
*       1.4279889213E+00               0
GRID*              16253               01.2112497176E+00-3.855755250E-01+
*       1.3932971875E+00               0
GRID*              16254               01.2737490477E+00-2.870128040E-01+
*       1.4429091570E+00               0
GRID*              16255               01.3362525755E+00-3.206563416E-01+
*       1.4279956784E+00               0
GRID*              16256               01.2112510652E+00-2.526639440E-01+
*       1.4561586553E+00               0
GRID*              16257               01.3362490000E+00-3.855773801E-01+
*       1.3932959233E+00               0
GRID*              16258               01.2112504449E+00-4.467614072E-01+
*       1.3524146907E+00               0
GRID*              16259               01.2737477352E+00-4.166689411E-01+
*       1.3736068660E+00               0
GRID*              16260               01.2112495799E+00-1.822361377E-01+
*       1.4775228785E+00               0
GRID*              16261               01.3362525346E+00-1.100397015E-01+
*       1.4918826285E+00               0
GRID*              16262               01.3362504775E+00-3.679912304E-02+
*       1.4990962941E+00               0
GRID*              16263               01.2737516824E+00-1.463123422E-01+
*       1.4855893993E+00               0
GRID*              16264               01.2112474554E+00-1.100554132E-01+
*       1.4918802564E+00               0
GRID*              16265               01.3362503152E+001.8223613767E-01+
*       1.4775228785E+00               0
GRID*              16266               01.3362488299E+002.5266394396E-01+
*       1.4561586553E+00               0
GRID*              16267               01.3362524397E+001.1005541315E-01+
*       1.4918802564E+00               0
GRID*              16268               01.3362486258E+003.6796647317E-02+
*       1.4990962941E+00               0
GRID*              16269               01.2737482127E+001.4631234219E-01+
*       1.4855893993E+00               0
GRID*              16270               01.2112511758E+001.8223871009E-01+
*       1.4775220847E+00               0
GRID*              16271               01.2112473605E+001.1003970155E-01+
*       1.4918826285E+00               0
GRID*              16272               01.2112494176E+003.6799123041E-02+
*       1.4990962941E+00               0
GRID*              16273               01.2112512693E+00-3.679664732E-02+
*       1.4990962941E+00               0
GRID*              16274               01.2737499475E+009.4591037483E-13+
*       1.4999990385E+00               0
GRID*              16275               01.2112492339E+002.5266515175E-01+
*       1.4561582826E+00               0
GRID*              16276               01.3362523026E+003.2067253922E-01+
*       1.4279879042E+00               0
GRID*              16277               01.3362501776E+003.8557756539E-01+
*       1.3932959645E+00               0
GRID*              16278               01.2737508476E+002.8701500226E-01+
*       1.4429082463E+00               0
GRID*              16279               01.2112473196E+003.2065849177E-01+
*       1.4279946614E+00               0
GRID*              16280               01.2112508953E+003.8557942082E-01+
*       1.3932947000E+00               0
GRID*              16281               01.3362494467E+004.4677294442E-01+
*       1.3524061342E+00               0
GRID*              16282               01.3362521331E+005.0367359623E-01+
*       1.3057080402E+00               0
GRID*              16283               01.2737521564E+004.1668286214E-01+
*       1.3735975645E+00               0
GRID*              16284               01.2112490341E+004.4677187764E-01+
*       1.3524068613E+00               0
GRID*              16285               01.2112473479E+005.0366262523E-01+
*       1.3057182260E+00               0
GRID*              16286               01.3362500687E+005.5571350116E-01+
*       1.2536688899E+00               0
GRID*              16287               01.3362504725E+006.0240620420E-01+
*       1.1967728005E+00               0
GRID*              16288               01.2737474019E+005.3032389204E-01+
*       1.2803350949E+00               0
GRID*              16289               01.2112505342E+005.5571440879E-01+
*       1.2536677514E+00               0
GRID*              16290               01.2112488220E+006.0240298588E-01+
*       1.1967768374E+00               0
GRID*              16291               01.3362519409E+006.4329877748E-01+
*       1.1355712210E+00               0
GRID*              16292               01.3362499926E+006.7799196588E-01+
*       1.0706661819E+00               0
GRID*              16293               01.2737502037E+006.2360253959E-01+
*       1.1666769644E+00               0
GRID*              16294               01.2112474632E+006.4329177593E-01+
*       1.1355833515E+00               0
GRID*              16295               01.2112501954E+006.7799219789E-01+
*       1.0706655912E+00               0
GRID*              16296               01.3362517795E+007.0512006477E-01+
*       1.0055480447E+00               0
GRID*              16297               01.3362515439E+007.2677231537E-01+
*       9.3520438239E-01               0
GRID*              16298               01.2737531294E+006.9173275666E-01+
*       1.0398348301E+00               0
GRID*              16299               01.2112484111E+007.0511621255E-01+
*       1.0055578514E+00               0
GRID*              16300               01.2112480021E+007.2676985738E-01+
*       9.3521517053E-01               0
GRID*              16301               01.3362496349E+007.4068118874E-01+
*       8.6786084491E-01               0
GRID*              16302               01.2737472355E+007.3336708807E-01+
*       9.0707053875E-01               0
GRID*              16303               01.3362524843E+007.4866686360E-01+
*       7.9468491369E-01               0
GRID*              16304               01.2737471064E+007.4866559677E-01+
*       7.9470178293E-01               0
GRID*              16305               01.2112498956E+007.4068137306E-01+
*       8.6786003594E-01               0
GRID*              16306               01.2112479768E+007.4866579373E-01+
*       7.9469916009E-01               0
GRID*              16307               01.3987499475E+002.3213944579E-01+
*       1.2350425159E-01               0
GRID*              16308               01.3987499475E+001.5950393717E-01+
*       2.5157911211E-01               0
GRID*              16309               01.3987499475E+001.0063606510E-01+
*       3.6097849190E-01               0
GRID*              16310               01.3987499475E+005.7423654593E-02+
*       4.4071394862E-01               0
GRID*              16311               01.3987499475E+00-2.690368493E-02+
*       1.0879842463E+00               0
GRID*              16312               01.3987499475E+004.1119494401E-02+
*       1.2074448700E+00               0
GRID*              16313               01.3987499475E+008.3716701510E-02+
*       1.3588723248E+00               0
GRID*              16314               01.3987499475E+00-2.938458379E-01+
*       6.5522081322E-01               0
GRID*              16315               01.3987499475E+00-3.813364564E-01+
*       6.2077831200E-01               0
GRID*              16316               01.3987499475E+00-4.992335306E-01+
*       5.7209181193E-01               0
GRID*              16317               01.3987499475E+00-6.240500372E-01+
*       5.1516542598E-01               0
GRID*              16318               01.3987499475E+00-1.903184804E-01+
*       4.8654370674E-01               0
GRID*              16319               01.3987499475E+00-2.828411968E-01+
*       4.2746034235E-01               0
GRID*              16320               01.3987499475E+00-3.937431086E-01+
*       3.6722208443E-01               0
GRID*              16321               01.3987499475E+00-5.056503734E-01+
*       3.0679904551E-01               0
GRID*              16322               01.3987499475E+00-6.218025554E-01+
*       2.3394054805E-01               0
GRID*              16323               01.3987499475E+00-2.221080753E-02+
*       4.3677460543E-01               0
GRID*              16324               01.3987499475E+00-6.716130996E-02+
*       3.5797868695E-01               0
GRID*              16325               01.3987499475E+00-1.295224643E-01+
*       2.5509862710E-01               0
GRID*              16326               01.3987499475E+00-2.120720491E-01+
*       1.3305761401E-01               0
GRID*              16327               01.3987499475E+008.1707631121E-02+
*       1.2693976696E-01               0
GRID*              16328               01.3987499475E+00-6.603287707E-02+
*       1.2926977121E-01               0
GRID*              16329               01.3987499475E+001.3721131515E-02+
*       2.6484572678E-01               0
GRID*              16330               01.3987499475E+001.6579341474E-02+
*       3.7522123100E-01               0
GRID*              16331               01.3987499475E+00-1.053769568E-01+
*       4.5020435241E-01               0
GRID*              16332               01.3987499475E+00-1.743299220E-01+
*       3.7738460834E-01               0
GRID*              16333               01.3987499475E+00-2.783522855E-01+
*       2.7966211238E-01               0
GRID*              16334               01.3987499475E+00-3.555875909E-01+
*       1.3988600054E-01               0
GRID*              16335               01.3987499475E+00-4.921237835E-01+
*       1.7420070309E-01               0
GRID*              16336               01.3987499475E+00-6.126792959E-01+
*       9.8125162012E-02               0
GRID*              16337               01.3987499475E+00-4.063132514E-01+
*       2.5402525539E-01               0
GRID*              16338               01.3987499475E+00-5.057522671E-01+
*       4.3860276575E-01               0
GRID*              16339               01.3987499475E+00-6.260054142E-01+
*       3.7408323994E-01               0
GRID*              16340               01.3987499475E+00-3.900005296E-01+
*       4.9743589771E-01               0
GRID*              16341               01.3987499475E+00-2.778925975E-01+
*       5.5868290989E-01               0
GRID*              16342               01.3987499475E+00-6.047030143E-01+
*       7.9855996224E-01               0
GRID*              16343               01.3987499475E+00-4.549085978E-01+
*       8.4854663849E-01               0
GRID*              16344               01.3987499475E+00-3.185200541E-01+
*       8.5223468045E-01               0
GRID*              16345               01.3987499475E+00-2.740106517E-01+
*       9.4707528243E-01               0
GRID*              16346               01.3987499475E+00-2.575885519E-01+
*       1.0563974051E+00               0
GRID*              16347               01.3987499475E+00-2.245213888E-01+
*       1.1757202938E+00               0
GRID*              16348               01.3987499475E+00-1.876182497E-01+
*       1.3202226072E+00               0
GRID*              16349               01.3987499475E+00-3.643401731E-01+
*       1.0249215518E+00               0
GRID*              16350               01.3987499475E+00-4.687972238E-01+
*       9.8025509038E-01               0
GRID*              16351               01.3987499475E+00-5.869693402E-01+
*       9.3393861756E-01               0
GRID*              16352               01.3987499475E+00-3.749868661E-01+
*       9.3134329612E-01               0
GRID*              16353               01.3987499475E+00-3.181454087E-01+
*       1.2779202295E+00               0
GRID*              16354               01.3987499475E+00-3.459661191E-01+
*       1.1412797191E+00               0
GRID*              16355               01.3987499475E+00-5.662647434E-01+
*       1.0411406719E+00               0
GRID*              16356               01.3987499475E+00-4.663267407E-01+
*       1.0946546193E+00               0
GRID*              16357               01.3987499475E+00-4.457170182E-01+
*       1.2217257421E+00               0
GRID*              16358               01.3987499475E+00-1.401879944E-01+
*       1.0667979845E+00               0
GRID*              16359               01.3987499475E+00-1.954149605E-01+
*       9.8999556972E-01               0
GRID*              16360               01.3987499475E+00-9.838114607E-02+
*       1.2001316725E+00               0
GRID*              16361               01.3987499475E+00-5.133446452E-02+
*       1.3452611988E+00               0
GRID*              16362               01.3987499475E+00-6.181413679E-01+
*       6.5653981893E-01               0
GRID*              16363               01.3987499475E+00-4.836591388E-01+
*       7.0554371934E-01               0
GRID*              16364               01.3987499475E+00-3.459976271E-01+
*       7.4007531920E-01               0
GRID*              16365               01.3987499475E+006.3184613656E-01+
*       6.6451273372E-01               0
GRID*              16366               01.3987499475E+005.1297645936E-01+
*       7.2295481950E-01               0
GRID*              16367               01.3987499475E+004.0233424242E-01+
*       7.6430500950E-01               0
GRID*              16368               01.3987499475E+003.1319174686E-01+
*       7.9582120320E-01               0
GRID*              16369               01.3987499475E+003.8510427426E-01+
*       1.1510171384E-01               0
GRID*              16370               01.3987499475E+003.1987823552E-01+
*       2.7001915741E-01               0
GRID*              16371               01.3987499475E+003.2033142763E-01+
*       4.3716292920E-01               0
GRID*              16372               01.3987499475E+002.2281711755E-01+
*       5.0470320369E-01               0
GRID*              16373               01.3987499475E+001.3947064074E-01+
*       4.6045234819E-01               0
GRID*              16374               01.3987499475E+002.0924799977E-01+
*       3.8306182349E-01               0
GRID*              16375               01.3987499475E+003.2049294405E-01+
*       7.0403322573E-01               0
GRID*              16376               01.3987499475E+004.1490794995E-01+
*       6.4535770519E-01               0
GRID*              16377               01.3987499475E+005.2550934215E-01+
*       5.8451456365E-01               0
GRID*              16378               01.3987499475E+006.3815567681E-01+
*       5.2131006634E-01               0
GRID*              16379               01.3987499475E+005.3587872330E-01+
*       4.4944933355E-01               0
GRID*              16380               01.3987499475E+004.4041092493E-01+
*       3.7159573655E-01               0
GRID*              16381               01.3987499475E+006.4308254181E-01+
*       3.8327776677E-01               0
GRID*              16382               01.3987499475E+005.5003696678E-01+
*       3.3555433915E-01               0
GRID*              16383               01.3987499475E+006.3509184056E-01+
*       2.5164472148E-01               0
GRID*              16384               01.3987499475E+006.2283056873E-01+
*       1.1914677773E-01               0
GRID*              16385               01.3987499475E+004.9549278317E-01+
*       2.2161827275E-01               0
GRID*              16386               01.3987499475E+005.1120458202E-01+
*       8.9918017155E-02               0
GRID*              16387               01.3987499475E+004.2417415176E-01+
*       5.1245482079E-01               0
GRID*              16388               01.3987499475E+003.0672431978E-01+
*       5.8492269428E-01               0
GRID*              16389               01.3987499475E+001.6219626692E-01+
*       1.0451297199E+00               0
GRID*              16390               01.3987499475E+002.5698659598E-01+
*       1.1477974681E+00               0
GRID*              16391               01.3987499475E+003.9241609840E-01+
*       1.2234501208E+00               0
GRID*              16392               01.3987499475E+002.8554454903E-01+
*       1.3013192869E+00               0
GRID*              16393               01.3987499475E+001.6726893155E-01+
*       1.2546693003E+00               0
GRID*              16394               01.3987499475E+001.9399365277E-01+
*       1.3677235224E+00               0
GRID*              16395               01.3987499475E+001.3949467804E-01+
*       1.1442437851E+00               0
GRID*              16396               01.3987499475E+007.1508041121E-02+
*       1.0757593340E+00               0
GRID*              16397               01.3987499475E+002.9662910548E-01+
*       8.8231645262E-01               0
GRID*              16398               01.3987499475E+002.6306773564E-01+
*       9.9145714246E-01               0
GRID*              16399               01.3987499475E+003.8178324685E-01+
*       9.5147482925E-01               0
GRID*              16400               01.3987499475E+004.8495239916E-01+
*       8.7079446703E-01               0
GRID*              16401               01.3987499475E+006.2085335114E-01+
*       8.1156262948E-01               0
GRID*              16402               01.3987499475E+003.7874498185E-01+
*       1.0829393199E+00               0
GRID*              16403               01.3987499475E+006.0711185092E-01+
*       9.6360205147E-01               0
GRID*              16404               01.3987499475E+004.9102185349E-01+
*       1.0302631747E+00               0
GRID*              16405               01.3987499475E+004.8194385691E-01+
*       1.1561931142E+00               0
GRID*              16406               01.3987499475E+003.7348352908E-01+
*       8.5207904678E-01               0
GRID*              16407               01.3987499475E+001.9106972289E-01+
*       6.1752125796E-02               0
GRID*              16408               01.3987499475E+002.6606972289E-01+
*       6.1752125796E-02               0
GRID*              16409               01.3987499475E+001.5692353845E-01+
*       1.2522200928E-01               0
GRID*              16410               01.3987499475E+001.1585381556E-01+
*       6.3469883481E-02               0
GRID*              16411               01.3987499475E+004.0853815560E-02+
*       6.3469883481E-02               0
GRID*              16412               01.3987499475E+007.8373770253E-03+
*       1.2810476909E-01               0
GRID*              16413               01.3987499475E+00-3.301643854E-02+
*       6.4634885607E-02               0
GRID*              16414               01.3987499475E+00-1.810360245E-01+
*       6.6528807004E-02               0
GRID*              16415               01.3987499475E+00-2.560360245E-01+
*       6.6528807004E-02               0
GRID*              16416               01.3987499475E+00-1.080164385E-01+
*       6.4634885607E-02               0
GRID*              16417               01.3987499475E+00-1.390524631E-01+
*       1.3116369261E-01               0
GRID*              16418               01.3987499475E+001.7606423529E-02+
*       4.3874427703E-01               0
GRID*              16419               01.3987499475E+003.8052962792E-02+
*       4.7070750838E-01               0
GRID*              16420               01.3987499475E+00-1.764268272E-03+
*       4.6873783679E-01               0
GRID*              16421               01.3987499475E+001.2060578415E-01+
*       1.8925943954E-01               0
GRID*              16422               01.3987499475E+001.9582169148E-01+
*       1.8754168185E-01               0
GRID*              16423               01.3987499475E+008.6612534342E-02+
*       2.5821241945E-01               0
GRID*              16424               01.3987499475E+004.7714381318E-02+
*       1.9589274687E-01               0
GRID*              16425               01.3987499475E+00-9.777767070E-02+
*       1.9218419916E-01               0
GRID*              16426               01.3987499475E+00-1.707972567E-01+
*       1.9407812056E-01               0
GRID*              16427               01.3987499475E+00-2.615587278E-02+
*       1.9705774900E-01               0
GRID*              16428               01.3987499475E+00-5.790066640E-02+
*       2.5997217694E-01               0
GRID*              16429               01.3987499475E+003.7001498033E-02+
*       4.0796758981E-01               0
GRID*              16430               01.3987499475E+005.8607703285E-02+
*       3.6809986145E-01               0
GRID*              16431               01.3987499475E+007.9029859844E-02+
*       4.0084622026E-01               0
GRID*              16432               01.3987499475E+00-2.815733031E-03+
*       4.0599791822E-01               0
GRID*              16433               01.3987499475E+00-4.468605875E-02+
*       3.9737664619E-01               0
GRID*              16434               01.3987499475E+00-2.529098425E-02+
*       3.6659995897E-01               0
GRID*              16435               01.3987499475E+00-2.672008922E-02+
*       3.1141220687E-01               0
GRID*              16436               01.3987499475E+00-9.834188714E-02+
*       3.0653865703E-01               0
GRID*              16437               01.3987499475E+005.7178598306E-02+
*       3.1291210934E-01               0
GRID*              16438               01.3987499475E+001.3007000113E-01+
*       3.0627880201E-01               0
GRID*              16439               01.3987499475E+001.5150236494E-02+
*       3.2003347889E-01               0
GRID*              16440               01.3987499475E+00-3.892047325E-02+
*       4.7152166500E-01               0
GRID*              16441               01.3987499475E+00-6.379388215E-02+
*       4.4348947892E-01               0
GRID*              16442               01.3987499475E+00-8.050354787E-02+
*       4.7823653849E-01               0
GRID*              16443               01.3987499475E+00-3.277937954E-01+
*       6.9943000268E-02               0
GRID*              16444               01.3987499475E+00-4.027937954E-01+
*       6.9943000268E-02               0
GRID*              16445               01.3987499475E+00-8.626913337E-02+
*       4.0409151968E-01               0
GRID*              16446               01.3987499475E+00-1.398534394E-01+
*       4.1379448038E-01               0
GRID*              16447               01.3987499475E+00-1.207456160E-01+
*       3.6768164765E-01               0
GRID*              16448               01.3987499475E+00-1.519261931E-01+
*       3.1624161772E-01               0
GRID*              16449               01.3987499475E+00-2.263411037E-01+
*       3.2852336036E-01               0
GRID*              16450               01.3987499475E+00-2.039373749E-01+
*       2.6738036974E-01               0
GRID*              16451               01.3987499475E+00-2.838298200E-01+
*       1.3647180727E-01               0
GRID*              16452               01.3987499475E+00-2.452121673E-01+
*       2.0635986320E-01               0
GRID*              16453               01.3987499475E+00-3.169699382E-01+
*       2.0977405646E-01               0
GRID*              16454               01.3987499475E+00-4.710618918E-01+
*       8.7100351547E-02               0
GRID*              16455               01.3987499475E+00-4.238556872E-01+
*       1.5704335182E-01               0
GRID*              16456               01.3987499475E+00-6.813396479E-01+
*       1.2406258101E-01               0
GRID*              16457               01.3987499475E+00-6.172409256E-01+
*       1.6603285503E-01               0
GRID*              16458               01.3987499475E+00-6.859012777E-01+
*       1.9197027402E-01               0
GRID*              16459               01.3987499475E+00-6.813396479E-01+
*       4.9062581006E-02               0
GRID*              16460               01.3987499475E+00-6.063396479E-01+
*       4.9062581006E-02               0
GRID*              16461               01.3987499475E+00-5.524015397E-01+
*       1.3616293255E-01               0
GRID*              16462               01.3987499475E+00-5.569631694E-01+
*       2.0407062557E-01               0
GRID*              16463               01.3987499475E+00-5.313396479E-01+
*       4.9062581006E-02               0
GRID*              16464               01.3987499475E+00-4.988870785E-01+
*       2.4049987430E-01               0
GRID*              16465               01.3987499475E+00-5.637264644E-01+
*       2.7036979678E-01               0
GRID*              16466               01.3987499475E+00-1.151884783E-01+
*       4.9184899733E-01               0
GRID*              16467               01.3987499475E+00-1.478477186E-01+
*       4.6837402957E-01               0
GRID*              16468               01.3987499475E+00-1.823242012E-01+
*       4.3196415754E-01               0
GRID*              16469               01.3987499475E+00-1.576592401E-01+
*       5.1001867450E-01               0
GRID*              16470               01.3987499475E+00-4.559818124E-01+
*       2.8041215045E-01               0
GRID*              16471               01.3987499475E+00-4.000281800E-01+
*       3.1062366991E-01               0
GRID*              16472               01.3987499475E+00-4.496967410E-01+
*       3.3701056497E-01               0
GRID*              16473               01.3987499475E+00-4.492185175E-01+
*       2.1411297924E-01               0
GRID*              16474               01.3987499475E+00-3.809504211E-01+
*       1.9695562796E-01               0
GRID*              16475               01.3987499475E+00-3.423327684E-01+
*       2.6684368389E-01               0
GRID*              16476               01.3987499475E+00-2.285855594E-01+
*       4.0242247534E-01               0
GRID*              16477               01.3987499475E+00-2.805967411E-01+
*       3.5356122737E-01               0
GRID*              16478               01.3987499475E+00-2.365798386E-01+
*       4.5700202454E-01               0
GRID*              16479               01.3987499475E+00-3.360476970E-01+
*       3.2344209841E-01               0
GRID*              16480               01.3987499475E+00-3.382921527E-01+
*       3.9734121339E-01               0
GRID*              16481               01.3987499475E+00-5.649011521E-01+
*       4.7688409587E-01               0
GRID*              16482               01.3987499475E+00-5.024928988E-01+
*       5.0534728884E-01               0
GRID*              16483               01.3987499475E+00-5.616417839E-01+
*       5.4362861896E-01               0
GRID*              16484               01.3987499475E+00-6.250277257E-01+
*       4.4462433296E-01               0
GRID*              16485               01.3987499475E+00-5.658788406E-01+
*       4.0634300285E-01               0
GRID*              16486               01.3987499475E+00-6.880027071E-01+
*       4.1204161997E-01               0
GRID*              16487               01.3987499475E+00-6.880027071E-01+
*       3.3704161997E-01               0
GRID*              16488               01.3987499475E+00-6.870250186E-01+
*       4.8258271299E-01               0
GRID*              16489               01.3987499475E+00-5.658278938E-01+
*       3.4044114272E-01               0
GRID*              16490               01.3987499475E+00-5.057013202E-01+
*       3.7270090563E-01               0
GRID*              16491               01.3987499475E+00-6.239039848E-01+
*       3.0401189399E-01               0
GRID*              16492               01.3987499475E+00-6.859012777E-01+
*       2.6697027402E-01               0
GRID*              16493               01.3987499475E+00-4.497476878E-01+
*       4.0291242509E-01               0
GRID*              16494               01.3987499475E+00-3.918718191E-01+
*       4.3232899107E-01               0
GRID*              16495               01.3987499475E+00-3.364208632E-01+
*       4.6244812003E-01               0
GRID*              16496               01.3987499475E+00-4.478763983E-01+
*       4.6801933173E-01               0
GRID*              16497               01.3987499475E+00-4.446170301E-01+
*       5.3476385482E-01               0
GRID*              16498               01.3987499475E+00-3.856684930E-01+
*       5.5910710485E-01               0
GRID*              16499               01.3987499475E+00-3.339465636E-01+
*       5.2805940380E-01               0
GRID*              16500               01.3987499475E+00-3.296145270E-01+
*       5.8973061094E-01               0
GRID*              16501               01.3987499475E+00-4.402849935E-01+
*       5.9643506196E-01               0
GRID*              16502               01.3987499475E+00-2.803668972E-01+
*       4.9307162612E-01               0
GRID*              16503               01.3987499475E+00-2.341055390E-01+
*       5.2261330831E-01               0
GRID*              16504               01.3987499475E+00-1.867904350E-01+
*       5.3325048340E-01               0
GRID*              16505               01.3987499475E+00-2.595430868E-01+
*       6.4837533567E-01               0
GRID*              16506               01.3987499475E+00-2.705253182E-01+
*       6.8398031885E-01               0
GRID*              16507               01.3987499475E+00-2.305774936E-01+
*       5.6932008498E-01               0
GRID*              16508               01.3987499475E+00-2.858692177E-01+
*       6.0695186155E-01               0
GRID*              16509               01.3987499475E+00-3.375911472E-01+
*       6.3799956261E-01               0
GRID*              16510               01.3987499475E+00-2.515664666E-01+
*       6.0010638401E-01               0
GRID*              16511               01.3987499475E+00-3.191754124E-01+
*       9.8599841712E-01               0
GRID*              16512               01.3987499475E+00-2.657996018E-01+
*       1.0017363437E+00               0
GRID*              16513               01.3987499475E+00-3.109643625E-01+
*       1.0406594784E+00               0
GRID*              16514               01.3987499475E+00-3.696635196E-01+
*       9.7813242396E-01               0
GRID*              16515               01.3987499475E+00-4.165686984E-01+
*       1.0025883211E+00               0
GRID*              16516               01.3987499475E+00-4.218920449E-01+
*       9.5579919325E-01               0
GRID*              16517               01.3987499475E+00-3.244987589E-01+
*       9.3920928928E-01               0
GRID*              16518               01.3987499475E+00-3.467534601E-01+
*       8.9178898829E-01               0
GRID*              16519               01.3987499475E+00-2.962653529E-01+
*       8.9965498144E-01               0
GRID*              16520               01.3987499475E+00-6.701456290E-01+
*       8.4743877329E-01               0
GRID*              16521               01.3987499475E+00-6.773515071E-01+
*       7.7427998112E-01               0
GRID*              16522               01.3987499475E+00-5.958361772E-01+
*       8.6624928990E-01               0
GRID*              16523               01.3987499475E+00-6.612787920E-01+
*       9.1512810095E-01               0
GRID*              16524               01.3987499475E+00-5.298058060E-01+
*       8.2355330037E-01               0
GRID*              16525               01.3987499475E+00-5.209389690E-01+
*       8.9124262803E-01               0
GRID*              16526               01.3987499475E+00-4.149477320E-01+
*       8.8994496731E-01               0
GRID*              16527               01.3987499475E+00-3.867143260E-01+
*       8.5039065947E-01               0
GRID*              16528               01.3987499475E+00-4.618529108E-01+
*       9.1440086444E-01               0
GRID*              16529               01.3987499475E+00-5.278832820E-01+
*       9.5709685397E-01               0
GRID*              16530               01.3987499475E+00-3.017773355E-01+
*       1.0988385621E+00               0
GRID*              16531               01.3987499475E+00-3.551531461E-01+
*       1.0831006355E+00               0
GRID*              16532               01.3987499475E+00-2.410549703E-01+
*       1.1160588494E+00               0
GRID*              16533               01.3987499475E+00-2.852437539E-01+
*       1.1585000065E+00               0
GRID*              16534               01.3987499475E+00-2.373153681E-01+
*       1.3815660337E+00               0
GRID*              16535               01.3987499475E+00-1.669679663E-01+
*       1.4029056030E+00               0
GRID*              16536               01.3987499475E+00-3.025789477E-01+
*       1.3604148449E+00               0
GRID*              16537               01.3987499475E+00-2.528818292E-01+
*       1.2990714184E+00               0
GRID*              16538               01.3987499475E+00-2.713333987E-01+
*       1.2268202617E+00               0
GRID*              16539               01.3987499475E+00-3.320557639E-01+
*       1.2095999743E+00               0
GRID*              16540               01.3987499475E+00-2.060698192E-01+
*       1.2479714505E+00               0
GRID*              16541               01.3987499475E+00-6.399390916E-01+
*       9.8547543741E-01               0
GRID*              16542               01.3987499475E+00-3.674112866E-01+
*       1.3257608454E+00               0
GRID*              16543               01.3987499475E+00-5.766170418E-01+
*       9.8753964472E-01               0
GRID*              16544               01.3987499475E+00-5.175309836E-01+
*       1.0106978811E+00               0
GRID*              16545               01.3987499475E+00-6.295867932E-01+
*       1.0390764646E+00               0
GRID*              16546               01.3987499475E+00-5.949334452E-01+
*       1.1039091586E+00               0
GRID*              16547               01.3987499475E+00-4.675619823E-01+
*       1.0374548548E+00               0
GRID*              16548               01.3987499475E+00-5.162957421E-01+
*       1.0678976456E+00               0
GRID*              16549               01.3987499475E+00-4.153334569E-01+
*       1.0597880855E+00               0
GRID*              16550               01.3987499475E+00-4.061464299E-01+
*       1.1179671692E+00               0
GRID*              16551               01.3987499475E+00-4.311970914E-01+
*       1.2976636016E+00               0
GRID*              16552               01.3987499475E+00-4.880233663E-01+
*       1.2510277207E+00               0
GRID*              16553               01.3987499475E+00-3.819312135E-01+
*       1.2498229858E+00               0
GRID*              16554               01.3987499475E+00-3.958415687E-01+
*       1.1815027306E+00               0
GRID*              16555               01.3987499475E+00-4.560218795E-01+
*       1.1581901807E+00               0
GRID*              16556               01.3987499475E+00-5.346595826E-01+
*       1.1942016936E+00               0
GRID*              16557               01.3987499475E+00-5.449644438E-01+
*       1.1306661323E+00               0
GRID*              16558               01.3987499475E+00-1.988882732E-01+
*       1.0615976948E+00               0
GRID*              16559               01.3987499475E+00-1.823546916E-01+
*       1.1212591391E+00               0
GRID*              16560               01.3987499475E+00-2.496254929E-01+
*       9.0277271388E-01               0
GRID*              16561               01.3987499475E+00-2.718801941E-01+
*       8.5535241289E-01               0
GRID*              16562               01.3987499475E+00-2.347128061E-01+
*       9.6853542607E-01               0
GRID*              16563               01.3987499475E+00-2.265017562E-01+
*       1.0231964874E+00               0
GRID*              16564               01.3987499475E+00-2.286365192E-01+
*       9.3355901238E-01               0
GRID*              16565               01.3987499475E+00-1.893386736E-01+
*       9.5501915602E-01               0
GRID*              16566               01.3987499475E+00-1.602074820E-01+
*       9.7825096913E-01               0
GRID*              16567               01.3987499475E+00-1.325939990E-01+
*       1.0166521765E+00               0
GRID*              16568               01.3987499475E+00-9.790906542E-02+
*       1.0302646281E+00               0
GRID*              16569               01.3987499475E+00-1.678014775E-01+
*       1.0283967771E+00               0
GRID*              16570               01.3987499475E+00-8.354583968E-02+
*       1.0773911154E+00               0
GRID*              16571               01.3987499475E+00-4.126691067E-02+
*       1.0408577590E+00               0
GRID*              16572               01.3987499475E+00-6.264241550E-02+
*       1.1440579594E+00               0
GRID*              16573               01.3987499475E+007.1079047366E-03+
*       1.1477145581E+00               0
GRID*              16574               01.3987499475E+00-2.863082584E-02+
*       1.2037882712E+00               0
GRID*              16575               01.3987499475E+00-1.192845703E-01+
*       1.1334648285E+00               0
GRID*              16576               01.3987499475E+00-1.614512674E-01+
*       1.1879259831E+00               0
GRID*              16577               01.3987499475E+004.1858350755E-02+
*       1.4294356863E+00               0
GRID*              16578               01.3987499475E+001.1501719220E-01+
*       1.4222304618E+00               0
GRID*              16579               01.3987499475E+00-9.882607371E-02+
*       1.4154248988E+00               0
GRID*              16580               01.3987499475E+00-1.194763571E-01+
*       1.3327419030E+00               0
GRID*              16581               01.3987499475E+00-2.566723226E-02+
*       1.4226301233E+00               0
GRID*              16582               01.3987499475E+001.6191118496E-02+
*       1.3520667618E+00               0
GRID*              16583               01.3987499475E+00-5.107485058E-03+
*       1.2763530344E+00               0
GRID*              16584               01.3987499475E+006.2418097956E-02+
*       1.2831585974E+00               0
GRID*              16585               01.3987499475E+00-1.429996979E-01+
*       1.2601771398E+00               0
GRID*              16586               01.3987499475E+00-7.485780530E-02+
*       1.2726964356E+00               0
GRID*              16587               01.3987499475E+00-6.870250186E-01+
*       5.5758271299E-01               0
GRID*              16588               01.3987499475E+00-6.840706839E-01+
*       6.2826990946E-01               0
GRID*              16589               01.3987499475E+00-6.210957026E-01+
*       5.8585262245E-01               0
GRID*              16590               01.3987499475E+00-6.840706839E-01+
*       7.0326990946E-01               0
GRID*              16591               01.3987499475E+00-6.114221911E-01+
*       7.2754989058E-01               0
GRID*              16592               01.3987499475E+00-5.586874493E-01+
*       6.1431581543E-01               0
GRID*              16593               01.3987499475E+00-2.828624260E-01+
*       8.1974742988E-01               0
GRID*              16594               01.3987499475E+00-3.322588406E-01+
*       7.9615499983E-01               0
GRID*              16595               01.3987499475E+00-2.966012125E-01+
*       7.6366774926E-01               0
GRID*              16596               01.3987499475E+00-5.441810765E-01+
*       7.5205184079E-01               0
GRID*              16597               01.3987499475E+00-4.692838683E-01+
*       7.7704517892E-01               0
GRID*              16598               01.3987499475E+00-5.509002533E-01+
*       6.8104176914E-01               0
GRID*              16599               01.3987499475E+00-4.004531125E-01+
*       7.9431097885E-01               0
GRID*              16600               01.3987499475E+00-4.148283829E-01+
*       7.2280951927E-01               0
GRID*              16601               01.3987499475E+00-4.914463347E-01+
*       6.3881776564E-01               0
GRID*              16602               01.3987499475E+00-4.324977976E-01+
*       6.6316101567E-01               0
GRID*              16603               01.3987499475E+00-2.966012128E-01+
*       7.2640757184E-01               0
GRID*              16604               01.3987499475E+00-3.199217325E-01+
*       6.9764806621E-01               0
GRID*              16605               01.3987499475E+00-3.636670417E-01+
*       6.8042681560E-01               0
GRID*              16606               01.3987499475E+002.1603255866E-01+
*       4.4388251359E-01               0
GRID*              16607               01.3987499475E+002.6478971370E-01+
*       4.1011237634E-01               0
GRID*              16608               01.3987499475E+002.7157427259E-01+
*       4.7093306644E-01               0
GRID*              16609               01.3987499475E+001.8934388760E-01+
*       5.2962382472E-01               0
GRID*              16610               01.3987499475E+002.1468759103E-01+
*       5.5693720810E-01               0
GRID*              16611               01.3987499475E+007.4378898473E-02+
*       4.7899910238E-01               0
GRID*              16612               01.3987499475E+001.1540239155E-01+
*       4.8886830216E-01               0
GRID*              16613               01.3987499475E+009.8447147665E-02+
*       4.5058314841E-01               0
GRID*              16614               01.3987499475E+001.4767064920E-01+
*       5.0749839697E-01               0
GRID*              16615               01.3987499475E+001.8114387914E-01+
*       4.8257777594E-01               0
GRID*              16616               01.3987499475E+001.2005335292E-01+
*       4.1071542004E-01               0
GRID*              16617               01.3987499475E+001.5494203243E-01+
*       3.7202015769E-01               0
GRID*              16618               01.3987499475E+001.8437596847E-01+
*       3.1732046780E-01               0
GRID*              16619               01.3987499475E+001.7435932025E-01+
*       4.2175708584E-01               0
GRID*              16620               01.3987499475E+003.4255213713E-01+
*       5.7550856922E-02               0
GRID*              16621               01.3987499475E+004.1755213713E-01+
*       5.7550856922E-02               0
GRID*              16622               01.3987499475E+003.0862186003E-01+
*       1.1930298272E-01               0
GRID*              16623               01.3987499475E+003.5249125489E-01+
*       1.9256043562E-01               0
GRID*              16624               01.3987499475E+002.7600884065E-01+
*       1.9676170450E-01               0
GRID*              16625               01.3987499475E+002.6456311764E-01+
*       3.2654049045E-01               0
GRID*              16626               01.3987499475E+003.2010483158E-01+
*       3.5359104330E-01               0
GRID*              16627               01.3987499475E+002.3969108635E-01+
*       2.6079913476E-01               0
GRID*              16628               01.3987499475E+002.8159587343E-01+
*       7.7291060160E-01               0
GRID*              16629               01.3987499475E+002.7604213381E-01+
*       8.0975486088E-01               0
GRID*              16630               01.3987499475E+003.1684234545E-01+
*       7.4992721446E-01               0
GRID*              16631               01.3987499475E+003.6141359323E-01+
*       7.3416911762E-01               0
GRID*              16632               01.3987499475E+003.5776299464E-01+
*       7.8006310635E-01               0
GRID*              16633               01.3987499475E+002.8524647202E-01+
*       7.2701661286E-01               0
GRID*              16634               01.3987499475E+004.0862109619E-01+
*       7.0483135735E-01               0
GRID*              16635               01.3987499475E+003.6770044700E-01+
*       6.7469546546E-01               0
GRID*              16636               01.3987499475E+004.6394220466E-01+
*       6.8415626234E-01               0
GRID*              16637               01.3987499475E+004.7020864605E-01+
*       6.1493613442E-01               0
GRID*              16638               01.3987499475E+005.1924290075E-01+
*       6.5373469157E-01               0
GRID*              16639               01.3987499475E+004.5765535089E-01+
*       7.4362991450E-01               0
GRID*              16640               01.3987499475E+006.9407783841E-01+
*       5.6065503317E-01               0
GRID*              16641               01.3987499475E+006.9407783841E-01+
*       4.8565503317E-01               0
GRID*              16642               01.3987499475E+006.9092306828E-01+
*       6.3225636686E-01               0
GRID*              16643               01.3987499475E+006.3500090669E-01+
*       5.9291140003E-01               0
GRID*              16644               01.3987499475E+005.7867773935E-01+
*       6.2451364869E-01               0
GRID*              16645               01.3987499475E+005.7241129796E-01+
*       6.9373377661E-01               0
GRID*              16646               01.3987499475E+005.8183250948E-01+
*       5.5291231499E-01               0
GRID*              16647               01.3987499475E+002.7969273241E-01+
*       6.9017235358E-01               0
GRID*              16648               01.3987499475E+006.9654127091E-01+
*       4.1663888339E-01               0
GRID*              16649               01.3987499475E+006.9654127091E-01+
*       3.4163888339E-01               0
GRID*              16650               01.3987499475E+006.4061910931E-01+
*       4.5229391655E-01               0
GRID*              16651               01.3987499475E+005.8701720006E-01+
*       4.8537969994E-01               0
GRID*              16652               01.3987499475E+005.8948063256E-01+
*       4.1636355016E-01               0
GRID*              16653               01.3987499475E+006.9254592028E-01+
*       2.7582236074E-01               0
GRID*              16654               01.3987499475E+006.9254592028E-01+
*       2.0082236074E-01               0
GRID*              16655               01.3987499475E+006.3908719119E-01+
*       3.1746124413E-01               0
GRID*              16656               01.3987499475E+005.4295784504E-01+
*       3.9250183635E-01               0
GRID*              16657               01.3987499475E+004.8814482412E-01+
*       4.1052253505E-01               0
GRID*              16658               01.3987499475E+004.9522394586E-01+
*       3.5357503785E-01               0
GRID*              16659               01.3987499475E+005.9655975430E-01+
*       3.5941605296E-01               0
GRID*              16660               01.3987499475E+005.9256440367E-01+
*       2.9359953032E-01               0
GRID*              16661               01.3987499475E+006.8641528436E-01+
*       1.3457338886E-01               0
GRID*              16662               01.3987499475E+006.2896120464E-01+
*       1.8539574961E-01               0
GRID*              16663               01.3987499475E+006.8641528436E-01+
*       5.9573388863E-02               0
GRID*              16664               01.3987499475E+006.1141528436E-01+
*       5.9573388863E-02               0
GRID*              16665               01.3987499475E+004.6795185405E-01+
*       2.9660700465E-01               0
GRID*              16666               01.3987499475E+005.2276487497E-01+
*       2.7858630595E-01               0
GRID*              16667               01.3987499475E+004.0768550934E-01+
*       2.4581871508E-01               0
GRID*              16668               01.3987499475E+004.4029852871E-01+
*       1.6835999330E-01               0
GRID*              16669               01.3987499475E+003.8014458023E-01+
*       3.2080744698E-01               0
GRID*              16670               01.3987499475E+005.6529231186E-01+
*       2.3663149712E-01               0
GRID*              16671               01.3987499475E+005.5916167595E-01+
*       1.7038252524E-01               0
GRID*              16672               01.3987499475E+005.5560229101E-01+
*       4.4959008578E-02               0
GRID*              16673               01.3987499475E+004.8060229101E-01+
*       4.4959008578E-02               0
GRID*              16674               01.3987499475E+005.6701757537E-01+
*       1.0453239744E-01               0
GRID*              16675               01.3987499475E+004.4815442814E-01+
*       1.0250986550E-01               0
GRID*              16676               01.3987499475E+005.0334868259E-01+
*       1.5576814495E-01               0
GRID*              16677               01.3987499475E+004.7484174695E-01+
*       5.4848469222E-01               0
GRID*              16678               01.3987499475E+004.1954105086E-01+
*       5.7890626299E-01               0
GRID*              16679               01.3987499475E+005.3069403272E-01+
*       5.1698194860E-01               0
GRID*              16680               01.3987499475E+004.8002643753E-01+
*       4.8095207717E-01               0
GRID*              16681               01.3987499475E+004.3229253835E-01+
*       4.4202527867E-01               0
GRID*              16682               01.3987499475E+003.8037117628E-01+
*       4.0437933287E-01               0
GRID*              16683               01.3987499475E+003.7225278970E-01+
*       4.7480887499E-01               0
GRID*              16684               01.3987499475E+003.6544923577E-01+
*       5.4868875753E-01               0
GRID*              16685               01.3987499475E+003.6081613487E-01+
*       6.1514019973E-01               0
GRID*              16686               01.3987499475E+003.1352787371E-01+
*       5.1104281174E-01               0
GRID*              16687               01.3987499475E+002.6477071866E-01+
*       5.4481294899E-01               0
GRID*              16688               01.3987499475E+003.1360863191E-01+
*       6.4447796000E-01               0
GRID*              16689               01.3987499475E+002.5664119215E-01+
*       5.9704695339E-01               0
GRID*              16690               01.3987499475E+002.7280842027E-01+
*       6.3061708786E-01               0
GRID*              16691               01.3987499475E+004.0454663149E-01+
*       1.2985257910E+00               0
GRID*              16692               01.3987499475E+004.6137290637E-01+
*       1.2518899101E+00               0
GRID*              16693               01.3987499475E+003.3898032371E-01+
*       1.2623847038E+00               0
GRID*              16694               01.3987499475E+002.7126557250E-01+
*       1.2245583775E+00               0
GRID*              16695               01.3987499475E+003.2470134719E-01+
*       1.1856237944E+00               0
GRID*              16696               01.3987499475E+003.5111085681E-01+
*       1.3374603740E+00               0
GRID*              16697               01.3987499475E+002.8627851782E-01+
*       1.3721143736E+00               0
GRID*              16698               01.3987499475E+001.2549281653E-01+
*       1.3067708125E+00               0
GRID*              16699               01.3987499475E+001.0419421298E-01+
*       1.2310570851E+00               0
GRID*              16700               01.3987499475E+001.3885517714E-01+
*       1.3632979236E+00               0
GRID*              16701               01.3987499475E+001.7015566784E-01+
*       1.4266560606E+00               0
GRID*              16702               01.3987499475E+002.4050306969E-01+
*       1.4053164913E+00               0
GRID*              16703               01.3987499475E+001.8063129216E-01+
*       1.3111964113E+00               0
GRID*              16704               01.3987499475E+002.3976910090E-01+
*       1.3345214046E+00               0
GRID*              16705               01.3987499475E+002.2640674029E-01+
*       1.2779942936E+00               0
GRID*              16706               01.3987499475E+001.9824063701E-01+
*       1.1460206266E+00               0
GRID*              16707               01.3987499475E+001.5084547248E-01+
*       1.0946867525E+00               0
GRID*              16708               01.3987499475E+002.0959143145E-01+
*       1.0964635940E+00               0
GRID*              16709               01.3987499475E+002.1212776377E-01+
*       1.2012333842E+00               0
GRID*              16710               01.3987499475E+001.5338180480E-01+
*       1.1994565427E+00               0
GRID*              16711               01.3987499475E+008.1421093543E-02+
*       1.0292375397E+00               0
GRID*              16712               01.3987499475E+004.5095156902E-02+
*       1.0375291323E+00               0
GRID*              16713               01.3987499475E+001.1685215402E-01+
*       1.0604445270E+00               0
GRID*              16714               01.3987499475E+001.0550135958E-01+
*       1.1100015596E+00               0
GRID*              16715               01.3987499475E+001.2676520644E-01+
*       1.0139227326E+00               0
GRID*              16716               01.3987499475E+00-4.110706122E-03+
*       1.0436415885E+00               0
GRID*              16717               01.3987499475E+002.2302178096E-02+
*       1.0818717902E+00               0
GRID*              16718               01.3987499475E+009.0307086219E-02+
*       1.1758443275E+00               0
GRID*              16719               01.3987499475E+005.6313767761E-02+
*       1.1416021020E+00               0
GRID*              16720               01.3987499475E+002.1263200128E-01+
*       1.0182934312E+00               0
GRID*              16721               01.3987499475E+002.6002716581E-01+
*       1.0696273053E+00               0
GRID*              16722               01.3987499475E+002.6776081312E-01+
*       8.5300248559E-01               0
GRID*              16723               01.3987499475E+003.0491042617E-01+
*       8.3906882791E-01               0
GRID*              16724               01.3987499475E+002.5159358488E-01+
*       8.8657261994E-01               0
GRID*              16725               01.3987499475E+001.5903346398E-01+
*       9.9529263916E-01               0
GRID*              16726               01.3987499475E+002.3481289996E-01+
*       9.4114296486E-01               0
GRID*              16727               01.3987499475E+002.7984842056E-01+
*       9.3688679754E-01               0
GRID*              16728               01.3987499475E+002.0946919834E-01+
*       9.6845635046E-01               0
GRID*              16729               01.3987499475E+006.7822079749E-01+
*       8.5394010691E-01               0
GRID*              16730               01.3987499475E+006.8542667557E-01+
*       7.8078131474E-01               0
GRID*              16731               01.3987499475E+003.2090635874E-01+
*       1.0371982312E+00               0
GRID*              16732               01.3987499475E+003.2242549124E-01+
*       9.7146598586E-01               0
GRID*              16733               01.3987499475E+003.8026411435E-01+
*       1.0172070746E+00               0
GRID*              16734               01.3987499475E+003.1786578891E-01+
*       1.1153683940E+00               0
GRID*              16735               01.3987499475E+003.8558054012E-01+
*       1.1531947204E+00               0
GRID*              16736               01.3987499475E+006.1398260103E-01+
*       8.8758234048E-01               0
GRID*              16737               01.3987499475E+005.4603212504E-01+
*       9.1719825925E-01               0
GRID*              16738               01.3987499475E+005.5290287515E-01+
*       8.4117854826E-01               0
GRID*              16739               01.3987499475E+006.7135004738E-01+
*       9.2995981791E-01               0
GRID*              16740               01.3987499475E+006.5001034696E-01+
*       1.0003071544E+00               0
GRID*              16741               01.3987499475E+004.8798712633E-01+
*       9.5052882085E-01               0
GRID*              16742               01.3987499475E+005.4906685221E-01+
*       9.9693261307E-01               0
GRID*              16743               01.3987499475E+004.3640255017E-01+
*       9.9086900196E-01               0
GRID*              16744               01.3987499475E+004.3488341767E-01+
*       1.0566012473E+00               0
GRID*              16745               01.3987499475E+004.3336782300E-01+
*       9.1113464814E-01               0
GRID*              16746               01.3987499475E+006.1535699892E-01+
*       1.0651398483E+00               0
GRID*              16747               01.3987499475E+005.5731200020E-01+
*       1.0984704099E+00               0
GRID*              16748               01.3987499475E+004.3717997766E-01+
*       1.1898216175E+00               0
GRID*              16749               01.3987499475E+005.0613678563E-01+
*       1.2182614068E+00               0
GRID*              16750               01.3987499475E+005.5277300191E-01+
*       1.1614353797E+00               0
GRID*              16751               01.3987499475E+004.3034441938E-01+
*       1.1195662171E+00               0
GRID*              16752               01.3987499475E+004.8648285520E-01+
*       1.0932281444E+00               0
GRID*              16753               01.3987499475E+003.3920617616E-01+
*       9.1689564093E-01               0
GRID*              16754               01.3987499475E+003.3505631728E-01+
*       8.6719774970E-01               0
GRID*              16755               01.3987499475E+003.7763338796E-01+
*       9.0177693801E-01               0
GRID*              16756               01.3987499475E+003.4333763797E-01+
*       8.2395012499E-01               0
GRID*              16757               01.3987499475E+003.8790888575E-01+
*       8.0819202814E-01               0
GRID*              16758               01.3987499475E+004.2921796412E-01+
*       8.6143675691E-01               0
GRID*              16759               01.3987499475E+004.4364332079E-01+
*       8.1754973827E-01               0
GRID*              16760               01.3987499475E+004.9896442926E-01+
*       7.9687464327E-01               0
GRID*              16761               01.3987499475E+006.9092306828E-01+
*       7.0725636686E-01               0
GRID*              16762               01.3987499475E+006.2634974385E-01+
*       7.3803768160E-01               0
GRID*              16763               01.3987499475E+005.6691490525E-01+
*       7.6725872449E-01               0
GRID*              16764               01.5753110525E+00-3.988496096E-01+
*       -1.666674203E-01               0
GRID*              16765               01.5298833774E+00-4.613254804E-01+
*       -1.666667010E-01               0
GRID*              16766               01.5298674269E+00-5.386254477E-01+
*       -1.666667002E-01               0
GRID*              16767               01.5752587788E+00-6.011119292E-01+
*       -1.666677404E-01               0
GRID*              16768               01.6486996277E+00-6.249999899E-01+
*       -1.666666667E-01               0
GRID*              16769               01.7222101325E+00-6.011365266E-01+
*       -1.666666794E-01               0
GRID*              16770               01.7676282266E+00-5.386360527E-01+
*       -1.666670749E-01               0
GRID*              16771               01.7676428860E+00-4.614096812E-01+
*       -1.666659498E-01               0
GRID*              16772               01.7222506553E+00-3.988929315E-01+
*       -1.666666397E-01               0
GRID*              16773               01.5752996164E+00-3.988583827E-01+
*       -8.333226317E-02               0
GRID*              16774               01.5298829979E+00-4.613266897E-01+
*       -8.333329964E-02               0
GRID*              16775               01.5298678057E+00-5.386266547E-01+
*       -8.333329897E-02               0
GRID*              16776               01.5752703138E+00-6.011207738E-01+
*       -8.333256774E-02               0
GRID*              16777               01.6486996279E+00-6.249999899E-01+
*       -8.333333333E-02               0
GRID*              16778               01.7222099264E+00-6.011366629E-01+
*       -8.333336099E-02               0
GRID*              16779               01.7676272841E+00-5.386383309E-01+
*       -8.333405344E-02               0
GRID*              16780               01.7676438347E+00-4.614119743E-01+
*       -8.333293035E-02               0
GRID*              16781               01.7222508579E+00-3.988930655E-01+
*       -8.333332113E-02               0
GRID*              16782               01.5752997261E+00-3.988582986E-01+
*       -1.249989475E-01               0
GRID*              16783               01.5476383975E+00-4.265067333E-01+
*       -1.249998963E-01               0
GRID*              16784               01.5476348487E+00-4.265115783E-01+
*       -1.666671957E-01               0
GRID*              16785               01.5476408530E+00-4.265033809E-01+
*       -8.333279180E-02               0
GRID*              16786               01.5298832155E+00-4.613259964E-01+
*       -1.250000053E-01               0
GRID*              16787               01.5237499501E+00-4.999747739E-01+
*       -1.250000000E-01               0
GRID*              16788               01.5237499501E+00-4.999747740E-01+
*       -1.666666667E-01               0
GRID*              16789               01.5237499501E+00-4.999747738E-01+
*       -8.333333336E-02               0
GRID*              16790               01.5298676532E+00-5.386261687E-01+
*       -1.249999930E-01               0
GRID*              16791               01.5476088355E+00-5.734525933E-01+
*       -1.250001170E-01               0
GRID*              16792               01.5476112167E+00-5.734558465E-01+
*       -1.666672085E-01               0
GRID*              16793               01.5476052216E+00-5.734476560E-01+
*       -8.333280574E-02               0
GRID*              16794               01.5752589533E+00-6.011120630E-01+
*       -1.250010457E-01               0
GRID*              16795               01.6101024612E+00-6.188749035E-01+
*       -1.249996611E-01               0
GRID*              16796               01.6101034629E+00-6.188752832E-01+
*       -1.666664329E-01               0
GRID*              16797               01.6101036129E+00-6.188753400E-01+
*       -8.333311522E-02               0
GRID*              16798               01.6486996278E+00-6.249999899E-01+
*       -1.250000000E-01               0
GRID*              16799               01.6868847976E+00-6.174320800E-01+
*       -8.333319203E-02               0
GRID*              16800               01.6873626757E+00-6.188861546E-01+
*       -1.249996506E-01               0
GRID*              16801               01.7222099946E+00-6.011366178E-01+
*       -1.250000227E-01               0
GRID*              16802               01.6873632848E+00-6.188858969E-01+
*       -1.666662382E-01               0
GRID*              16803               01.7498586784E+00-5.734973293E-01+
*       -8.333344321E-02               0
GRID*              16804               01.7498554320E+00-5.735014235E-01+
*       -1.250006976E-01               0
GRID*              16805               01.7676273523E+00-5.386381661E-01+
*       -1.250006976E-01               0
GRID*              16806               01.7498564541E+00-5.735001344E-01+
*       -1.666671792E-01               0
GRID*              16807               01.7737499450E+00-5.000251934E-01+
*       -8.333333335E-02               0
GRID*              16808               01.7737499450E+00-5.000251933E-01+
*       -1.250000000E-01               0
GRID*              16809               01.7676429676E+00-4.614098784E-01+
*       -1.249993101E-01               0
GRID*              16810               01.7737499450E+00-5.000251933E-01+
*       -1.666666667E-01               0
GRID*              16811               01.7498860538E+00-4.265407102E-01+
*       -8.333282447E-02               0
GRID*              16812               01.7498850222E+00-4.265394054E-01+
*       -1.249993040E-01               0
GRID*              16813               01.7222507243E+00-3.988929772E-01+
*       -1.249999781E-01               0
GRID*              16814               01.7498881761E+00-4.265433944E-01+
*       -1.666665427E-01               0
GRID*              16815               01.6101515517E+00-3.811090522E-01+
*       -1.666668822E-01               0
GRID*              16816               01.6101529575E+00-3.811085194E-01+
*       -2.083334014E-01               0
GRID*              16817               01.5753101970E+00-3.988502659E-01+
*       -2.083339508E-01               0
GRID*              16818               01.6101504017E+00-3.811094881E-01+
*       -1.250003362E-01               0
GRID*              16819               01.6101513513E+00-3.811091282E-01+
*       -8.333356986E-02               0
GRID*              16820               01.6101552941E+00-3.811076339E-01+
*       -4.166648942E-02               0
GRID*              16821               01.5753038627E+00-3.988551252E-01+
*       -4.166627355E-02               0
GRID*              16822               01.5476391509E+00-4.265057048E-01+
*       -4.166642840E-02               0
GRID*              16823               01.5298830969E+00-4.613263741E-01+
*       -4.166665063E-02               0
GRID*              16824               01.5237499501E+00-4.999747738E-01+
*       -4.166666670E-02               0
GRID*              16825               01.5298676980E+00-5.386263115E-01+
*       -4.166665152E-02               0
GRID*              16826               01.5476067567E+00-5.734497534E-01+
*       -4.166641269E-02               0
GRID*              16827               01.5752693791E+00-6.011200571E-01+
*       -4.166604994E-02               0
GRID*              16828               01.6101050343E+00-6.188758787E-01+
*       -4.166659768E-02               0
GRID*              16829               01.6486996280E+00-6.249999899E-01+
*       -4.166666667E-02               0
GRID*              16830               01.6868840095E+00-6.174324135E-01+
*       -4.166662768E-02               0
GRID*              16831               01.7222102165E+00-6.011364710E-01+
*       -4.166667303E-02               0
GRID*              16832               01.7498613378E+00-5.734939755E-01+
*       -4.166629516E-02               0
GRID*              16833               01.7676302567E+00-5.386311459E-01+
*       -4.166640295E-02               0
GRID*              16834               01.7737499450E+00-5.000251934E-01+
*       -4.166666669E-02               0
GRID*              16835               01.7676446843E+00-4.614140280E-01+
*       -4.166654485E-02               0
GRID*              16836               01.7498879267E+00-4.265430790E-01+
*       -4.166649748E-02               0
GRID*              16837               01.7222509740E+00-3.988931422E-01+
*       -4.166666294E-02               0
GRID*              16838               01.6874087103E+00-3.811286230E-01+
*       -4.166676648E-02               0
GRID*              16839               01.6874112869E+00-3.811297135E-01+
*       -8.333376760E-02               0
GRID*              16840               01.6874106817E+00-3.811294573E-01+
*       -1.250003557E-01               0
GRID*              16841               01.6874094579E+00-3.811289394E-01+
*       -1.666668635E-01               0
GRID*              16842               01.7222509217E+00-3.988931077E-01+
*       -2.083333260E-01               0
GRID*              16843               01.6874083869E+00-3.811284861E-01+
*       -2.083333911E-01               0
GRID*              16844               01.7676458198E+00-4.614167726E-01+
*       -2.083335875E-01               0
GRID*              16845               01.7498909039E+00-4.265468446E-01+
*       -2.083337040E-01               0
GRID*              16846               01.7676290870E+00-5.386339730E-01+
*       -2.083334569E-01               0
GRID*              16847               01.7737499450E+00-5.000251932E-01+
*       -2.083333333E-01               0
GRID*              16848               01.7222102532E+00-6.011364468E-01+
*       -2.083333372E-01               0
GRID*              16849               01.7498583421E+00-5.734977534E-01+
*       -2.083335040E-01               0
GRID*              16850               01.6486996276E+00-6.249999898E-01+
*       -2.083333333E-01               0
GRID*              16851               01.6873608147E+00-6.188869423E-01+
*       -2.083332255E-01               0
GRID*              16852               01.5752630341E+00-6.011151920E-01+
*       -2.083337287E-01               0
GRID*              16853               01.6101073965E+00-6.188767740E-01+
*       -2.083335124E-01               0
GRID*              16854               01.5298675243E+00-5.386257580E-01+
*       -2.083333495E-01               0
GRID*              16855               01.5476095075E+00-5.734535114E-01+
*       -2.083335705E-01               0
GRID*              16856               01.5298832708E+00-4.613258203E-01+
*       -2.083333486E-01               0
GRID*              16857               01.5237499501E+00-4.999747740E-01+
*       -2.083333333E-01               0
GRID*              16858               01.5476363983E+00-4.265094627E-01+
*       -2.083335863E-01               0
GRID*              16859               01.5752996129E+006.0114159721E-01+
*       -1.666677368E-01               0
GRID*              16860               01.5298833659E+005.3867451391E-01+
*       -1.666667010E-01               0
GRID*              16861               01.5298674384E+004.6137454659E-01+
*       -1.666667002E-01               0
GRID*              16862               01.5752703153E+003.9887920339E-01+
*       -1.666674323E-01               0
GRID*              16863               01.6486996277E+003.7500001015E-01+
*       -1.666666667E-01               0
GRID*              16864               01.7222101325E+003.9886347342E-01+
*       -1.666666794E-01               0
GRID*              16865               01.7676282306E+004.6136395956E-01+
*       -1.666670749E-01               0
GRID*              16866               01.7676428820E+005.3859033103E-01+
*       -1.666659498E-01               0
GRID*              16867               01.7222506553E+006.0110706849E-01+
*       -1.666666397E-01               0
GRID*              16868               01.5753110511E+006.0115036752E-01+
*       -8.333257965E-02               0
GRID*              16869               01.5298829864E+005.3867330466E-01+
*       -8.333329964E-02               0
GRID*              16870               01.5298678173E+004.6137333961E-01+
*       -8.333329897E-02               0
GRID*              16871               01.5752587824E+003.9888805076E-01+
*       -8.333225964E-02               0
GRID*              16872               01.6486996279E+003.7500001014E-01+
*       -8.333333333E-02               0
GRID*              16873               01.7222099264E+003.9886333713E-01+
*       -8.333336099E-02               0
GRID*              16874               01.7676272880E+004.6136168136E-01+
*       -8.333405344E-02               0
GRID*              16875               01.7676438307E+005.3858803791E-01+
*       -8.333293035E-02               0
GRID*              16876               01.7222508579E+006.0110693453E-01+
*       -8.333332113E-02               0
GRID*              16877               01.5752997225E+006.0114168129E-01+
*       -1.250010525E-01               0
GRID*              16878               01.5476383846E+005.7349326491E-01+
*       -1.249998963E-01               0
GRID*              16879               01.5476348374E+005.7348841880E-01+
*       -1.666671957E-01               0
GRID*              16880               01.5476408390E+005.7349661811E-01+
*       -8.333279180E-02               0
GRID*              16881               01.5298832040E+005.3867399799E-01+
*       -1.250000053E-01               0
GRID*              16882               01.5237499501E+005.0002521836E-01+
*       -1.250000000E-01               0
GRID*              16883               01.5237499501E+005.0002521830E-01+
*       -1.666666667E-01               0
GRID*              16884               01.5237499501E+005.0002521843E-01+
*       -8.333333336E-02               0
GRID*              16885               01.5298676647E+004.6137382570E-01+
*       -1.249999930E-01               0
GRID*              16886               01.5476088484E+004.2654740490E-01+
*       -1.250001170E-01               0
GRID*              16887               01.5476112307E+004.2654415246E-01+
*       -1.666672085E-01               0
GRID*              16888               01.5476052328E+004.2655234098E-01+
*       -8.333280574E-02               0
GRID*              16889               01.5752589568E+003.9888791694E-01+
*       -1.249989543E-01               0
GRID*              16890               01.6101024562E+003.8112506831E-01+
*       -1.249996611E-01               0
GRID*              16891               01.6101034579E+003.8112468865E-01+
*       -1.666664329E-01               0
GRID*              16892               01.6101036079E+003.8112463179E-01+
*       -8.333311522E-02               0
GRID*              16893               01.6486996278E+003.7500001014E-01+
*       -1.250000000E-01               0
GRID*              16894               01.6873614710E+003.8111333550E-01+
*       -8.333314032E-02               0
GRID*              16895               01.6873626757E+003.8111384535E-01+
*       -1.249996506E-01               0
GRID*              16896               01.7222099946E+003.9886338225E-01+
*       -1.250000227E-01               0
GRID*              16897               01.6873632848E+003.8111410315E-01+
*       -1.666662382E-01               0
GRID*              16898               01.7498586169E+004.2650271063E-01+
*       -8.333344322E-02               0
GRID*              16899               01.7498553764E+004.2649861201E-01+
*       -1.250006976E-01               0
GRID*              16900               01.7676273562E+004.6136184618E-01+
*       -1.250006976E-01               0
GRID*              16901               01.7498563967E+004.2649990251E-01+
*       -1.666671792E-01               0
GRID*              16902               01.7737499450E+004.9997482011E-01+
*       -8.333333335E-02               0
GRID*              16903               01.7737499450E+004.9997482016E-01+
*       -1.250000000E-01               0
GRID*              16904               01.7676429636E+005.3859013381E-01+
*       -1.249993101E-01               0
GRID*              16905               01.7737499450E+004.9997482020E-01+
*       -1.666666667E-01               0
GRID*              16906               01.7498861115E+005.7345932693E-01+
*       -8.333282447E-02               0
GRID*              16907               01.7498850780E+005.7346063028E-01+
*       -1.249993040E-01               0
GRID*              16908               01.7222507243E+006.0110702284E-01+
*       -1.249999781E-01               0
GRID*              16909               01.7498882377E+005.7345664555E-01+
*       -1.666665427E-01               0
GRID*              16910               01.6115564743E+006.1452582885E-01+
*       -1.666671219E-01               0
GRID*              16911               01.6117908030E+006.1379838033E-01+
*       -2.083338100E-01               0
GRID*              16912               01.5753034033E+006.0114451148E-01+
*       -2.083337974E-01               0
GRID*              16913               01.6101504067E+006.1889048372E-01+
*       -1.250003362E-01               0
GRID*              16914               01.6101513563E+006.1889084362E-01+
*       -8.333356986E-02               0
GRID*              16915               01.6106240992E+006.1743804941E-01+
*       -4.166643952E-02               0
GRID*              16916               01.5753098130E+006.0114942220E-01+
*       -4.166610939E-02               0
GRID*              16917               01.5476391376E+005.7349429367E-01+
*       -4.166642840E-02               0
GRID*              16918               01.5298830854E+005.3867362021E-01+
*       -4.166665063E-02               0
GRID*              16919               01.5237499501E+005.0002521851E-01+
*       -4.166666670E-02               0
GRID*              16920               01.5298677095E+004.6137368281E-01+
*       -4.166665152E-02               0
GRID*              16921               01.5476067687E+004.2655024416E-01+
*       -4.166641269E-02               0
GRID*              16922               01.5752630369E+003.9888478697E-01+
*       -4.166627132E-02               0
GRID*              16923               01.6101050293E+003.8112409310E-01+
*       -4.166659768E-02               0
GRID*              16924               01.6486996280E+003.7500001014E-01+
*       -4.166666667E-02               0
GRID*              16925               01.6873604202E+003.8111289078E-01+
*       -4.166661007E-02               0
GRID*              16926               01.7222102165E+003.9886352896E-01+
*       -4.166667303E-02               0
GRID*              16927               01.7498612716E+004.2650606826E-01+
*       -4.166629517E-02               0
GRID*              16928               01.7676302606E+004.6136886630E-01+
*       -4.166640296E-02               0
GRID*              16929               01.7737499450E+004.9997482006E-01+
*       -4.166666668E-02               0
GRID*              16930               01.7676446803E+005.3858598427E-01+
*       -4.166654485E-02               0
GRID*              16931               01.7498879877E+005.7345696077E-01+
*       -4.166649748E-02               0
GRID*              16932               01.7222509740E+006.0110685776E-01+
*       -4.166666294E-02               0
GRID*              16933               01.6874087103E+006.1887137704E-01+
*       -4.166676648E-02               0
GRID*              16934               01.6874112869E+006.1887028651E-01+
*       -8.333376760E-02               0
GRID*              16935               01.6874106817E+006.1887054265E-01+
*       -1.250003557E-01               0
GRID*              16936               01.6874094579E+006.1887106062E-01+
*       -1.666668635E-01               0
GRID*              16937               01.7222509217E+006.0110689231E-01+
*       -2.083333260E-01               0
GRID*              16938               01.6874083869E+006.1887151392E-01+
*       -2.083333911E-01               0
GRID*              16939               01.7676458159E+005.3858323964E-01+
*       -2.083335875E-01               0
GRID*              16940               01.7498909703E+005.7345319936E-01+
*       -2.083337040E-01               0
GRID*              16941               01.7676290910E+004.6136603926E-01+
*       -2.083334569E-01               0
GRID*              16942               01.7737499450E+004.9997482023E-01+
*       -2.083333333E-01               0
GRID*              16943               01.7222102532E+003.9886355319E-01+
*       -2.083333372E-01               0
GRID*              16944               01.7498582813E+004.2650228616E-01+
*       -2.083335040E-01               0
GRID*              16945               01.6486996276E+003.7500001015E-01+
*       -2.083333333E-01               0
GRID*              16946               01.6873608147E+003.8111305774E-01+
*       -2.083332255E-01               0
GRID*              16947               01.5752693807E+003.9887992031E-01+
*       -2.083339501E-01               0
GRID*              16948               01.6101073915E+003.8112319780E-01+
*       -2.083335124E-01               0
GRID*              16949               01.5298675358E+004.6137423637E-01+
*       -2.083333495E-01               0
GRID*              16950               01.5476095207E+004.2654648705E-01+
*       -2.083335705E-01               0
GRID*              16951               01.5298832592E+005.3867417399E-01+
*       -2.083333486E-01               0
GRID*              16952               01.5237499501E+005.0002521825E-01+
*       -2.083333333E-01               0
GRID*              16953               01.5476363863E+005.7349053480E-01+
*       -2.083335863E-01               0
GRID*              16954               01.8071580409E+00-6.247581640E-01+
*       0.0000000000E+00               0
GRID*              16955               01.4951394468E+00-6.442278700E-01+
*       0.0000000000E+00               0
GRID*              16956               01.8269281201E+00-5.368200490E-01+
*       0.0000000000E+00               0
GRID*              16957               01.5048345578E+00-3.628119149E-01+
*       0.0000000000E+00               0
GRID*              16958               01.7931004282E+003.6301028662E-01+
*       0.0000000000E+00               0
GRID*              16959               01.7724032227E+007.5824516290E-02+
*       0.0000000000E+00               0
GRID*              16960               01.6502664064E+009.1536266528E-04+
*       0.0000000000E+00               0
GRID*              16961               01.5275019558E+00-7.468271649E-02+
*       0.0000000000E+00               0
GRID*              16962               01.6591624645E+00-1.491051542E-01+
*       0.0000000000E+00               0
GRID*              16963               01.7841171549E+00-2.213058875E-01+
*       0.0000000000E+00               0
GRID*              16964               01.7773553262E+00-7.425440299E-02+
*       0.0000000000E+00               0
GRID*              16965               01.5359174695E+00-2.371961022E-01+
*       0.0000000000E+00               0
GRID*              16966               01.5898594966E+00-3.371509746E-01+
*       0.0000000000E+00               0
GRID*              16967               01.6776363735E+00-2.957980775E-01+
*       0.0000000000E+00               0
GRID*              16968               01.7916555393E+00-3.540360110E-01+
*       0.0000000000E+00               0
GRID*              16969               01.5234512747E+007.5682224323E-02+
*       0.0000000000E+00               0
GRID*              16970               01.7664130228E+002.3424427058E-01+
*       0.0000000000E+00               0
GRID*              16971               01.6464612103E+001.4860346794E-01+
*       0.0000000000E+00               0
GRID*              16972               01.5273198873E+002.3456557686E-01+
*       0.0000000000E+00               0
GRID*              16973               01.7136907819E+003.3179687509E-01+
*       0.0000000000E+00               0
GRID*              16974               01.6470413865E+002.7742720627E-01+
*       0.0000000000E+00               0
GRID*              16975               01.5025481079E+003.6354368861E-01+
*       0.0000000000E+00               0
GRID*              16976               01.5815479618E+003.3266402267E-01+
*       0.0000000000E+00               0
GRID*              16977               01.4823670085E+006.1859991243E-01+
*       0.0000000000E+00               0
GRID*              16978               01.8023685037E+006.4421910292E-01+
*       0.0000000000E+00               0
GRID*              16979               01.8331975106E+00-4.557074122E-01+
*       0.0000000000E+00               0
GRID*              16980               01.4643087851E+004.5568697671E-01+
*       0.0000000000E+00               0
GRID*              16981               01.8331897168E+004.5568342399E-01+
*       0.0000000000E+00               0
GRID*              16982               01.4643165654E+00-4.556630467E-01+
*       0.0000000000E+00               0
GRID*              16983               01.6070581211E+00-6.874999949E-01+
*       0.0000000000E+00               0
GRID*              16984               01.6070832809E+006.8750000000E-01+
*       0.0000000000E+00               0
GRID*              16985               01.8529539942E+00-6.873790820E-01+
*       0.0000000000E+00               0
GRID*              16986               01.7696206609E+00-6.873790820E-01+
*       0.0000000000E+00               0
GRID*              16987               01.8529539942E+00-6.123790820E-01+
*       0.0000000000E+00               0
GRID*              16988               01.5302780305E+00-6.971139350E-01+
*       0.0000000000E+00               0
GRID*              16989               01.4469446972E+00-6.971139350E-01+
*       0.0000000000E+00               0
GRID*              16990               01.4469446972E+00-6.221139350E-01+
*       0.0000000000E+00               0
GRID*              16991               01.5352024531E+00-6.226724858E-01+
*       0.0000000000E+00               0
GRID*              16992               01.5125035287E+00-5.914269556E-01+
*       0.0000000000E+00               0
GRID*              16993               01.7873937500E+00-5.816956569E-01+
*       0.0000000000E+00               0
GRID*              16994               01.7646841708E+00-6.129472886E-01+
*       0.0000000000E+00               0
GRID*              16995               01.8628390338E+00-4.934100245E-01+
*       0.0000000000E+00               0
GRID*              16996               01.8628390338E+00-5.684100245E-01+
*       0.0000000000E+00               0
GRID*              16997               01.8170430805E+00-5.807891065E-01+
*       0.0000000000E+00               0
GRID*              16998               01.7972787896E+00-5.377265994E-01+
*       0.0000000000E+00               0
GRID*              16999               01.7972865969E+00-4.991174367E-01+
*       0.0000000000E+00               0
GRID*              17000               01.4517922527E+00-4.064059574E-01+
*       0.0000000000E+00               0
GRID*              17001               01.4517922527E+00-3.314059574E-01+
*       0.0000000000E+00               0
GRID*              17002               01.5173588705E+00-4.120690041E-01+
*       0.0000000000E+00               0
GRID*              17003               01.5400704113E+00-3.808325679E-01+
*       0.0000000000E+00               0
GRID*              17004               01.8459251879E+004.0650514331E-01+
*       0.0000000000E+00               0
GRID*              17005               01.8459251879E+003.3150514331E-01+
*       0.0000000000E+00               0
GRID*              17006               01.7803649571E+004.1218856731E-01+
*       0.0000000000E+00               0
GRID*              17007               01.7576553642E+003.8093693696E-01+
*       0.0000000000E+00               0
GRID*              17008               01.8355765851E+003.7912258145E-02+
*       0.0000000000E+00               0
GRID*              17009               01.8355765851E+001.1291225814E-01+
*       0.0000000000E+00               0
GRID*              17010               01.8380526369E+00-3.712720149E-02+
*       0.0000000000E+00               0
GRID*              17011               01.8380526369E+00-1.121272015E-01+
*       0.0000000000E+00               0
GRID*              17012               01.7748792745E+007.8505665012E-04+
*       0.0000000000E+00               0
GRID*              17013               01.7113348146E+003.8369939478E-02+
*       0.0000000000E+00               0
GRID*              17014               01.7138108663E+00-3.666952016E-02+
*       0.0000000000E+00               0
GRID*              17015               01.8414335512E+00-1.856529437E-01+
*       0.0000000000E+00               0
GRID*              17016               01.8414335512E+00-2.606529437E-01+
*       0.0000000000E+00               0
GRID*              17017               01.7807362406E+00-1.477801452E-01+
*       0.0000000000E+00               0
GRID*              17018               01.6547144355E+00-7.409489579E-02+
*       0.0000000000E+00               0
GRID*              17019               01.5888841811E+00-3.688367691E-02+
*       0.0000000000E+00               0
GRID*              17020               01.5933322102E+00-1.118939354E-01+
*       0.0000000000E+00               0
GRID*              17021               01.7182588954E+00-1.116797786E-01+
*       0.0000000000E+00               0
GRID*              17022               01.7216398097E+00-1.852055209E-01+
*       0.0000000000E+00               0
GRID*              17023               01.4673337085E+00-1.935980511E-01+
*       0.0000000000E+00               0
GRID*              17024               01.4673337085E+00-2.685980511E-01+
*       0.0000000000E+00               0
GRID*              17025               01.5317097127E+00-1.559394093E-01+
*       0.0000000000E+00               0
GRID*              17026               01.5975399670E+00-1.931506282E-01+
*       0.0000000000E+00               0
GRID*              17027               01.4631259517E+00-1.123413582E-01+
*       0.0000000000E+00               0
GRID*              17028               01.6683994190E+00-2.224516159E-01+
*       0.0000000000E+00               0
GRID*              17029               01.7308767642E+00-2.585519825E-01+
*       0.0000000000E+00               0
GRID*              17030               01.5203760137E+00-3.000040085E-01+
*       0.0000000000E+00               0
GRID*              17031               01.6067769215E+00-2.664970899E-01+
*       0.0000000000E+00               0
GRID*              17032               01.5628884831E+00-2.871735384E-01+
*       0.0000000000E+00               0
GRID*              17033               01.5473470272E+00-3.499814447E-01+
*       0.0000000000E+00               0
GRID*              17034               01.6337479350E+00-3.164745260E-01+
*       0.0000000000E+00               0
GRID*              17035               01.5825828807E+00-3.680020978E-01+
*       0.0000000000E+00               0
GRID*              17036               01.6193047221E+00-3.560754873E-01+
*       0.0000000000E+00               0
GRID*              17037               01.7796503065E+00-4.077254177E-01+
*       0.0000000000E+00               0
GRID*              17038               01.7569532792E+00-3.764645930E-01+
*       0.0000000000E+00               0
GRID*              17039               01.8452027434E+00-4.020180055E-01+
*       0.0000000000E+00               0
GRID*              17040               01.8452027434E+00-3.270180055E-01+
*       0.0000000000E+00               0
GRID*              17041               01.7878863471E+00-2.876709492E-01+
*       0.0000000000E+00               0
GRID*              17042               01.7346459564E+00-3.249170443E-01+
*       0.0000000000E+00               0
GRID*              17043               01.6631931605E+00-3.353990388E-01+
*       0.0000000000E+00               0
GRID*              17044               01.6999436963E+00-3.473456263E-01+
*       0.0000000000E+00               0
GRID*              17045               01.4631259517E+00-3.734135825E-02+
*       0.0000000000E+00               0
GRID*              17046               01.4611006111E+003.7841112161E-02+
*       0.0000000000E+00               0
GRID*              17047               01.4611006111E+001.1284111216E-01+
*       0.0000000000E+00               0
GRID*              17048               01.5254766153E+004.9975391528E-04+
*       0.0000000000E+00               0
GRID*              17049               01.5868588406E+003.8298793494E-02+
*       0.0000000000E+00               0
GRID*              17050               01.8325814852E+001.9212213529E-01+
*       0.0000000000E+00               0
GRID*              17051               01.8325814852E+002.6712213529E-01+
*       0.0000000000E+00               0
GRID*              17052               01.7694081227E+001.5503439344E-01+
*       0.0000000000E+00               0
GRID*              17053               01.6483638083E+007.4759415305E-02+
*       0.0000000000E+00               0
GRID*              17054               01.5849562425E+001.1214284613E-01+
*       0.0000000000E+00               0
GRID*              17055               01.7094322165E+001.1221399212E-01+
*       0.0000000000E+00               0
GRID*              17056               01.7064371165E+001.9142386926E-01+
*       0.0000000000E+00               0
GRID*              17057               01.4630349174E+001.9228278843E-01+
*       0.0000000000E+00               0
GRID*              17058               01.4630349174E+002.6728278843E-01+
*       0.0000000000E+00               0
GRID*              17059               01.5253855810E+001.5512390059E-01+
*       0.0000000000E+00               0
GRID*              17060               01.5868905488E+001.9158452240E-01+
*       0.0000000000E+00               0
GRID*              17061               01.7797567255E+002.9862727860E-01+
*       0.0000000000E+00               0
GRID*              17062               01.6467512984E+002.1301533711E-01+
*       0.0000000000E+00               0
GRID*              17063               01.5871806369E+002.5599639156E-01+
*       0.0000000000E+00               0
GRID*              17064               01.7067272046E+002.5583573843E-01+
*       0.0000000000E+00               0
GRID*              17065               01.7400519023E+002.8302057284E-01+
*       0.0000000000E+00               0
GRID*              17066               01.7533956051E+003.4740358086E-01+
*       0.0000000000E+00               0
GRID*              17067               01.6803660842E+003.0461204068E-01+
*       0.0000000000E+00               0
GRID*              17068               01.7179505411E+003.6533023119E-01+
*       0.0000000000E+00               0
GRID*              17069               01.6811952050E+003.5339844261E-01+
*       0.0000000000E+00               0
GRID*              17070               01.5162078653E+004.1245882102E-01+
*       0.0000000000E+00               0
GRID*              17071               01.5389067806E+003.8121328011E-01+
*       0.0000000000E+00               0
GRID*              17072               01.4506490277E+004.0677184430E-01+
*       0.0000000000E+00               0
GRID*              17073               01.4506490277E+003.3177184430E-01+
*       0.0000000000E+00               0
GRID*              17074               01.5149339976E+002.9905463273E-01+
*       0.0000000000E+00               0
GRID*              17075               01.5544339246E+002.8361479977E-01+
*       0.0000000000E+00               0
GRID*              17076               01.5420480348E+003.4810385564E-01+
*       0.0000000000E+00               0
GRID*              17077               01.6142946741E+003.0504561447E-01+
*       0.0000000000E+00               0
GRID*              17078               01.5784067075E+003.6577344714E-01+
*       0.0000000000E+00               0
GRID*              17079               01.6478705072E+003.2621360820E-01+
*       0.0000000000E+00               0
GRID*              17080               01.6151237949E+003.5383201640E-01+
*       0.0000000000E+00               0
GRID*              17081               01.4405584780E+006.8429995622E-01+
*       0.0000000000E+00               0
GRID*              17082               01.5238918114E+006.8429995622E-01+
*       0.0000000000E+00               0
GRID*              17083               01.4405584780E+006.0929995622E-01+
*       0.0000000000E+00               0
GRID*              17084               01.7672258923E+006.9710955146E-01+
*       0.0000000000E+00               0
GRID*              17085               01.8505592256E+006.9710955146E-01+
*       0.0000000000E+00               0
GRID*              17086               01.8505592256E+006.2210955146E-01+
*       0.0000000000E+00               0
GRID*              17087               01.7623097614E+006.2266296396E-01+
*       0.0000000000E+00               0
GRID*              17088               01.7850067754E+005.9140213822E-01+
*       0.0000000000E+00               0
GRID*              17089               01.5061250899E+005.7863690677E-01+
*       0.0000000000E+00               0
GRID*              17090               01.5288366409E+006.0987333099E-01+
*       0.0000000000E+00               0
GRID*              17091               01.4405584780E+005.3429995622E-01+
*       0.0000000000E+00               0
GRID*              17092               01.8300628154E+00-4.962637306E-01+
*       0.0000000000E+00               0
GRID*              17093               01.8004212922E+00-4.585611183E-01+
*       0.0000000000E+00               0
GRID*              17094               01.8659737291E+00-4.528537061E-01+
*       0.0000000000E+00               0
GRID*              17095               01.8124265250E+00-4.048717116E-01+
*       0.0000000000E+00               0
GRID*              17096               01.4834284465E+004.0961533266E-01+
*       0.0000000000E+00               0
GRID*              17097               01.4315293663E+004.5284348836E-01+
*       0.0000000000E+00               0
GRID*              17098               01.4970882039E+004.5853046507E-01+
*       0.0000000000E+00               0
GRID*              17099               01.4970959782E+004.9718043891E-01+
*       0.0000000000E+00               0
GRID*              17100               01.4733378968E+005.3714344457E-01+
*       0.0000000000E+00               0
GRID*              17101               01.8004096014E+004.5852513599E-01+
*       0.0000000000E+00               0
GRID*              17102               01.8004173820E+004.9713429876E-01+
*       0.0000000000E+00               0
GRID*              17103               01.8131450725E+004.0934685531E-01+
*       0.0000000000E+00               0
GRID*              17104               01.8659698322E+004.5284171200E-01+
*       0.0000000000E+00               0
GRID*              17105               01.8659698322E+005.2784171200E-01+
*       0.0000000000E+00               0
GRID*              17106               01.4970998743E+00-4.584945701E-01+
*       0.0000000000E+00               0
GRID*              17107               01.4970920880E+00-4.971445439E-01+
*       0.0000000000E+00               0
GRID*              17108               01.4845755616E+00-4.092374808E-01+
*       0.0000000000E+00               0
GRID*              17109               01.4315332565E+00-4.528315234E-01+
*       0.0000000000E+00               0
GRID*              17110               01.4315332565E+00-5.278315234E-01+
*       0.0000000000E+00               0
GRID*              17111               01.4797280061E+00-5.499454584E-01+
*       0.0000000000E+00               0
GRID*              17112               01.8177791102E+005.4995126346E-01+
*       0.0000000000E+00               0
GRID*              17113               01.5655584780E+006.2179995622E-01+
*       0.0000000000E+00               0
GRID*              17114               01.7279288344E+00-6.248790769E-01+
*       0.0000000000E+00               0
GRID*              17115               01.5719195374E+00-6.346139299E-01+
*       0.0000000000E+00               0
GRID*              17116               01.7255592256E+006.3460955146E-01+
*       0.0000000000E+00               0
GRID*              17117               01.6695707010E+00-7.187499975E-01+
*       0.0000000000E+00               0
GRID*              17118               01.5862373677E+00-7.187499975E-01+
*       0.0000000000E+00               0
GRID*              17119               01.5510987839E+00-6.658639325E-01+
*       0.0000000000E+00               0
GRID*              17120               01.6278788746E+00-6.562499924E-01+
*       0.0000000000E+00               0
GRID*              17121               01.7071080810E+00-6.561290794E-01+
*       0.0000000000E+00               0
GRID*              17122               01.5862499475E+007.1875000000E-01+
*       0.0000000000E+00               0
GRID*              17123               01.6695832809E+007.1875000000E-01+
*       0.0000000000E+00               0
GRID*              17124               01.5447251447E+006.5304995622E-01+
*       0.0000000000E+00               0
GRID*              17125               01.6279166142E+006.5625000000E-01+
*       0.0000000000E+00               0
GRID*              17126               01.7047258923E+006.6585955146E-01+
*       0.0000000000E+00               0
GRID*              17127               01.8987499475E+00-2.250000000E-01+
*       -1.250000000E-01               0
GRID*              17128               01.8987499475E+00-5.187712963E-01+
*       -1.250000000E-01               0
GRID*              17129               01.8987499475E+00-6.590849232E-01+
*       -1.250000000E-01               0
GRID*              17130               01.8987499475E+00-3.739473124E-01+
*       -1.250000000E-01               0
GRID*              17131               01.8987499475E+00-7.500000000E-02+
*       -1.250000000E-01               0
GRID*              17132               01.8987499475E+007.5000000000E-02+
*       -1.250000000E-01               0
GRID*              17133               01.8987499475E+002.2500000000E-01+
*       -1.250000000E-01               0
GRID*              17134               01.8987499475E+005.1877129633E-01+
*       -1.250000000E-01               0
GRID*              17135               01.8987499475E+006.5908492322E-01+
*       -1.250000000E-01               0
GRID*              17136               01.8987499475E+003.7394731242E-01+
*       -1.250000000E-01               0
GRID*              17137               01.8987499475E+00-5.593856482E-01+
*       -6.250000000E-02               0
GRID*              17138               01.8987499475E+00-4.843856482E-01+
*       -6.250000000E-02               0
GRID*              17139               01.8987499475E+00-6.295424616E-01+
*       -1.875000000E-01               0
GRID*              17140               01.8987499475E+00-5.593856482E-01+
*       -1.875000000E-01               0
GRID*              17141               01.8987499475E+00-5.889281098E-01+
*       -1.250000000E-01               0
GRID*              17142               01.8987499475E+00-7.045424616E-01+
*       -1.875000000E-01               0
GRID*              17143               01.8987499475E+00-7.045424616E-01+
*       -1.250000000E-01               0
GRID*              17144               01.8987499475E+00-6.295424616E-01+
*       -6.250000000E-02               0
GRID*              17145               01.8987499475E+00-7.045424616E-01+
*       -6.250000000E-02               0
GRID*              17146               01.8987499475E+00-2.625000000E-01+
*       -1.875000000E-01               0
GRID*              17147               01.8987499475E+00-1.875000000E-01+
*       -1.875000000E-01               0
GRID*              17148               01.8987499475E+00-3.369736562E-01+
*       -6.250000000E-02               0
GRID*              17149               01.8987499475E+00-4.119736562E-01+
*       -6.250000000E-02               0
GRID*              17150               01.8987499475E+00-2.994736562E-01+
*       -1.250000000E-01               0
GRID*              17151               01.8987499475E+00-3.369736562E-01+
*       -1.875000000E-01               0
GRID*              17152               01.8987499475E+00-2.625000000E-01+
*       -6.250000000E-02               0
GRID*              17153               01.8987499475E+00-4.119736562E-01+
*       -1.875000000E-01               0
GRID*              17154               01.8987499475E+00-4.843856482E-01+
*       -1.875000000E-01               0
GRID*              17155               01.8987499475E+00-4.463593044E-01+
*       -1.250000000E-01               0
GRID*              17156               01.8987499475E+00-1.875000000E-01+
*       -6.250000000E-02               0
GRID*              17157               01.8987499475E+00-1.125000000E-01+
*       -1.875000000E-01               0
GRID*              17158               01.8987499475E+00-3.750000000E-02+
*       -1.875000000E-01               0
GRID*              17159               01.8987499475E+00-1.500000000E-01+
*       -1.250000000E-01               0
GRID*              17160               01.8987499475E+00-1.125000000E-01+
*       -6.250000000E-02               0
GRID*              17161               01.8987499475E+00-3.750000000E-02+
*       -6.250000000E-02               0
GRID*              17162               01.8987499475E+003.7500000000E-02+
*       -1.875000000E-01               0
GRID*              17163               01.8987499475E+001.1250000000E-01+
*       -1.875000000E-01               0
GRID*              17164               01.8987499475E+000.0000000000E+00+
*       -1.250000000E-01               0
GRID*              17165               01.8987499475E+003.7500000000E-02+
*       -6.250000000E-02               0
GRID*              17166               01.8987499475E+001.1250000000E-01+
*       -6.250000000E-02               0
GRID*              17167               01.8987499475E+001.8750000000E-01+
*       -1.875000000E-01               0
GRID*              17168               01.8987499475E+002.6250000000E-01+
*       -1.875000000E-01               0
GRID*              17169               01.8987499475E+001.5000000000E-01+
*       -1.250000000E-01               0
GRID*              17170               01.8987499475E+001.8750000000E-01+
*       -6.250000000E-02               0
GRID*              17171               01.8987499475E+005.5938564817E-01+
*       -1.875000000E-01               0
GRID*              17172               01.8987499475E+004.8438564817E-01+
*       -1.875000000E-01               0
GRID*              17173               01.8987499475E+006.2954246161E-01+
*       -6.250000000E-02               0
GRID*              17174               01.8987499475E+005.5938564817E-01+
*       -6.250000000E-02               0
GRID*              17175               01.8987499475E+005.8892810978E-01+
*       -1.250000000E-01               0
GRID*              17176               01.8987499475E+007.0454246161E-01+
*       -6.250000000E-02               0
GRID*              17177               01.8987499475E+007.0454246161E-01+
*       -1.250000000E-01               0
GRID*              17178               01.8987499475E+006.2954246161E-01+
*       -1.875000000E-01               0
GRID*              17179               01.8987499475E+007.0454246161E-01+
*       -1.875000000E-01               0
GRID*              17180               01.8987499475E+002.6250000000E-01+
*       -6.250000000E-02               0
GRID*              17181               01.8987499475E+003.3697365621E-01+
*       -1.875000000E-01               0
GRID*              17182               01.8987499475E+004.1197365621E-01+
*       -1.875000000E-01               0
GRID*              17183               01.8987499475E+002.9947365621E-01+
*       -1.250000000E-01               0
GRID*              17184               01.8987499475E+003.3697365621E-01+
*       -6.250000000E-02               0
GRID*              17185               01.8987499475E+004.1197365621E-01+
*       -6.250000000E-02               0
GRID*              17186               01.8987499475E+004.8438564817E-01+
*       -6.250000000E-02               0
GRID*              17187               01.8987499475E+004.4635930438E-01+
*       -1.250000000E-01               0
GRID*              17188               0-1.898749948E+00-7.500000000E-01+
*       -1.250000000E-01               0
GRID*              17189               0-1.898749948E+00-7.500000000E-01+
*       -1.875000000E-01               0
GRID*              17190               0-1.898749948E+00-7.500000000E-01+
*       -6.250000000E-02               0
GRID*              17191               0-1.898749948E+00-6.000000000E-01+
*       -2.500000000E-01               0
GRID*              17192               0-1.898749948E+00-4.500000000E-01+
*       -2.500000000E-01               0
GRID*              17193               0-1.898749948E+00-3.000000000E-01+
*       -2.500000000E-01               0
GRID*              17194               0-1.898749948E+00-1.500000000E-01+
*       -2.500000000E-01               0
GRID*              17195               0-1.898749948E+000.0000000000E+00+
*       -2.500000000E-01               0
GRID*              17196               0-1.898749948E+001.5000000000E-01+
*       -2.500000000E-01               0
GRID*              17197               0-1.898749948E+003.0000000000E-01+
*       -2.500000000E-01               0
GRID*              17198               0-1.898749948E+004.5000000000E-01+
*       -2.500000000E-01               0
GRID*              17199               0-1.898749948E+006.0000000000E-01+
*       -2.500000000E-01               0
GRID*              17200               0-1.898749948E+00-7.500000000E-02+
*       -2.500000000E-01               0
GRID*              17201               0-1.898749948E+00-6.750000000E-01+
*       -2.500000000E-01               0
GRID*              17202               0-1.898749948E+00-3.750000000E-01+
*       -2.500000000E-01               0
GRID*              17203               0-1.898749948E+00-2.250000000E-01+
*       -2.500000000E-01               0
GRID*              17204               0-1.898749948E+00-5.250000000E-01+
*       -2.500000000E-01               0
GRID*              17205               0-1.898749948E+007.5000000000E-02+
*       -2.500000000E-01               0
GRID*              17206               0-1.898749948E+002.2500000000E-01+
*       -2.500000000E-01               0
GRID*              17207               0-1.898749948E+005.2500000000E-01+
*       -2.500000000E-01               0
GRID*              17208               0-1.898749948E+006.7500000000E-01+
*       -2.500000000E-01               0
GRID*              17209               0-1.898749948E+003.7500000000E-01+
*       -2.500000000E-01               0
GRID*              17210               0-1.898749948E+006.0000000000E-01+
*       0.0000000000E+00               0
GRID*              17211               0-1.898749948E+004.5000000000E-01+
*       0.0000000000E+00               0
GRID*              17212               0-1.898749948E+003.0000000000E-01+
*       0.0000000000E+00               0
GRID*              17213               0-1.898749948E+001.5000000000E-01+
*       0.0000000000E+00               0
GRID*              17214               0-1.898749948E+000.0000000000E+00+
*       0.0000000000E+00               0
GRID*              17215               0-1.898749948E+00-1.500000000E-01+
*       0.0000000000E+00               0
GRID*              17216               0-1.898749948E+00-3.000000000E-01+
*       0.0000000000E+00               0
GRID*              17217               0-1.898749948E+00-4.500000000E-01+
*       0.0000000000E+00               0
GRID*              17218               0-1.898749948E+00-6.000000000E-01+
*       0.0000000000E+00               0
GRID*              17219               0-1.898749948E+00-2.250000000E-01+
*       0.0000000000E+00               0
GRID*              17220               0-1.898749948E+00-5.250000000E-01+
*       0.0000000000E+00               0
GRID*              17221               0-1.898749948E+00-6.750000000E-01+
*       0.0000000000E+00               0
GRID*              17222               0-1.898749948E+00-3.750000000E-01+
*       0.0000000000E+00               0
GRID*              17223               0-1.898749948E+007.5000000000E-02+
*       0.0000000000E+00               0
GRID*              17224               0-1.898749948E+00-7.500000000E-02+
*       0.0000000000E+00               0
GRID*              17225               0-1.898749948E+006.7500000000E-01+
*       0.0000000000E+00               0
GRID*              17226               0-1.898749948E+003.7500000000E-01+
*       0.0000000000E+00               0
GRID*              17227               0-1.898749948E+002.2500000000E-01+
*       0.0000000000E+00               0
GRID*              17228               0-1.898749948E+005.2500000000E-01+
*       0.0000000000E+00               0
GRID*              17229               0-1.898749948E+007.5000000000E-01+
*       -1.250000000E-01               0
GRID*              17230               0-1.898749948E+007.5000000000E-01+
*       -6.250000000E-02               0
GRID*              17231               0-1.898749948E+007.5000000000E-01+
*       -1.875000000E-01               0
GRID*              17232               0-1.565416614E+00-7.500000000E-01+
*       0.0000000000E+00               0
GRID*              17233               0-1.732083281E+00-7.500000000E-01+
*       0.0000000000E+00               0
GRID*              17234               0-1.482083281E+00-7.500000000E-01+
*       0.0000000000E+00               0
GRID*              17235               0-1.815416614E+00-7.500000000E-01+
*       0.0000000000E+00               0
GRID*              17236               0-1.648749948E+00-7.500000000E-01+
*       0.0000000000E+00               0
GRID*              17237               0-1.722193637E+00-3.988531884E-01+
*       0.0000000000E+00               0
GRID*              17238               0-1.767616759E+00-4.613260069E-01+
*       0.0000000000E+00               0
GRID*              17239               0-1.767632372E+00-5.386259568E-01+
*       0.0000000000E+00               0
GRID*              17240               0-1.722234599E+00-6.011170519E-01+
*       0.0000000000E+00               0
GRID*              17241               0-1.648800449E+00-6.249999898E-01+
*       0.0000000000E+00               0
GRID*              17242               0-1.575289753E+00-6.011364706E-01+
*       0.0000000000E+00               0
GRID*              17243               0-1.529870588E+00-5.386332000E-01+
*       0.0000000000E+00               0
GRID*              17244               0-1.529854953E+00-4.614149453E-01+
*       0.0000000000E+00               0
GRID*              17245               0-1.575248891E+00-3.988932195E-01+
*       0.0000000000E+00               0
GRID*              17246               0-1.687346314E+00-3.811082648E-01+
*       0.0000000000E+00               0
GRID*              17247               0-1.749862171E+00-4.265074020E-01+
*       0.0000000000E+00               0
GRID*              17248               0-1.773749945E+00-4.999746850E-01+
*       0.0000000000E+00               0
GRID*              17249               0-1.749891910E+00-5.734516816E-01+
*       0.0000000000E+00               0
GRID*              17250               0-1.687394405E+00-6.188761044E-01+
*       0.0000000000E+00               0
GRID*              17251               0-1.610973498E+00-6.163414760E-01+
*       0.0000000000E+00               0
GRID*              17252               0-1.547640802E+00-5.734966370E-01+
*       0.0000000000E+00               0
GRID*              17253               0-1.523749950E+00-5.000252748E-01+
*       0.0000000000E+00               0
GRID*              17254               0-1.547611051E+00-4.265442799E-01+
*       0.0000000000E+00               0
GRID*              17255               0-1.610091908E+00-3.811283370E-01+
*       0.0000000000E+00               0
GRID*              17256               0-1.722193640E+006.0114680952E-01+
*       0.0000000000E+00               0
GRID*              17257               0-1.767616755E+005.3867398921E-01+
*       0.0000000000E+00               0
GRID*              17258               0-1.767632376E+004.6137403939E-01+
*       0.0000000000E+00               0
GRID*              17259               0-1.722234596E+003.9888294600E-01+
*       0.0000000000E+00               0
GRID*              17260               0-1.648800449E+003.7500001021E-01+
*       0.0000000000E+00               0
GRID*              17261               0-1.575289757E+003.9886352507E-01+
*       0.0000000000E+00               0
GRID*              17262               0-1.529870597E+004.6136679597E-01+
*       0.0000000000E+00               0
GRID*              17263               0-1.529854943E+005.3858505071E-01+
*       0.0000000000E+00               0
GRID*              17264               0-1.575248888E+006.0110677618E-01+
*       0.0000000000E+00               0
GRID*              17265               0-1.686877683E+006.1743714935E-01+
*       0.0000000000E+00               0
GRID*              17266               0-1.749862179E+005.7349260251E-01+
*       0.0000000000E+00               0
GRID*              17267               0-1.773749945E+005.0002531248E-01+
*       0.0000000000E+00               0
GRID*              17268               0-1.749891902E+004.2654832280E-01+
*       0.0000000000E+00               0
GRID*              17269               0-1.687394407E+003.8112389122E-01+
*       0.0000000000E+00               0
GRID*              17270               0-1.610140039E+003.8111268928E-01+
*       0.0000000000E+00               0
GRID*              17271               0-1.547640795E+004.2650335086E-01+
*       0.0000000000E+00               0
GRID*              17272               0-1.523749950E+004.9997471987E-01+
*       0.0000000000E+00               0
GRID*              17273               0-1.547611058E+005.7345570793E-01+
*       0.0000000000E+00               0
GRID*              17274               0-1.610568778E+006.1741711156E-01+
*       0.0000000000E+00               0
GRID*              17275               0-1.565416614E+007.5000000000E-01+
*       0.0000000000E+00               0
GRID*              17276               0-1.732083281E+007.5000000000E-01+
*       0.0000000000E+00               0
GRID*              17277               0-1.815416614E+007.5000000000E-01+
*       0.0000000000E+00               0
GRID*              17278               0-1.482083281E+007.5000000000E-01+
*       0.0000000000E+00               0
GRID*              17279               0-1.648749948E+007.5000000000E-01+
*       0.0000000000E+00               0
GRID*              17280               0-1.398749948E+00-7.500000000E-01+
*       1.5000000000E-01               0
GRID*              17281               0-1.398749948E+00-7.500000000E-01+
*       3.0000000000E-01               0
GRID*              17282               0-1.398749948E+00-7.500000000E-01+
*       4.5000000000E-01               0
GRID*              17283               0-1.398749948E+00-7.500000000E-01+
*       6.0000000000E-01               0
GRID*              17284               0-1.398749948E+00-7.500000000E-01+
*       3.7500000000E-01               0
GRID*              17285               0-1.398749948E+00-7.500000000E-01+
*       2.2500000000E-01               0
GRID*              17286               0-1.398749948E+00-7.500000000E-01+
*       7.5000000000E-02               0
GRID*              17287               0-1.398749948E+00-7.500000000E-01+
*       5.2500000000E-01               0
GRID*              17288               0-1.398749948E+00-7.500000000E-01+
*       6.7500000000E-01               0
GRID*              17289               0-1.398749948E+002.3889252136E-01+
*       8.2368851875E-01               0
GRID*              17290               0-1.398749948E+002.0655806422E-01+
*       8.9082878736E-01               0
GRID*              17291               0-1.398749948E+001.5587066082E-01+
*       9.4545555863E-01               0
GRID*              17292               0-1.398749948E+009.1334144959E-02+
*       9.8271574265E-01               0
GRID*              17293               0-1.398749948E+001.8682272896E-02+
*       9.9929893135E-01               0
GRID*              17294               0-1.398749948E+00-5.563013672E-02+
*       9.9373127295E-01               0
GRID*              17295               0-1.398749948E+00-1.250000035E-01+
*       9.6650636855E-01               0
GRID*              17296               0-1.398749948E+00-1.832623871E-01+
*       9.2004274286E-01               0
GRID*              17297               0-1.398749948E+00-2.252403347E-01+
*       8.5847014561E-01               0
GRID*              17298               0-1.398749948E+00-2.472047971E-01+
*       7.8726017912E-01               0
GRID*              17299               0-1.398749948E+00-2.472047977E-01+
*       7.1273982467E-01               0
GRID*              17300               0-1.398749948E+00-2.252403364E-01+
*       6.4152985785E-01               0
GRID*              17301               0-1.398749948E+00-1.832623898E-01+
*       5.7995725995E-01               0
GRID*              17302               0-1.398749948E+00-1.249999999E-01+
*       5.3349364226E-01               0
GRID*              17303               0-1.398749948E+00-5.563013904E-02+
*       5.0626872425E-01               0
GRID*              17304               0-1.398749948E+001.8682271044E-02+
*       5.0070106797E-01               0
GRID*              17305               0-1.398749948E+009.1334141864E-02+
*       5.1728425720E-01               0
GRID*              17306               0-1.398749948E+001.5587065784E-01+
*       5.5454444529E-01               0
GRID*              17307               0-1.398749948E+002.0655806422E-01+
*       6.0917121264E-01               0
GRID*              17308               0-1.398749948E+002.3889252136E-01+
*       6.7631148125E-01               0
GRID*              17309               0-1.398749948E+002.4720479743E-01+
*       7.1273982278E-01               0
GRID*              17310               0-1.398749948E+001.8326238845E-01+
*       5.7995725855E-01               0
GRID*              17311               0-1.398749948E+002.2524033553E-01+
*       6.4152985612E-01               0
GRID*              17312               0-1.398749948E+00-1.868227295E-02+
*       5.0070106811E-01               0
GRID*              17313               0-1.398749948E+001.2499999820E-01+
*       5.3349364130E-01               0
GRID*              17314               0-1.398749948E+005.5630137174E-02+
*       5.0626872382E-01               0
GRID*              17315               0-1.398749948E+00-2.500000000E-01+
*       7.5000000192E-01               0
GRID*              17316               0-1.398749948E+00-2.388925219E-01+
*       6.7631148308E-01               0
GRID*              17317               0-1.398749948E+00-9.133414365E-02+
*       5.1728425790E-01               0
GRID*              17318               0-1.398749948E+00-2.065580653E-01+
*       6.0917121422E-01               0
GRID*              17319               0-1.398749948E+00-1.558706593E-01+
*       5.5454444649E-01               0
GRID*              17320               0-1.398749948E+002.4720479743E-01+
*       7.8726017722E-01               0
GRID*              17321               0-1.398749948E+002.2524033553E-01+
*       8.5847014388E-01               0
GRID*              17322               0-1.398749948E+005.5630138591E-02+
*       9.9373127252E-01               0
GRID*              17323               0-1.398749948E+001.8326238845E-01+
*       9.2004274145E-01               0
GRID*              17324               0-1.398749948E+001.2500000515E-01+
*       9.6650636759E-01               0
GRID*              17325               0-1.398749948E+00-2.388925208E-01+
*       8.2368852058E-01               0
GRID*              17326               0-1.398749948E+00-2.065580631E-01+
*       8.9082878894E-01               0
GRID*              17327               0-1.398749948E+00-1.558706593E-01+
*       9.4545555983E-01               0
GRID*              17328               0-1.398749948E+00-9.133414318E-02+
*       9.8271574335E-01               0
GRID*              17329               0-1.398749948E+00-1.868227099E-02+
*       9.9929893149E-01               0
GRID*              17330               0-1.398749948E+006.0000000000E-01+
*       0.0000000000E+00               0
GRID*              17331               0-1.398749948E+004.5000000000E-01+
*       0.0000000000E+00               0
GRID*              17332               0-1.398749948E+003.0000000000E-01+
*       0.0000000000E+00               0
GRID*              17333               0-1.398749948E+001.5000000000E-01+
*       0.0000000000E+00               0
GRID*              17334               0-1.398749948E+000.0000000000E+00+
*       0.0000000000E+00               0
GRID*              17335               0-1.398749948E+00-1.500000000E-01+
*       0.0000000000E+00               0
GRID*              17336               0-1.398749948E+00-3.000000000E-01+
*       0.0000000000E+00               0
GRID*              17337               0-1.398749948E+00-4.500000000E-01+
*       0.0000000000E+00               0
GRID*              17338               0-1.398749948E+00-6.000000000E-01+
*       0.0000000000E+00               0
GRID*              17339               0-1.398749948E+006.7500000000E-01+
*       0.0000000000E+00               0
GRID*              17340               0-1.398749948E+003.7500000000E-01+
*       0.0000000000E+00               0
GRID*              17341               0-1.398749948E+002.2500000000E-01+
*       0.0000000000E+00               0
GRID*              17342               0-1.398749948E+007.5000000000E-02+
*       0.0000000000E+00               0
GRID*              17343               0-1.398749948E+00-7.500000000E-02+
*       0.0000000000E+00               0
GRID*              17344               0-1.398749948E+00-2.250000000E-01+
*       0.0000000000E+00               0
GRID*              17345               0-1.398749948E+00-3.750000000E-01+
*       0.0000000000E+00               0
GRID*              17346               0-1.398749948E+00-6.750000000E-01+
*       0.0000000000E+00               0
GRID*              17347               0-1.398749948E+00-5.250000000E-01+
*       0.0000000000E+00               0
GRID*              17348               0-1.398749948E+005.2500000000E-01+
*       0.0000000000E+00               0
GRID*              17349               0-1.398749948E+00-7.355882418E-01+
*       8.9631758406E-01               0
GRID*              17350               0-1.398749948E+00-6.929088414E-01+
*       1.0370122566E+00               0
GRID*              17351               0-1.398749948E+00-6.236021478E-01+
*       1.1666776458E+00               0
GRID*              17352               0-1.398749948E+00-5.303297119E-01+
*       1.2803296971E+00               0
GRID*              17353               0-1.398749948E+00-4.166771615E-01+
*       1.3736014560E+00               0
GRID*              17354               0-1.398749948E+00-2.870124863E-01+
*       1.4429094591E+00               0
GRID*              17355               0-1.398749948E+00-1.463176823E-01+
*       1.4855885964E+00               0
GRID*              17356               0-1.398749948E+000.0000000000E+00+
*       1.4999990439E+00               0
GRID*              17357               0-1.398749948E+001.4631768231E-01+
*       1.4855885964E+00               0
GRID*              17358               0-1.398749948E+002.8701248628E-01+
*       1.4429094591E+00               0
GRID*              17359               0-1.398749948E+004.1667716148E-01+
*       1.3736014560E+00               0
GRID*              17360               0-1.398749948E+005.3032971185E-01+
*       1.2803296971E+00               0
GRID*              17361               0-1.398749948E+006.2360214783E-01+
*       1.1666776458E+00               0
GRID*              17362               0-1.398749948E+006.9290884136E-01+
*       1.0370122566E+00               0
GRID*              17363               0-1.398749948E+007.3558824177E-01+
*       8.9631758406E-01               0
GRID*              17364               0-1.398749948E+007.4638773560E-01+
*       8.2351279252E-01               0
GRID*              17365               0-1.398749948E+00-7.351281570E-02+
*       1.4963882961E+00               0
GRID*              17366               0-1.398749948E+00-2.177132165E-01+
*       1.4677043093E+00               0
GRID*              17367               0-1.398749948E+005.7975712105E-01+
*       1.2257943975E+00               0
GRID*              17368               0-1.398749948E+004.7579491119E-01+
*       1.3297577955E+00               0
GRID*              17369               0-1.398749948E+003.5354736493E-01+
*       1.4114405561E+00               0
GRID*              17370               0-1.398749948E+007.3512815698E-02+
*       1.4963882961E+00               0
GRID*              17371               0-1.398749948E+002.1771321654E-01+
*       1.4677043093E+00               0
GRID*              17372               0-1.398749948E+007.1770525572E-01+
*       9.6771351341E-01               0
GRID*              17373               0-1.398749948E+006.6144037215E-01+
*       1.1035472288E+00               0
GRID*              17374               0-1.398749948E+00-7.177052557E-01+
*       9.6771351341E-01               0
GRID*              17375               0-1.398749948E+00-6.614403722E-01+
*       1.1035472288E+00               0
GRID*              17376               0-1.398749948E+00-3.535473649E-01+
*       1.4114405561E+00               0
GRID*              17377               0-1.398749948E+00-5.797571210E-01+
*       1.2257943975E+00               0
GRID*              17378               0-1.398749948E+00-4.757949112E-01+
*       1.3297577955E+00               0
GRID*              17379               0-1.398749948E+00-7.463877356E-01+
*       8.2351279252E-01               0
GRID*              17380               0-1.398749948E+007.5000000000E-01+
*       6.0000000000E-01               0
GRID*              17381               0-1.398749948E+007.5000000000E-01+
*       4.5000000000E-01               0
GRID*              17382               0-1.398749948E+007.5000000000E-01+
*       3.0000000000E-01               0
GRID*              17383               0-1.398749948E+007.5000000000E-01+
*       1.5000000000E-01               0
GRID*              17384               0-1.398749948E+007.5000000000E-01+
*       3.7500000000E-01               0
GRID*              17385               0-1.398749948E+007.5000000000E-01+
*       2.2500000000E-01               0
GRID*              17386               0-1.398749948E+007.5000000000E-01+
*       7.5000000000E-02               0
GRID*              17387               0-1.398749948E+007.5000000000E-01+
*       6.7500000000E-01               0
GRID*              17388               0-1.398749948E+007.5000000000E-01+
*       5.2500000000E-01               0
GRID*              17389               0-1.273750007E+00-7.500000000E-01+
*       7.5000000000E-01               0
GRID*              17390               0-1.336249977E+00-7.500000000E-01+
*       7.5000000000E-01               0
GRID*              17391               0-1.211250037E+00-7.500000000E-01+
*       7.5000000000E-01               0
GRID*              17392               0-1.273750007E+007.5000000000E-01+
*       7.5000000000E-01               0
GRID*              17393               0-1.336249977E+007.5000000000E-01+
*       7.5000000000E-01               0
GRID*              17394               0-1.211250037E+007.5000000000E-01+
*       7.5000000000E-01               0
GRID*              17395               0-1.148750067E+00-7.500000000E-01+
*       1.5000000000E-01               0
GRID*              17396               0-1.148750067E+00-7.500000000E-01+
*       3.0000000000E-01               0
GRID*              17397               0-1.148750067E+00-7.500000000E-01+
*       4.5000000000E-01               0
GRID*              17398               0-1.148750067E+00-7.500000000E-01+
*       6.0000000000E-01               0
GRID*              17399               0-1.148750067E+00-7.500000000E-01+
*       7.5000000000E-02               0
GRID*              17400               0-1.148750067E+00-7.500000000E-01+
*       3.7500000000E-01               0
GRID*              17401               0-1.148750067E+00-7.500000000E-01+
*       2.2500000000E-01               0
GRID*              17402               0-1.148750067E+00-7.500000000E-01+
*       5.2500000000E-01               0
GRID*              17403               0-1.148750067E+00-7.500000000E-01+
*       6.7500000000E-01               0
GRID*              17404               0-1.148749948E+002.3889252136E-01+
*       8.2368851875E-01               0
GRID*              17405               0-1.148749948E+002.0655806422E-01+
*       8.9082878736E-01               0
GRID*              17406               0-1.148749948E+001.5587066082E-01+
*       9.4545555863E-01               0
GRID*              17407               0-1.148749948E+009.1334144959E-02+
*       9.8271574265E-01               0
GRID*              17408               0-1.148749948E+001.8682272896E-02+
*       9.9929893135E-01               0
GRID*              17409               0-1.148749948E+00-5.563013672E-02+
*       9.9373127295E-01               0
GRID*              17410               0-1.148749948E+00-1.250000035E-01+
*       9.6650636855E-01               0
GRID*              17411               0-1.148749948E+00-1.832623871E-01+
*       9.2004274286E-01               0
GRID*              17412               0-1.148749948E+00-2.252403347E-01+
*       8.5847014561E-01               0
GRID*              17413               0-1.148749948E+00-2.472047971E-01+
*       7.8726017912E-01               0
GRID*              17414               0-1.148749948E+00-2.472047977E-01+
*       7.1273982467E-01               0
GRID*              17415               0-1.148749948E+00-2.252403364E-01+
*       6.4152985785E-01               0
GRID*              17416               0-1.148749948E+00-1.832623898E-01+
*       5.7995725995E-01               0
GRID*              17417               0-1.148749948E+00-1.249999999E-01+
*       5.3349364226E-01               0
GRID*              17418               0-1.148749948E+00-5.563013904E-02+
*       5.0626872425E-01               0
GRID*              17419               0-1.148749948E+001.8682271044E-02+
*       5.0070106797E-01               0
GRID*              17420               0-1.148749948E+009.1334141864E-02+
*       5.1728425720E-01               0
GRID*              17421               0-1.148749948E+001.5587065784E-01+
*       5.5454444529E-01               0
GRID*              17422               0-1.148749948E+002.0655806422E-01+
*       6.0917121264E-01               0
GRID*              17423               0-1.148749948E+002.3889252136E-01+
*       6.7631148125E-01               0
GRID*              17424               0-1.148749994E+002.4720479743E-01+
*       7.8726017722E-01               0
GRID*              17425               0-1.148749948E+002.2524033553E-01+
*       8.5847014388E-01               0
GRID*              17426               0-1.148749948E+001.8326238845E-01+
*       9.2004274145E-01               0
GRID*              17427               0-1.148749948E+001.2500000515E-01+
*       9.6650636759E-01               0
GRID*              17428               0-1.148749948E+005.5630138591E-02+
*       9.9373127252E-01               0
GRID*              17429               0-1.148749948E+00-1.868227099E-02+
*       9.9929893149E-01               0
GRID*              17430               0-1.148749948E+00-9.133414318E-02+
*       9.8271574335E-01               0
GRID*              17431               0-1.148749948E+00-1.558706593E-01+
*       9.4545555983E-01               0
GRID*              17432               0-1.148749948E+00-2.065580631E-01+
*       8.9082878894E-01               0
GRID*              17433               0-1.148749948E+00-2.388925208E-01+
*       8.2368852058E-01               0
GRID*              17434               0-1.148749948E+00-2.500000000E-01+
*       7.5000000192E-01               0
GRID*              17435               0-1.148749948E+00-2.388925219E-01+
*       6.7631148308E-01               0
GRID*              17436               0-1.148749948E+00-2.065580653E-01+
*       6.0917121422E-01               0
GRID*              17437               0-1.148749948E+00-1.558706593E-01+
*       5.5454444649E-01               0
GRID*              17438               0-1.148749948E+00-9.133414365E-02+
*       5.1728425790E-01               0
GRID*              17439               0-1.148749948E+00-1.868227295E-02+
*       5.0070106811E-01               0
GRID*              17440               0-1.148749948E+005.5630137174E-02+
*       5.0626872382E-01               0
GRID*              17441               0-1.148749948E+001.2499999820E-01+
*       5.3349364130E-01               0
GRID*              17442               0-1.148749948E+001.8326238845E-01+
*       5.7995725855E-01               0
GRID*              17443               0-1.148749948E+002.2524033553E-01+
*       6.4152985612E-01               0
GRID*              17444               0-1.148749994E+002.4720479743E-01+
*       7.1273982278E-01               0
GRID*              17445               0-1.148750067E+006.0000000000E-01+
*       0.0000000000E+00               0
GRID*              17446               0-1.148750067E+004.5000000000E-01+
*       0.0000000000E+00               0
GRID*              17447               0-1.148750067E+003.0000000000E-01+
*       0.0000000000E+00               0
GRID*              17448               0-1.148750067E+001.5000000000E-01+
*       0.0000000000E+00               0
GRID*              17449               0-1.148750067E+000.0000000000E+00+
*       0.0000000000E+00               0
GRID*              17450               0-1.148750067E+00-1.500000000E-01+
*       0.0000000000E+00               0
GRID*              17451               0-1.148750067E+00-3.000000000E-01+
*       0.0000000000E+00               0
GRID*              17452               0-1.148750067E+00-4.500000000E-01+
*       0.0000000000E+00               0
GRID*              17453               0-1.148750067E+00-6.000000000E-01+
*       0.0000000000E+00               0
GRID*              17454               0-1.148750067E+002.2500000000E-01+
*       0.0000000000E+00               0
GRID*              17455               0-1.148750067E+007.5000000000E-02+
*       0.0000000000E+00               0
GRID*              17456               0-1.148750067E+00-2.250000000E-01+
*       0.0000000000E+00               0
GRID*              17457               0-1.148750067E+00-7.500000000E-02+
*       0.0000000000E+00               0
GRID*              17458               0-1.148750067E+00-3.750000000E-01+
*       0.0000000000E+00               0
GRID*              17459               0-1.148750067E+00-6.750000000E-01+
*       0.0000000000E+00               0
GRID*              17460               0-1.148750067E+00-5.250000000E-01+
*       0.0000000000E+00               0
GRID*              17461               0-1.148750067E+003.7500000000E-01+
*       0.0000000000E+00               0
GRID*              17462               0-1.148750067E+006.7500000000E-01+
*       0.0000000000E+00               0
GRID*              17463               0-1.148750067E+005.2500000000E-01+
*       0.0000000000E+00               0
GRID*              17464               0-1.148749948E+00-7.355882418E-01+
*       8.9631758406E-01               0
GRID*              17465               0-1.148749948E+00-6.929088414E-01+
*       1.0370122566E+00               0
GRID*              17466               0-1.148749948E+00-6.236021478E-01+
*       1.1666776458E+00               0
GRID*              17467               0-1.148749948E+00-5.303297119E-01+
*       1.2803296971E+00               0
GRID*              17468               0-1.148749948E+00-4.166771615E-01+
*       1.3736014560E+00               0
GRID*              17469               0-1.148749948E+00-2.870124863E-01+
*       1.4429094591E+00               0
GRID*              17470               0-1.148749948E+00-1.463176823E-01+
*       1.4855885964E+00               0
GRID*              17471               0-1.148749948E+000.0000000000E+00+
*       1.4999990439E+00               0
GRID*              17472               0-1.148749948E+001.4631768231E-01+
*       1.4855885964E+00               0
GRID*              17473               0-1.148749948E+002.8701248628E-01+
*       1.4429094591E+00               0
GRID*              17474               0-1.148749948E+004.1667716148E-01+
*       1.3736014560E+00               0
GRID*              17475               0-1.148749948E+005.3032971185E-01+
*       1.2803296971E+00               0
GRID*              17476               0-1.148749948E+006.2360214783E-01+
*       1.1666776458E+00               0
GRID*              17477               0-1.148749948E+006.9290884136E-01+
*       1.0370122566E+00               0
GRID*              17478               0-1.148749948E+007.3558824177E-01+
*       8.9631758406E-01               0
GRID*              17479               0-1.148749948E+007.1770525572E-01+
*       9.6771351341E-01               0
GRID*              17480               0-1.148749980E+007.4638773560E-01+
*       8.2351279252E-01               0
GRID*              17481               0-1.148749948E+006.6144037215E-01+
*       1.1035472288E+00               0
GRID*              17482               0-1.148749948E+005.7975712105E-01+
*       1.2257943975E+00               0
GRID*              17483               0-1.148749948E+003.5354736493E-01+
*       1.4114405561E+00               0
GRID*              17484               0-1.148749948E+004.7579491119E-01+
*       1.3297577955E+00               0
GRID*              17485               0-1.148749948E+002.1771321654E-01+
*       1.4677043093E+00               0
GRID*              17486               0-1.148749948E+00-7.351281570E-02+
*       1.4963882961E+00               0
GRID*              17487               0-1.148749948E+007.3512815698E-02+
*       1.4963882961E+00               0
GRID*              17488               0-1.148749948E+00-2.177132165E-01+
*       1.4677043093E+00               0
GRID*              17489               0-1.148749948E+00-3.535473649E-01+
*       1.4114405561E+00               0
GRID*              17490               0-1.148749948E+00-4.757949112E-01+
*       1.3297577955E+00               0
GRID*              17491               0-1.148749948E+00-5.797571210E-01+
*       1.2257943975E+00               0
GRID*              17492               0-1.148749948E+00-6.614403722E-01+
*       1.1035472288E+00               0
GRID*              17493               0-1.148749948E+00-7.177052557E-01+
*       9.6771351341E-01               0
GRID*              17494               0-1.148749980E+00-7.463877356E-01+
*       8.2351279252E-01               0
GRID*              17495               0-1.148750067E+007.5000000000E-01+
*       6.0000000000E-01               0
GRID*              17496               0-1.148750067E+007.5000000000E-01+
*       4.5000000000E-01               0
GRID*              17497               0-1.148750067E+007.5000000000E-01+
*       3.0000000000E-01               0
GRID*              17498               0-1.148750067E+007.5000000000E-01+
*       1.5000000000E-01               0
GRID*              17499               0-1.148750067E+007.5000000000E-01+
*       5.2500000000E-01               0
GRID*              17500               0-1.148750067E+007.5000000000E-01+
*       3.7500000000E-01               0
GRID*              17501               0-1.148750067E+007.5000000000E-01+
*       2.2500000000E-01               0
GRID*              17502               0-1.148750067E+007.5000000000E-01+
*       7.5000000000E-02               0
GRID*              17503               0-1.148750067E+007.5000000000E-01+
*       6.7500000000E-01               0
GRID*              17504               01.7468499517E+00-7.500000000E-01+
*       -2.500000000E-01               0
GRID*              17505               01.5949499559E+00-7.500000000E-01+
*       -2.500000000E-01               0
GRID*              17506               01.4430499601E+00-7.500000000E-01+
*       -2.500000000E-01               0
GRID*              17507               01.2911499643E+00-7.500000000E-01+
*       -2.500000000E-01               0
GRID*              17508               01.1392499685E+00-7.500000000E-01+
*       -2.500000000E-01               0
GRID*              17509               09.8734997272E-01-7.500000000E-01+
*       -2.500000000E-01               0
GRID*              17510               08.3544997692E-01-7.500000000E-01+
*       -2.500000000E-01               0
GRID*              17511               06.8354998112E-01-7.500000000E-01+
*       -2.500000000E-01               0
GRID*              17512               05.3164998531E-01-7.500000000E-01+
*       -2.500000000E-01               0
GRID*              17513               03.7974998951E-01-7.500000000E-01+
*       -2.500000000E-01               0
GRID*              17514               02.2784999371E-01-7.500000000E-01+
*       -2.500000000E-01               0
GRID*              17515               07.5949997902E-02-7.500000000E-01+
*       -2.500000000E-01               0
GRID*              17516               0-7.594999790E-02-7.500000000E-01+
*       -2.500000000E-01               0
GRID*              17517               0-2.278499937E-01-7.500000000E-01+
*       -2.500000000E-01               0
GRID*              17518               0-3.797499895E-01-7.500000000E-01+
*       -2.500000000E-01               0
GRID*              17519               0-5.316499853E-01-7.500000000E-01+
*       -2.500000000E-01               0
GRID*              17520               0-6.835499811E-01-7.500000000E-01+
*       -2.500000000E-01               0
GRID*              17521               0-8.354499769E-01-7.500000000E-01+
*       -2.500000000E-01               0
GRID*              17522               0-9.873499727E-01-7.500000000E-01+
*       -2.500000000E-01               0
GRID*              17523               0-1.139249969E+00-7.500000000E-01+
*       -2.500000000E-01               0
GRID*              17524               0-1.291149964E+00-7.500000000E-01+
*       -2.500000000E-01               0
GRID*              17525               0-1.443049960E+00-7.500000000E-01+
*       -2.500000000E-01               0
GRID*              17526               0-1.594949956E+00-7.500000000E-01+
*       -2.500000000E-01               0
GRID*              17527               0-1.746849952E+00-7.500000000E-01+
*       -2.500000000E-01               0
GRID*              17528               0-1.670899954E+00-7.500000000E-01+
*       -2.500000000E-01               0
GRID*              17529               0-1.822799950E+00-7.500000000E-01+
*       -2.500000000E-01               0
GRID*              17530               0-1.518999958E+00-7.500000000E-01+
*       -2.500000000E-01               0
GRID*              17531               0-1.367099962E+00-7.500000000E-01+
*       -2.500000000E-01               0
GRID*              17532               01.2151999664E+00-7.500000000E-01+
*       -2.500000000E-01               0
GRID*              17533               01.0632999706E+00-7.500000000E-01+
*       -2.500000000E-01               0
GRID*              17534               09.1139997482E-01-7.500000000E-01+
*       -2.500000000E-01               0
GRID*              17535               04.5569998741E-01-7.500000000E-01+
*       -2.500000000E-01               0
GRID*              17536               07.5949997902E-01-7.500000000E-01+
*       -2.500000000E-01               0
GRID*              17537               06.0759998322E-01-7.500000000E-01+
*       -2.500000000E-01               0
GRID*              17538               0-1.215199966E+00-7.500000000E-01+
*       -2.500000000E-01               0
GRID*              17539               0-1.063299971E+00-7.500000000E-01+
*       -2.500000000E-01               0
GRID*              17540               0-9.113999748E-01-7.500000000E-01+
*       -2.500000000E-01               0
GRID*              17541               0-7.594999790E-01-7.500000000E-01+
*       -2.500000000E-01               0
GRID*              17542               0-6.075999832E-01-7.500000000E-01+
*       -2.500000000E-01               0
GRID*              17543               0-4.556999874E-01-7.500000000E-01+
*       -2.500000000E-01               0
GRID*              17544               03.0379999161E-01-7.500000000E-01+
*       -2.500000000E-01               0
GRID*              17545               0-3.037999916E-01-7.500000000E-01+
*       -2.500000000E-01               0
GRID*              17546               01.5189999580E-01-7.500000000E-01+
*       -2.500000000E-01               0
GRID*              17547               00.0000000000E+00-7.500000000E-01+
*       -2.500000000E-01               0
GRID*              17548               0-1.518999958E-01-7.500000000E-01+
*       -2.500000000E-01               0
GRID*              17549               01.6708999538E+00-7.500000000E-01+
*       -2.500000000E-01               0
GRID*              17550               01.8227999496E+00-7.500000000E-01+
*       -2.500000000E-01               0
GRID*              17551               01.5189999580E+00-7.500000000E-01+
*       -2.500000000E-01               0
GRID*              17552               01.3670999622E+00-7.500000000E-01+
*       -2.500000000E-01               0
GRID*              17553               09.9558339119E-01-7.500000000E-01+
*       0.0000000000E+00               0
GRID*              17554               08.4241671562E-01-7.500000000E-01+
*       0.0000000000E+00               0
GRID*              17555               06.8925004005E-01-7.500000000E-01+
*       0.0000000000E+00               0
GRID*              17556               05.3608336449E-01-7.500000000E-01+
*       0.0000000000E+00               0
GRID*              17557               03.8291668892E-01-7.500000000E-01+
*       0.0000000000E+00               0
GRID*              17558               02.2975001335E-01-7.500000000E-01+
*       0.0000000000E+00               0
GRID*              17559               07.6583337784E-02-7.500000000E-01+
*       0.0000000000E+00               0
GRID*              17560               0-7.658333778E-02-7.500000000E-01+
*       0.0000000000E+00               0
GRID*              17561               0-2.297500134E-01-7.500000000E-01+
*       0.0000000000E+00               0
GRID*              17562               0-3.829166889E-01-7.500000000E-01+
*       0.0000000000E+00               0
GRID*              17563               0-5.360833645E-01-7.500000000E-01+
*       0.0000000000E+00               0
GRID*              17564               0-6.892500401E-01-7.500000000E-01+
*       0.0000000000E+00               0
GRID*              17565               0-8.424167156E-01-7.500000000E-01+
*       0.0000000000E+00               0
GRID*              17566               0-9.955833912E-01-7.500000000E-01+
*       0.0000000000E+00               0
GRID*              17567               01.0721667290E+00-7.500000000E-01+
*       0.0000000000E+00               0
GRID*              17568               09.1900005341E-01-7.500000000E-01+
*       0.0000000000E+00               0
GRID*              17569               07.6583337784E-01-7.500000000E-01+
*       0.0000000000E+00               0
GRID*              17570               03.0633335114E-01-7.500000000E-01+
*       0.0000000000E+00               0
GRID*              17571               06.1266670227E-01-7.500000000E-01+
*       0.0000000000E+00               0
GRID*              17572               04.5950002670E-01-7.500000000E-01+
*       0.0000000000E+00               0
GRID*              17573               0-1.072166729E+00-7.500000000E-01+
*       0.0000000000E+00               0
GRID*              17574               0-9.190000534E-01-7.500000000E-01+
*       0.0000000000E+00               0
GRID*              17575               0-7.658333778E-01-7.500000000E-01+
*       0.0000000000E+00               0
GRID*              17576               0-6.126667023E-01-7.500000000E-01+
*       0.0000000000E+00               0
GRID*              17577               0-4.595000267E-01-7.500000000E-01+
*       0.0000000000E+00               0
GRID*              17578               0-3.063333511E-01-7.500000000E-01+
*       0.0000000000E+00               0
GRID*              17579               01.5316667557E-01-7.500000000E-01+
*       0.0000000000E+00               0
GRID*              17580               0-1.531666756E-01-7.500000000E-01+
*       0.0000000000E+00               0
GRID*              17581               00.0000000000E+00-7.500000000E-01+
*       0.0000000000E+00               0
GRID*              17582               01.7468499517E+007.5000000000E-01+
*       -2.500000000E-01               0
GRID*              17583               01.5949499559E+007.5000000000E-01+
*       -2.500000000E-01               0
GRID*              17584               01.4430499601E+007.5000000000E-01+
*       -2.500000000E-01               0
GRID*              17585               01.2911499643E+007.5000000000E-01+
*       -2.500000000E-01               0
GRID*              17586               01.1392499685E+007.5000000000E-01+
*       -2.500000000E-01               0
GRID*              17587               09.8734997272E-017.5000000000E-01+
*       -2.500000000E-01               0
GRID*              17588               08.3544997692E-017.5000000000E-01+
*       -2.500000000E-01               0
GRID*              17589               06.8354998112E-017.5000000000E-01+
*       -2.500000000E-01               0
GRID*              17590               05.3164998531E-017.5000000000E-01+
*       -2.500000000E-01               0
GRID*              17591               03.7974998951E-017.5000000000E-01+
*       -2.500000000E-01               0
GRID*              17592               02.2784999371E-017.5000000000E-01+
*       -2.500000000E-01               0
GRID*              17593               07.5949997902E-027.5000000000E-01+
*       -2.500000000E-01               0
GRID*              17594               0-7.594999790E-027.5000000000E-01+
*       -2.500000000E-01               0
GRID*              17595               0-2.278499937E-017.5000000000E-01+
*       -2.500000000E-01               0
GRID*              17596               0-3.797499895E-017.5000000000E-01+
*       -2.500000000E-01               0
GRID*              17597               0-5.316499853E-017.5000000000E-01+
*       -2.500000000E-01               0
GRID*              17598               0-6.835499811E-017.5000000000E-01+
*       -2.500000000E-01               0
GRID*              17599               0-8.354499769E-017.5000000000E-01+
*       -2.500000000E-01               0
GRID*              17600               0-9.873499727E-017.5000000000E-01+
*       -2.500000000E-01               0
GRID*              17601               0-1.139249969E+007.5000000000E-01+
*       -2.500000000E-01               0
GRID*              17602               0-1.291149964E+007.5000000000E-01+
*       -2.500000000E-01               0
GRID*              17603               0-1.443049960E+007.5000000000E-01+
*       -2.500000000E-01               0
GRID*              17604               0-1.594949956E+007.5000000000E-01+
*       -2.500000000E-01               0
GRID*              17605               0-1.746849952E+007.5000000000E-01+
*       -2.500000000E-01               0
GRID*              17606               01.6708999538E+007.5000000000E-01+
*       -2.500000000E-01               0
GRID*              17607               01.8227999496E+007.5000000000E-01+
*       -2.500000000E-01               0
GRID*              17608               01.3670999622E+007.5000000000E-01+
*       -2.500000000E-01               0
GRID*              17609               01.5189999580E+007.5000000000E-01+
*       -2.500000000E-01               0
GRID*              17610               01.0632999706E+007.5000000000E-01+
*       -2.500000000E-01               0
GRID*              17611               01.2151999664E+007.5000000000E-01+
*       -2.500000000E-01               0
GRID*              17612               0-1.518999958E+007.5000000000E-01+
*       -2.500000000E-01               0
GRID*              17613               0-1.822799950E+007.5000000000E-01+
*       -2.500000000E-01               0
GRID*              17614               0-7.594999790E-017.5000000000E-01+
*       -2.500000000E-01               0
GRID*              17615               0-9.113999748E-017.5000000000E-01+
*       -2.500000000E-01               0
GRID*              17616               0-1.063299971E+007.5000000000E-01+
*       -2.500000000E-01               0
GRID*              17617               0-1.215199966E+007.5000000000E-01+
*       -2.500000000E-01               0
GRID*              17618               0-1.367099962E+007.5000000000E-01+
*       -2.500000000E-01               0
GRID*              17619               0-6.075999832E-017.5000000000E-01+
*       -2.500000000E-01               0
GRID*              17620               0-1.518999958E-017.5000000000E-01+
*       -2.500000000E-01               0
GRID*              17621               0-3.037999916E-017.5000000000E-01+
*       -2.500000000E-01               0
GRID*              17622               0-4.556999874E-017.5000000000E-01+
*       -2.500000000E-01               0
GRID*              17623               00.0000000000E+007.5000000000E-01+
*       -2.500000000E-01               0
GRID*              17624               03.0379999161E-017.5000000000E-01+
*       -2.500000000E-01               0
GRID*              17625               01.5189999580E-017.5000000000E-01+
*       -2.500000000E-01               0
GRID*              17626               04.5569998741E-017.5000000000E-01+
*       -2.500000000E-01               0
GRID*              17627               06.0759998322E-017.5000000000E-01+
*       -2.500000000E-01               0
GRID*              17628               07.5949997902E-017.5000000000E-01+
*       -2.500000000E-01               0
GRID*              17629               09.1139997482E-017.5000000000E-01+
*       -2.500000000E-01               0
GRID*              17630               0-1.670899954E+007.5000000000E-01+
*       -2.500000000E-01               0
GRID*              17631               09.9558339119E-017.5000000000E-01+
*       0.0000000000E+00               0
GRID*              17632               08.4241671562E-017.5000000000E-01+
*       0.0000000000E+00               0
GRID*              17633               06.8925004005E-017.5000000000E-01+
*       0.0000000000E+00               0
GRID*              17634               05.3608336449E-017.5000000000E-01+
*       0.0000000000E+00               0
GRID*              17635               03.8291668892E-017.5000000000E-01+
*       0.0000000000E+00               0
GRID*              17636               02.2975001335E-017.5000000000E-01+
*       0.0000000000E+00               0
GRID*              17637               07.6583337784E-027.5000000000E-01+
*       0.0000000000E+00               0
GRID*              17638               0-7.658333778E-027.5000000000E-01+
*       0.0000000000E+00               0
GRID*              17639               0-2.297500134E-017.5000000000E-01+
*       0.0000000000E+00               0
GRID*              17640               0-3.829166889E-017.5000000000E-01+
*       0.0000000000E+00               0
GRID*              17641               0-5.360833645E-017.5000000000E-01+
*       0.0000000000E+00               0
GRID*              17642               0-6.892500401E-017.5000000000E-01+
*       0.0000000000E+00               0
GRID*              17643               0-8.424167156E-017.5000000000E-01+
*       0.0000000000E+00               0
GRID*              17644               0-9.955833912E-017.5000000000E-01+
*       0.0000000000E+00               0
GRID*              17645               0-9.190000534E-017.5000000000E-01+
*       0.0000000000E+00               0
GRID*              17646               0-7.658333778E-017.5000000000E-01+
*       0.0000000000E+00               0
GRID*              17647               0-6.126667023E-017.5000000000E-01+
*       0.0000000000E+00               0
GRID*              17648               0-1.531666756E-017.5000000000E-01+
*       0.0000000000E+00               0
GRID*              17649               0-4.595000267E-017.5000000000E-01+
*       0.0000000000E+00               0
GRID*              17650               0-3.063333511E-017.5000000000E-01+
*       0.0000000000E+00               0
GRID*              17651               00.0000000000E+007.5000000000E-01+
*       0.0000000000E+00               0
GRID*              17652               01.5316667557E-017.5000000000E-01+
*       0.0000000000E+00               0
GRID*              17653               06.1266670227E-017.5000000000E-01+
*       0.0000000000E+00               0
GRID*              17654               03.0633335114E-017.5000000000E-01+
*       0.0000000000E+00               0
GRID*              17655               04.5950002670E-017.5000000000E-01+
*       0.0000000000E+00               0
GRID*              17656               07.6583337784E-017.5000000000E-01+
*       0.0000000000E+00               0
GRID*              17657               09.1900005341E-017.5000000000E-01+
*       0.0000000000E+00               0
GRID*              17658               0-1.072166729E+007.5000000000E-01+
*       0.0000000000E+00               0
GRID*              17659               01.0721667290E+007.5000000000E-01+
*       0.0000000000E+00               0
GRID*              17660               01.1487500668E+00-7.500000000E-01+
*       1.5000000000E-01               0
GRID*              17661               01.1487500668E+00-7.500000000E-01+
*       3.0000000000E-01               0
GRID*              17662               01.1487500668E+00-7.500000000E-01+
*       4.5000000000E-01               0
GRID*              17663               01.1487500668E+00-7.500000000E-01+
*       6.0000000000E-01               0
GRID*              17664               01.1487500668E+00-7.500000000E-01+
*       2.2500000000E-01               0
GRID*              17665               01.1487500668E+00-7.500000000E-01+
*       3.7500000000E-01               0
GRID*              17666               01.1487500668E+00-7.500000000E-01+
*       5.2500000000E-01               0
GRID*              17667               01.1487500668E+00-7.500000000E-01+
*       6.7500000000E-01               0
GRID*              17668               01.1487500668E+00-7.500000000E-01+
*       7.5000000000E-02               0
GRID*              17669               01.1487499475E+002.3889252136E-01+
*       8.2368851875E-01               0
GRID*              17670               01.1487499475E+002.0655806422E-01+
*       8.9082878736E-01               0
GRID*              17671               01.1487499475E+001.5587066082E-01+
*       9.4545555863E-01               0
GRID*              17672               01.1487499475E+009.1334144959E-02+
*       9.8271574265E-01               0
GRID*              17673               01.1487499475E+001.8682272896E-02+
*       9.9929893135E-01               0
GRID*              17674               01.1487499475E+00-5.563013672E-02+
*       9.9373127295E-01               0
GRID*              17675               01.1487499475E+00-1.250000035E-01+
*       9.6650636855E-01               0
GRID*              17676               01.1487499475E+00-1.832623871E-01+
*       9.2004274286E-01               0
GRID*              17677               01.1487499475E+00-2.252403347E-01+
*       8.5847014561E-01               0
GRID*              17678               01.1487499475E+00-2.472047971E-01+
*       7.8726017912E-01               0
GRID*              17679               01.1487499475E+00-2.472047977E-01+
*       7.1273982467E-01               0
GRID*              17680               01.1487499475E+00-2.252403364E-01+
*       6.4152985785E-01               0
GRID*              17681               01.1487499475E+00-1.832623898E-01+
*       5.7995725995E-01               0
GRID*              17682               01.1487499475E+00-1.249999999E-01+
*       5.3349364226E-01               0
GRID*              17683               01.1487499475E+00-5.563013904E-02+
*       5.0626872425E-01               0
GRID*              17684               01.1487499475E+001.8682271044E-02+
*       5.0070106797E-01               0
GRID*              17685               01.1487499475E+009.1334141864E-02+
*       5.1728425720E-01               0
GRID*              17686               01.1487499475E+001.5587065784E-01+
*       5.5454444529E-01               0
GRID*              17687               01.1487499475E+002.0655806422E-01+
*       6.0917121264E-01               0
GRID*              17688               01.1487499475E+002.3889252136E-01+
*       6.7631148125E-01               0
GRID*              17689               01.1487499945E+002.4720479743E-01+
*       7.1273982278E-01               0
GRID*              17690               01.1487499475E+001.8326238845E-01+
*       5.7995725855E-01               0
GRID*              17691               01.1487499475E+002.2524033553E-01+
*       6.4152985612E-01               0
GRID*              17692               01.1487499475E+00-1.868227295E-02+
*       5.0070106811E-01               0
GRID*              17693               01.1487499475E+001.2499999820E-01+
*       5.3349364130E-01               0
GRID*              17694               01.1487499475E+005.5630137174E-02+
*       5.0626872382E-01               0
GRID*              17695               01.1487499475E+00-2.500000000E-01+
*       7.5000000192E-01               0
GRID*              17696               01.1487499475E+00-2.388925219E-01+
*       6.7631148308E-01               0
GRID*              17697               01.1487499475E+00-9.133414365E-02+
*       5.1728425790E-01               0
GRID*              17698               01.1487499475E+00-2.065580653E-01+
*       6.0917121422E-01               0
GRID*              17699               01.1487499475E+00-1.558706593E-01+
*       5.5454444649E-01               0
GRID*              17700               01.1487499945E+002.4720479743E-01+
*       7.8726017722E-01               0
GRID*              17701               01.1487499475E+002.2524033553E-01+
*       8.5847014388E-01               0
GRID*              17702               01.1487499475E+005.5630138591E-02+
*       9.9373127252E-01               0
GRID*              17703               01.1487499475E+001.8326238845E-01+
*       9.2004274145E-01               0
GRID*              17704               01.1487499475E+001.2500000515E-01+
*       9.6650636759E-01               0
GRID*              17705               01.1487499475E+00-2.388925208E-01+
*       8.2368852058E-01               0
GRID*              17706               01.1487499475E+00-2.065580631E-01+
*       8.9082878894E-01               0
GRID*              17707               01.1487499475E+00-1.558706593E-01+
*       9.4545555983E-01               0
GRID*              17708               01.1487499475E+00-9.133414318E-02+
*       9.8271574335E-01               0
GRID*              17709               01.1487499475E+00-1.868227099E-02+
*       9.9929893149E-01               0
GRID*              17710               01.1487500668E+006.0000000000E-01+
*       0.0000000000E+00               0
GRID*              17711               01.1487500668E+004.5000000000E-01+
*       0.0000000000E+00               0
GRID*              17712               01.1487500668E+003.0000000000E-01+
*       0.0000000000E+00               0
GRID*              17713               01.1487500668E+001.5000000000E-01+
*       0.0000000000E+00               0
GRID*              17714               01.1487500668E+000.0000000000E+00+
*       0.0000000000E+00               0
GRID*              17715               01.1487500668E+00-1.500000000E-01+
*       0.0000000000E+00               0
GRID*              17716               01.1487500668E+00-3.000000000E-01+
*       0.0000000000E+00               0
GRID*              17717               01.1487500668E+00-4.500000000E-01+
*       0.0000000000E+00               0
GRID*              17718               01.1487500668E+00-6.000000000E-01+
*       0.0000000000E+00               0
GRID*              17719               01.1487500668E+00-7.500000000E-02+
*       0.0000000000E+00               0
GRID*              17720               01.1487500668E+00-2.250000000E-01+
*       0.0000000000E+00               0
GRID*              17721               01.1487500668E+00-3.750000000E-01+
*       0.0000000000E+00               0
GRID*              17722               01.1487500668E+00-5.250000000E-01+
*       0.0000000000E+00               0
GRID*              17723               01.1487500668E+002.2500000000E-01+
*       0.0000000000E+00               0
GRID*              17724               01.1487500668E+007.5000000000E-02+
*       0.0000000000E+00               0
GRID*              17725               01.1487500668E+003.7500000000E-01+
*       0.0000000000E+00               0
GRID*              17726               01.1487500668E+005.2500000000E-01+
*       0.0000000000E+00               0
GRID*              17727               01.1487500668E+00-6.750000000E-01+
*       0.0000000000E+00               0
GRID*              17728               01.1487500668E+006.7500000000E-01+
*       0.0000000000E+00               0
GRID*              17729               01.1487499475E+00-7.355882418E-01+
*       8.9631758406E-01               0
GRID*              17730               01.1487499475E+00-6.929088414E-01+
*       1.0370122566E+00               0
GRID*              17731               01.1487499475E+00-6.236021478E-01+
*       1.1666776458E+00               0
GRID*              17732               01.1487499475E+00-5.303297119E-01+
*       1.2803296971E+00               0
GRID*              17733               01.1487499475E+00-4.166771615E-01+
*       1.3736014560E+00               0
GRID*              17734               01.1487499475E+00-2.870124863E-01+
*       1.4429094591E+00               0
GRID*              17735               01.1487499475E+00-1.463176823E-01+
*       1.4855885964E+00               0
GRID*              17736               01.1487499475E+000.0000000000E+00+
*       1.4999990439E+00               0
GRID*              17737               01.1487499475E+001.4631768231E-01+
*       1.4855885964E+00               0
GRID*              17738               01.1487499475E+002.8701248628E-01+
*       1.4429094591E+00               0
GRID*              17739               01.1487499475E+004.1667716148E-01+
*       1.3736014560E+00               0
GRID*              17740               01.1487499475E+005.3032971185E-01+
*       1.2803296971E+00               0
GRID*              17741               01.1487499475E+006.2360214783E-01+
*       1.1666776458E+00               0
GRID*              17742               01.1487499475E+006.9290884136E-01+
*       1.0370122566E+00               0
GRID*              17743               01.1487499475E+007.3558824177E-01+
*       8.9631758406E-01               0
GRID*              17744               01.1487499801E+007.4638773560E-01+
*       8.2351279252E-01               0
GRID*              17745               01.1487499475E+00-7.351281570E-02+
*       1.4963882961E+00               0
GRID*              17746               01.1487499475E+00-2.177132165E-01+
*       1.4677043093E+00               0
GRID*              17747               01.1487499475E+005.7975712105E-01+
*       1.2257943975E+00               0
GRID*              17748               01.1487499475E+004.7579491119E-01+
*       1.3297577955E+00               0
GRID*              17749               01.1487499475E+003.5354736493E-01+
*       1.4114405561E+00               0
GRID*              17750               01.1487499475E+007.3512815698E-02+
*       1.4963882961E+00               0
GRID*              17751               01.1487499475E+002.1771321654E-01+
*       1.4677043093E+00               0
GRID*              17752               01.1487499475E+007.1770525572E-01+
*       9.6771351341E-01               0
GRID*              17753               01.1487499475E+006.6144037215E-01+
*       1.1035472288E+00               0
GRID*              17754               01.1487499475E+00-7.177052557E-01+
*       9.6771351341E-01               0
GRID*              17755               01.1487499475E+00-6.614403722E-01+
*       1.1035472288E+00               0
GRID*              17756               01.1487499475E+00-3.535473649E-01+
*       1.4114405561E+00               0
GRID*              17757               01.1487499475E+00-5.797571210E-01+
*       1.2257943975E+00               0
GRID*              17758               01.1487499475E+00-4.757949112E-01+
*       1.3297577955E+00               0
GRID*              17759               01.1487499801E+00-7.463877356E-01+
*       8.2351279252E-01               0
GRID*              17760               01.1487500668E+007.5000000000E-01+
*       6.0000000000E-01               0
GRID*              17761               01.1487500668E+007.5000000000E-01+
*       4.5000000000E-01               0
GRID*              17762               01.1487500668E+007.5000000000E-01+
*       3.0000000000E-01               0
GRID*              17763               01.1487500668E+007.5000000000E-01+
*       1.5000000000E-01               0
GRID*              17764               01.1487500668E+007.5000000000E-01+
*       2.2500000000E-01               0
GRID*              17765               01.1487500668E+007.5000000000E-01+
*       3.7500000000E-01               0
GRID*              17766               01.1487500668E+007.5000000000E-01+
*       5.2500000000E-01               0
GRID*              17767               01.1487500668E+007.5000000000E-01+
*       6.7500000000E-01               0
GRID*              17768               01.1487500668E+007.5000000000E-01+
*       7.5000000000E-02               0
GRID*              17769               01.2737500072E+00-7.500000000E-01+
*       7.5000000000E-01               0
GRID*              17770               01.3362499774E+00-7.500000000E-01+
*       7.5000000000E-01               0
GRID*              17771               01.2112500370E+00-7.500000000E-01+
*       7.5000000000E-01               0
GRID*              17772               01.2737500072E+007.5000000000E-01+
*       7.5000000000E-01               0
GRID*              17773               01.2112500370E+007.5000000000E-01+
*       7.5000000000E-01               0
GRID*              17774               01.3362499774E+007.5000000000E-01+
*       7.5000000000E-01               0
GRID*              17775               01.3987499475E+00-7.500000000E-01+
*       1.5000000000E-01               0
GRID*              17776               01.3987499475E+00-7.500000000E-01+
*       3.0000000000E-01               0
GRID*              17777               01.3987499475E+00-7.500000000E-01+
*       4.5000000000E-01               0
GRID*              17778               01.3987499475E+00-7.500000000E-01+
*       6.0000000000E-01               0
GRID*              17779               01.3987499475E+00-7.500000000E-01+
*       7.5000000000E-02               0
GRID*              17780               01.3987499475E+00-7.500000000E-01+
*       2.2500000000E-01               0
GRID*              17781               01.3987499475E+00-7.500000000E-01+
*       3.7500000000E-01               0
GRID*              17782               01.3987499475E+00-7.500000000E-01+
*       5.2500000000E-01               0
GRID*              17783               01.3987499475E+00-7.500000000E-01+
*       6.7500000000E-01               0
GRID*              17784               01.3987499475E+002.3889252136E-01+
*       8.2368851875E-01               0
GRID*              17785               01.3987499475E+002.0655806422E-01+
*       8.9082878736E-01               0
GRID*              17786               01.3987499475E+001.5587066082E-01+
*       9.4545555863E-01               0
GRID*              17787               01.3987499475E+009.1334144959E-02+
*       9.8271574265E-01               0
GRID*              17788               01.3987499475E+001.8682272896E-02+
*       9.9929893135E-01               0
GRID*              17789               01.3987499475E+00-5.563013672E-02+
*       9.9373127295E-01               0
GRID*              17790               01.3987499475E+00-1.250000035E-01+
*       9.6650636855E-01               0
GRID*              17791               01.3987499475E+00-1.832623871E-01+
*       9.2004274286E-01               0
GRID*              17792               01.3987499475E+00-2.252403347E-01+
*       8.5847014561E-01               0
GRID*              17793               01.3987499475E+00-2.472047971E-01+
*       7.8726017912E-01               0
GRID*              17794               01.3987499475E+00-2.472047977E-01+
*       7.1273982467E-01               0
GRID*              17795               01.3987499475E+00-2.252403364E-01+
*       6.4152985785E-01               0
GRID*              17796               01.3987499475E+00-1.832623898E-01+
*       5.7995725995E-01               0
GRID*              17797               01.3987499475E+00-1.249999999E-01+
*       5.3349364226E-01               0
GRID*              17798               01.3987499475E+00-5.563013904E-02+
*       5.0626872425E-01               0
GRID*              17799               01.3987499475E+001.8682271044E-02+
*       5.0070106797E-01               0
GRID*              17800               01.3987499475E+009.1334141864E-02+
*       5.1728425720E-01               0
GRID*              17801               01.3987499475E+001.5587065784E-01+
*       5.5454444529E-01               0
GRID*              17802               01.3987499475E+002.0655806422E-01+
*       6.0917121264E-01               0
GRID*              17803               01.3987499475E+002.3889252136E-01+
*       6.7631148125E-01               0
GRID*              17804               01.3987499475E+002.4720479743E-01+
*       7.1273982278E-01               0
GRID*              17805               01.3987499475E+002.4720479743E-01+
*       7.8726017722E-01               0
GRID*              17806               01.3987499475E+002.2524033553E-01+
*       8.5847014388E-01               0
GRID*              17807               01.3987499475E+001.8326238845E-01+
*       9.2004274145E-01               0
GRID*              17808               01.3987499475E+001.2500000515E-01+
*       9.6650636759E-01               0
GRID*              17809               01.3987499475E+005.5630138591E-02+
*       9.9373127252E-01               0
GRID*              17810               01.3987499475E+00-1.868227099E-02+
*       9.9929893149E-01               0
GRID*              17811               01.3987499475E+00-9.133414318E-02+
*       9.8271574335E-01               0
GRID*              17812               01.3987499475E+00-1.558706593E-01+
*       9.4545555983E-01               0
GRID*              17813               01.3987499475E+00-2.065580631E-01+
*       8.9082878894E-01               0
GRID*              17814               01.3987499475E+00-2.388925208E-01+
*       8.2368852058E-01               0
GRID*              17815               01.3987499475E+00-2.500000000E-01+
*       7.5000000192E-01               0
GRID*              17816               01.3987499475E+00-2.388925219E-01+
*       6.7631148308E-01               0
GRID*              17817               01.3987499475E+00-2.065580653E-01+
*       6.0917121422E-01               0
GRID*              17818               01.3987499475E+00-1.558706593E-01+
*       5.5454444649E-01               0
GRID*              17819               01.3987499475E+00-9.133414365E-02+
*       5.1728425790E-01               0
GRID*              17820               01.3987499475E+00-1.868227295E-02+
*       5.0070106811E-01               0
GRID*              17821               01.3987499475E+005.5630137174E-02+
*       5.0626872382E-01               0
GRID*              17822               01.3987499475E+001.2499999820E-01+
*       5.3349364130E-01               0
GRID*              17823               01.3987499475E+001.8326238845E-01+
*       5.7995725855E-01               0
GRID*              17824               01.3987499475E+002.2524033553E-01+
*       6.4152985612E-01               0
GRID*              17825               01.3987499475E+006.0000000000E-01+
*       0.0000000000E+00               0
GRID*              17826               01.3987499475E+004.5000000000E-01+
*       0.0000000000E+00               0
GRID*              17827               01.3987499475E+003.0000000000E-01+
*       0.0000000000E+00               0
GRID*              17828               01.3987499475E+001.5000000000E-01+
*       0.0000000000E+00               0
GRID*              17829               01.3987499475E+000.0000000000E+00+
*       0.0000000000E+00               0
GRID*              17830               01.3987499475E+00-1.500000000E-01+
*       0.0000000000E+00               0
GRID*              17831               01.3987499475E+00-3.000000000E-01+
*       0.0000000000E+00               0
GRID*              17832               01.3987499475E+00-4.500000000E-01+
*       0.0000000000E+00               0
GRID*              17833               01.3987499475E+00-6.000000000E-01+
*       0.0000000000E+00               0
GRID*              17834               01.3987499475E+002.2500000000E-01+
*       0.0000000000E+00               0
GRID*              17835               01.3987499475E+007.5000000000E-02+
*       0.0000000000E+00               0
GRID*              17836               01.3987499475E+00-2.250000000E-01+
*       0.0000000000E+00               0
GRID*              17837               01.3987499475E+00-7.500000000E-02+
*       0.0000000000E+00               0
GRID*              17838               01.3987499475E+00-3.750000000E-01+
*       0.0000000000E+00               0
GRID*              17839               01.3987499475E+00-6.750000000E-01+
*       0.0000000000E+00               0
GRID*              17840               01.3987499475E+00-5.250000000E-01+
*       0.0000000000E+00               0
GRID*              17841               01.3987499475E+003.7500000000E-01+
*       0.0000000000E+00               0
GRID*              17842               01.3987499475E+006.7500000000E-01+
*       0.0000000000E+00               0
GRID*              17843               01.3987499475E+005.2500000000E-01+
*       0.0000000000E+00               0
GRID*              17844               01.3987499475E+00-7.355882418E-01+
*       8.9631758406E-01               0
GRID*              17845               01.3987499475E+00-6.929088414E-01+
*       1.0370122566E+00               0
GRID*              17846               01.3987499475E+00-6.236021478E-01+
*       1.1666776458E+00               0
GRID*              17847               01.3987499475E+00-5.303297119E-01+
*       1.2803296971E+00               0
GRID*              17848               01.3987499475E+00-4.166771615E-01+
*       1.3736014560E+00               0
GRID*              17849               01.3987499475E+00-2.870124863E-01+
*       1.4429094591E+00               0
GRID*              17850               01.3987499475E+00-1.463176823E-01+
*       1.4855885964E+00               0
GRID*              17851               01.3987499475E+000.0000000000E+00+
*       1.4999990439E+00               0
GRID*              17852               01.3987499475E+001.4631768231E-01+
*       1.4855885964E+00               0
GRID*              17853               01.3987499475E+002.8701248628E-01+
*       1.4429094591E+00               0
GRID*              17854               01.3987499475E+004.1667716148E-01+
*       1.3736014560E+00               0
GRID*              17855               01.3987499475E+005.3032971185E-01+
*       1.2803296971E+00               0
GRID*              17856               01.3987499475E+006.2360214783E-01+
*       1.1666776458E+00               0
GRID*              17857               01.3987499475E+006.9290884136E-01+
*       1.0370122566E+00               0
GRID*              17858               01.3987499475E+007.3558824177E-01+
*       8.9631758406E-01               0
GRID*              17859               01.3987499475E+00-7.463877356E-01+
*       8.2351279252E-01               0
GRID*              17860               01.3987499475E+00-6.614403722E-01+
*       1.1035472288E+00               0
GRID*              17861               01.3987499475E+00-7.177052557E-01+
*       9.6771351341E-01               0
GRID*              17862               01.3987499475E+00-5.797571210E-01+
*       1.2257943975E+00               0
GRID*              17863               01.3987499475E+00-4.757949112E-01+
*       1.3297577955E+00               0
GRID*              17864               01.3987499475E+00-2.177132165E-01+
*       1.4677043093E+00               0
GRID*              17865               01.3987499475E+00-3.535473649E-01+
*       1.4114405561E+00               0
GRID*              17866               01.3987499475E+00-7.351281570E-02+
*       1.4963882961E+00               0
GRID*              17867               01.3987499475E+002.1771321654E-01+
*       1.4677043093E+00               0
GRID*              17868               01.3987499475E+007.3512815698E-02+
*       1.4963882961E+00               0
GRID*              17869               01.3987499475E+003.5354736493E-01+
*       1.4114405561E+00               0
GRID*              17870               01.3987499475E+004.7579491119E-01+
*       1.3297577955E+00               0
GRID*              17871               01.3987499475E+005.7975712105E-01+
*       1.2257943975E+00               0
GRID*              17872               01.3987499475E+006.6144037215E-01+
*       1.1035472288E+00               0
GRID*              17873               01.3987499475E+007.1770525572E-01+
*       9.6771351341E-01               0
GRID*              17874               01.3987499475E+007.4638773560E-01+
*       8.2351279252E-01               0
GRID*              17875               01.3987499475E+007.5000000000E-01+
*       6.0000000000E-01               0
GRID*              17876               01.3987499475E+007.5000000000E-01+
*       4.5000000000E-01               0
GRID*              17877               01.3987499475E+007.5000000000E-01+
*       3.0000000000E-01               0
GRID*              17878               01.3987499475E+007.5000000000E-01+
*       1.5000000000E-01               0
GRID*              17879               01.3987499475E+007.5000000000E-01+
*       7.5000000000E-02               0
GRID*              17880               01.3987499475E+007.5000000000E-01+
*       2.2500000000E-01               0
GRID*              17881               01.3987499475E+007.5000000000E-01+
*       3.7500000000E-01               0
GRID*              17882               01.3987499475E+007.5000000000E-01+
*       5.2500000000E-01               0
GRID*              17883               01.3987499475E+007.5000000000E-01+
*       6.7500000000E-01               0
GRID*              17884               01.7320832809E+00-7.500000000E-01+
*       0.0000000000E+00               0
GRID*              17885               01.5654166142E+00-7.500000000E-01+
*       0.0000000000E+00               0
GRID*              17886               01.8154166142E+00-7.500000000E-01+
*       0.0000000000E+00               0
GRID*              17887               01.6487499475E+00-7.500000000E-01+
*       0.0000000000E+00               0
GRID*              17888               01.4820832809E+00-7.500000000E-01+
*       0.0000000000E+00               0
GRID*              17889               01.5753062809E+00-3.988532382E-01+
*       0.0000000000E+00               0
GRID*              17890               01.5298831849E+00-4.613260934E-01+
*       0.0000000000E+00               0
GRID*              17891               01.5298676129E+00-5.386260409E-01+
*       0.0000000000E+00               0
GRID*              17892               01.5752654688E+00-6.011170906E-01+
*       0.0000000000E+00               0
GRID*              17893               01.6486996280E+00-6.249999899E-01+
*       0.0000000000E+00               0
GRID*              17894               01.7222103018E+00-6.011364148E-01+
*       0.0000000000E+00               0
GRID*              17895               01.7676294468E+00-5.386331470E-01+
*       0.0000000000E+00               0
GRID*              17896               01.7676450388E+00-4.614148415E-01+
*       0.0000000000E+00               0
GRID*              17897               01.7222510207E+00-3.988931729E-01+
*       0.0000000000E+00               0
GRID*              17898               01.6101535849E+00-3.811082773E-01+
*       0.0000000000E+00               0
GRID*              17899               01.5476378125E+00-4.265075181E-01+
*       0.0000000000E+00               0
GRID*              17900               01.5237499501E+00-4.999747734E-01+
*       0.0000000000E+00               0
GRID*              17901               01.5476081751E+00-5.734517051E-01+
*       0.0000000000E+00               0
GRID*              17902               01.6101056704E+00-6.188761242E-01+
*       0.0000000000E+00               0
GRID*              17903               01.6868837681E+00-6.174325121E-01+
*       0.0000000000E+00               0
GRID*              17904               01.7498592716E+00-5.734965988E-01+
*       0.0000000000E+00               0
GRID*              17905               01.7737499450E+00-5.000251934E-01+
*       0.0000000000E+00               0
GRID*              17906               01.7498888500E+00-4.265442297E-01+
*       0.0000000000E+00               0
GRID*              17907               01.6874079937E+00-3.811283095E-01+
*       0.0000000000E+00               0
GRID*              17908               01.5753062804E+006.0114674131E-01+
*       0.0000000000E+00               0
GRID*              17909               01.5298831733E+005.3867390092E-01+
*       0.0000000000E+00               0
GRID*              17910               01.5298676244E+004.6137395344E-01+
*       0.0000000000E+00               0
GRID*              17911               01.5752654695E+003.9888288895E-01+
*       0.0000000000E+00               0
GRID*              17912               01.6486996280E+003.7500001014E-01+
*       0.0000000000E+00               0
GRID*              17913               01.7222103018E+003.9886358519E-01+
*       0.0000000000E+00               0
GRID*              17914               01.7676294508E+004.6136686525E-01+
*       0.0000000000E+00               0
GRID*              17915               01.7676450348E+005.3858517074E-01+
*       0.0000000000E+00               0
GRID*              17916               01.7222510207E+006.0110682708E-01+
*       0.0000000000E+00               0
GRID*              17917               01.6109736942E+006.1634617785E-01+
*       0.0000000000E+00               0
GRID*              17918               01.5476377991E+005.7349247885E-01+
*       0.0000000000E+00               0
GRID*              17919               01.5237499501E+005.0002521888E-01+
*       0.0000000000E+00               0
GRID*              17920               01.5476081885E+004.2654829179E-01+
*       0.0000000000E+00               0
GRID*              17921               01.6101056654E+003.8112384758E-01+
*       0.0000000000E+00               0
GRID*              17922               01.6873600358E+003.8111271798E-01+
*       0.0000000000E+00               0
GRID*              17923               01.7498592131E+004.2650344758E-01+
*       0.0000000000E+00               0
GRID*              17924               01.7737499450E+004.9997482009E-01+
*       0.0000000000E+00               0
GRID*              17925               01.7498889087E+005.7345581690E-01+
*       0.0000000000E+00               0
GRID*              17926               01.6874079937E+006.1887169051E-01+
*       0.0000000000E+00               0
GRID*              17927               01.7320832809E+007.5000000000E-01+
*       0.0000000000E+00               0
GRID*              17928               01.5654166142E+007.5000000000E-01+
*       0.0000000000E+00               0
GRID*              17929               01.8154166142E+007.5000000000E-01+
*       0.0000000000E+00               0
GRID*              17930               01.6487499475E+007.5000000000E-01+
*       0.0000000000E+00               0
GRID*              17931               01.4820832809E+007.5000000000E-01+
*       0.0000000000E+00               0
GRID*              17932               01.8987499475E+00-7.500000000E-01+
*       -1.250000000E-01               0
GRID*              17933               01.8987499475E+00-7.500000000E-01+
*       -6.250000000E-02               0
GRID*              17934               01.8987499475E+00-7.500000000E-01+
*       -1.875000000E-01               0
GRID*              17935               01.8987499475E+00-6.000000000E-01+
*       -2.500000000E-01               0
GRID*              17936               01.8987499475E+00-4.500000000E-01+
*       -2.500000000E-01               0
GRID*              17937               01.8987499475E+00-3.000000000E-01+
*       -2.500000000E-01               0
GRID*              17938               01.8987499475E+00-1.500000000E-01+
*       -2.500000000E-01               0
GRID*              17939               01.8987499475E+000.0000000000E+00+
*       -2.500000000E-01               0
GRID*              17940               01.8987499475E+001.5000000000E-01+
*       -2.500000000E-01               0
GRID*              17941               01.8987499475E+003.0000000000E-01+
*       -2.500000000E-01               0
GRID*              17942               01.8987499475E+004.5000000000E-01+
*       -2.500000000E-01               0
GRID*              17943               01.8987499475E+006.0000000000E-01+
*       -2.500000000E-01               0
GRID*              17944               01.8987499475E+00-3.750000000E-01+
*       -2.500000000E-01               0
GRID*              17945               01.8987499475E+003.7500000000E-01+
*       -2.500000000E-01               0
GRID*              17946               01.8987499475E+002.2500000000E-01+
*       -2.500000000E-01               0
GRID*              17947               01.8987499475E+007.5000000000E-02+
*       -2.500000000E-01               0
GRID*              17948               01.8987499475E+00-2.250000000E-01+
*       -2.500000000E-01               0
GRID*              17949               01.8987499475E+00-7.500000000E-02+
*       -2.500000000E-01               0
GRID*              17950               01.8987499475E+006.7500000000E-01+
*       -2.500000000E-01               0
GRID*              17951               01.8987499475E+00-6.750000000E-01+
*       -2.500000000E-01               0
GRID*              17952               01.8987499475E+00-5.250000000E-01+
*       -2.500000000E-01               0
GRID*              17953               01.8987499475E+005.2500000000E-01+
*       -2.500000000E-01               0
GRID*              17954               01.8987499475E+006.0000000000E-01+
*       0.0000000000E+00               0
GRID*              17955               01.8987499475E+004.5000000000E-01+
*       0.0000000000E+00               0
GRID*              17956               01.8987499475E+003.0000000000E-01+
*       0.0000000000E+00               0
GRID*              17957               01.8987499475E+001.5000000000E-01+
*       0.0000000000E+00               0
GRID*              17958               01.8987499475E+000.0000000000E+00+
*       0.0000000000E+00               0
GRID*              17959               01.8987499475E+00-1.500000000E-01+
*       0.0000000000E+00               0
GRID*              17960               01.8987499475E+00-3.000000000E-01+
*       0.0000000000E+00               0
GRID*              17961               01.8987499475E+00-4.500000000E-01+
*       0.0000000000E+00               0
GRID*              17962               01.8987499475E+00-6.000000000E-01+
*       0.0000000000E+00               0
GRID*              17963               01.8987499475E+00-6.750000000E-01+
*       0.0000000000E+00               0
GRID*              17964               01.8987499475E+00-5.250000000E-01+
*       0.0000000000E+00               0
GRID*              17965               01.8987499475E+003.7500000000E-01+
*       0.0000000000E+00               0
GRID*              17966               01.8987499475E+007.5000000000E-02+
*       0.0000000000E+00               0
GRID*              17967               01.8987499475E+00-7.500000000E-02+
*       0.0000000000E+00               0
GRID*              17968               01.8987499475E+00-2.250000000E-01+
*       0.0000000000E+00               0
GRID*              17969               01.8987499475E+00-3.750000000E-01+
*       0.0000000000E+00               0
GRID*              17970               01.8987499475E+002.2500000000E-01+
*       0.0000000000E+00               0
GRID*              17971               01.8987499475E+006.7500000000E-01+
*       0.0000000000E+00               0
GRID*              17972               01.8987499475E+005.2500000000E-01+
*       0.0000000000E+00               0
GRID*              17973               01.8987499475E+007.5000000000E-01+
*       -1.250000000E-01               0
GRID*              17974               01.8987499475E+007.5000000000E-01+
*       -6.250000000E-02               0
GRID*              17975               01.8987499475E+007.5000000000E-01+
*       -1.875000000E-01               0
GRID*              17976               01.2320833604E+002.5000000000E-01+
*       7.5000000000E-01               0
GRID*              17977               01.3154166540E+002.5000000000E-01+
*       7.5000000000E-01               0
GRID*              17978               01.3570833007E+002.5000000000E-01+
*       7.5000000000E-01               0
GRID*              17979               01.2737500072E+002.5000000000E-01+
*       7.5000000000E-01               0
GRID*              17980               01.1904167136E+002.5000000000E-01+
*       7.5000000000E-01               0
GRID*              17981               0-1.232083360E+002.5000000000E-01+
*       7.5000000000E-01               0
GRID*              17982               0-1.315416654E+002.5000000000E-01+
*       7.5000000000E-01               0
GRID*              17983               0-1.357083301E+002.5000000000E-01+
*       7.5000000000E-01               0
GRID*              17984               0-1.273750007E+002.5000000000E-01+
*       7.5000000000E-01               0
GRID*              17985               0-1.190416714E+002.5000000000E-01+
*       7.5000000000E-01               0
GRID*              17986               0-1.648749948E+006.2500000000E-01+
*       -8.333333333E-02               0
GRID*              17987               0-1.648749948E+006.2500000000E-01+
*       -1.666666667E-01               0
GRID*              17988               0-1.648749948E+006.2500000000E-01+
*       -2.083333333E-01               0
GRID*              17989               0-1.648749948E+006.2500000000E-01+
*       -1.250000000E-01               0
GRID*              17990               0-1.648749948E+006.2500000000E-01+
*       -4.166666667E-02               0
GRID*              17991               0-1.648749948E+00-3.750000000E-01+
*       -8.333333333E-02               0
GRID*              17992               0-1.648749948E+00-3.750000000E-01+
*       -1.666666667E-01               0
GRID*              17993               0-1.648749948E+00-3.750000000E-01+
*       -2.083333333E-01               0
GRID*              17994               0-1.648749948E+00-3.750000000E-01+
*       -1.250000000E-01               0
GRID*              17995               0-1.648749948E+00-3.750000000E-01+
*       -4.166666667E-02               0
GRID*              17996               01.6487499475E+006.2500000000E-01+
*       -8.333333333E-02               0
GRID*              17997               01.6487499475E+006.2500000000E-01+
*       -1.666666667E-01               0
GRID*              17998               01.6487499475E+006.2500000000E-01+
*       -2.083333333E-01               0
GRID*              17999               01.6487499475E+006.2500000000E-01+
*       -1.250000000E-01               0
GRID*              18000               01.6487499475E+006.2500000000E-01+
*       -4.166666667E-02               0
GRID*              18001               01.6487499475E+00-3.750000000E-01+
*       -8.333333333E-02               0
GRID*              18002               01.6487499475E+00-3.750000000E-01+
*       -1.666666667E-01               0
GRID*              18003               01.6487499475E+00-3.750000000E-01+
*       -2.083333333E-01               0
GRID*              18004               01.6487499475E+00-3.750000000E-01+
*       -1.250000000E-01               0
GRID*              18005               01.6487499475E+00-3.750000000E-01+
*       -4.166666667E-02               0
GRID*              18006               0-1.722193637E+00-3.988531884E-01+
*       -2.500000000E-01               0
GRID*              18007               0-1.767616759E+00-4.613260069E-01+
*       -2.500000000E-01               0
GRID*              18008               0-1.767632372E+00-5.386259568E-01+
*       -2.500000000E-01               0
GRID*              18009               0-1.722234599E+00-6.011170519E-01+
*       -2.500000000E-01               0
GRID*              18010               0-1.648800449E+00-6.249999898E-01+
*       -2.500000000E-01               0
GRID*              18011               0-1.575289753E+00-6.011364706E-01+
*       -2.500000000E-01               0
GRID*              18012               0-1.529870588E+00-5.386332000E-01+
*       -2.500000000E-01               0
GRID*              18013               0-1.529854953E+00-4.614149453E-01+
*       -2.500000000E-01               0
GRID*              18014               0-1.575248891E+00-3.988932195E-01+
*       -2.500000000E-01               0
GRID*              18015               0-1.687346314E+00-3.811082648E-01+
*       -2.500000000E-01               0
GRID*              18016               0-1.610091908E+00-3.811283370E-01+
*       -2.500000000E-01               0
GRID*              18017               0-1.547611051E+00-4.265442799E-01+
*       -2.500000000E-01               0
GRID*              18018               0-1.523749950E+00-5.000252748E-01+
*       -2.500000000E-01               0
GRID*              18019               0-1.547640802E+00-5.734966370E-01+
*       -2.500000000E-01               0
GRID*              18020               0-1.611092565E+00-6.159777820E-01+
*       -2.500000000E-01               0
GRID*              18021               0-1.687394405E+00-6.188761044E-01+
*       -2.500000000E-01               0
GRID*              18022               0-1.749891910E+00-5.734516816E-01+
*       -2.500000000E-01               0
GRID*              18023               0-1.773749945E+00-4.999746850E-01+
*       -2.500000000E-01               0
GRID*              18024               0-1.749862171E+00-4.265074020E-01+
*       -2.500000000E-01               0
GRID*              18025               0-1.722193640E+006.0114680952E-01+
*       -2.500000000E-01               0
GRID*              18026               0-1.767616755E+005.3867398921E-01+
*       -2.500000000E-01               0
GRID*              18027               0-1.767632376E+004.6137403939E-01+
*       -2.500000000E-01               0
GRID*              18028               0-1.722234596E+003.9888294600E-01+
*       -2.500000000E-01               0
GRID*              18029               0-1.648800449E+003.7500001021E-01+
*       -2.500000000E-01               0
GRID*              18030               0-1.575289757E+003.9886352507E-01+
*       -2.500000000E-01               0
GRID*              18031               0-1.529870597E+004.6136679597E-01+
*       -2.500000000E-01               0
GRID*              18032               0-1.529854943E+005.3858505071E-01+
*       -2.500000000E-01               0
GRID*              18033               0-1.575248888E+006.0110677618E-01+
*       -2.500000000E-01               0
GRID*              18034               0-1.686877683E+006.1743714935E-01+
*       -2.500000000E-01               0
GRID*              18035               0-1.610091898E+006.1887168604E-01+
*       -2.500000000E-01               0
GRID*              18036               0-1.547611058E+005.7345570793E-01+
*       -2.500000000E-01               0
GRID*              18037               0-1.523749950E+004.9997471987E-01+
*       -2.500000000E-01               0
GRID*              18038               0-1.547640795E+004.2650335086E-01+
*       -2.500000000E-01               0
GRID*              18039               0-1.610140039E+003.8111268928E-01+
*       -2.500000000E-01               0
GRID*              18040               0-1.687394407E+003.8112389122E-01+
*       -2.500000000E-01               0
GRID*              18041               0-1.749891902E+004.2654832280E-01+
*       -2.500000000E-01               0
GRID*              18042               0-1.773749945E+005.0002531248E-01+
*       -2.500000000E-01               0
GRID*              18043               0-1.749862179E+005.7349260251E-01+
*       -2.500000000E-01               0
GRID*              18044               01.5753062809E+00-3.988532382E-01+
*       -2.500000000E-01               0
GRID*              18045               01.5298831849E+00-4.613260934E-01+
*       -2.500000000E-01               0
GRID*              18046               01.5298676129E+00-5.386260409E-01+
*       -2.500000000E-01               0
GRID*              18047               01.5752654688E+00-6.011170906E-01+
*       -2.500000000E-01               0
GRID*              18048               01.6486996280E+00-6.249999899E-01+
*       -2.500000000E-01               0
GRID*              18049               01.7222103018E+00-6.011364148E-01+
*       -2.500000000E-01               0
GRID*              18050               01.7676294468E+00-5.386331470E-01+
*       -2.500000000E-01               0
GRID*              18051               01.7676450388E+00-4.614148415E-01+
*       -2.500000000E-01               0
GRID*              18052               01.7222510207E+00-3.988931729E-01+
*       -2.500000000E-01               0
GRID*              18053               01.7498888500E+00-4.265442297E-01+
*       -2.500000000E-01               0
GRID*              18054               01.5476378125E+00-4.265075181E-01+
*       -2.500000000E-01               0
GRID*              18055               01.6101535849E+00-3.811082773E-01+
*       -2.500000000E-01               0
GRID*              18056               01.6874079937E+00-3.811283095E-01+
*       -2.500000000E-01               0
GRID*              18057               01.6101056704E+00-6.188761242E-01+
*       -2.500000000E-01               0
GRID*              18058               01.7498592716E+00-5.734965988E-01+
*       -2.500000000E-01               0
GRID*              18059               01.5237499501E+00-4.999747734E-01+
*       -2.500000000E-01               0
GRID*              18060               01.5476081751E+00-5.734517051E-01+
*       -2.500000000E-01               0
GRID*              18061               01.7737499450E+00-5.000251934E-01+
*       -2.500000000E-01               0
GRID*              18062               01.6873600358E+00-6.188872820E-01+
*       -2.500000000E-01               0
GRID*              18063               01.7222510207E+006.0110682708E-01+
*       -2.500000000E-01               0
GRID*              18064               01.7676450348E+005.3858517074E-01+
*       -2.500000000E-01               0
GRID*              18065               01.7676294508E+004.6136686525E-01+
*       -2.500000000E-01               0
GRID*              18066               01.7222103018E+003.9886358519E-01+
*       -2.500000000E-01               0
GRID*              18067               01.6486996280E+003.7500001014E-01+
*       -2.500000000E-01               0
GRID*              18068               01.5752654695E+003.9888288895E-01+
*       -2.500000000E-01               0
GRID*              18069               01.5298676244E+004.6137395344E-01+
*       -2.500000000E-01               0
GRID*              18070               01.5298831733E+005.3867390092E-01+
*       -2.500000000E-01               0
GRID*              18071               01.5753062804E+006.0114674131E-01+
*       -2.500000000E-01               0
GRID*              18072               01.5476081885E+004.2654829179E-01+
*       -2.500000000E-01               0
GRID*              18073               01.6101056654E+003.8112384758E-01+
*       -2.500000000E-01               0
GRID*              18074               01.7498592131E+004.2650344758E-01+
*       -2.500000000E-01               0
GRID*              18075               01.6873600358E+003.8111271798E-01+
*       -2.500000000E-01               0
GRID*              18076               01.6874079937E+006.1887169051E-01+
*       -2.500000000E-01               0
GRID*              18077               01.7498889087E+005.7345581690E-01+
*       -2.500000000E-01               0
GRID*              18078               01.5476377991E+005.7349247885E-01+
*       -2.500000000E-01               0
GRID*              18079               01.5237499501E+005.0002521888E-01+
*       -2.500000000E-01               0
GRID*              18080               01.7737499450E+004.9997482009E-01+
*       -2.500000000E-01               0
GRID*              18081               01.6115594829E+006.1452795163E-01+
*       -2.500000000E-01               0
GRID*              18082               0-1.898749948E+00-7.500000000E-01+
*       0.0000000000E+00               0
GRID*              18083               0-1.898749948E+00-7.500000000E-01+
*       -2.500000000E-01               0
GRID*              18084               0-1.898749948E+007.5000000000E-01+
*       -2.500000000E-01               0
GRID*              18085               0-1.898749948E+007.5000000000E-01+
*       0.0000000000E+00               0
GRID*              18086               0-1.398749948E+00-7.500000000E-01+
*       0.0000000000E+00               0
GRID*              18087               0-1.648749948E+00-3.750000000E-01+
*       0.0000000000E+00               0
GRID*              18088               0-1.648749948E+006.2500000000E-01+
*       0.0000000000E+00               0
GRID*              18089               0-1.398749948E+007.5000000000E-01+
*       0.0000000000E+00               0
GRID*              18090               0-1.398749948E+00-7.500000000E-01+
*       7.5000000000E-01               0
GRID*              18091               0-1.398749948E+002.5000000000E-01+
*       7.5000000000E-01               0
GRID*              18092               0-1.398749948E+007.5000000000E-01+
*       7.5000000000E-01               0
GRID*              18093               0-1.148750067E+00-7.500000000E-01+
*       7.5000000000E-01               0
GRID*              18094               0-1.148750067E+007.5000000000E-01+
*       7.5000000000E-01               0
GRID*              18095               0-1.148750067E+00-7.500000000E-01+
*       0.0000000000E+00               0
GRID*              18096               0-1.148750067E+002.5000000000E-01+
*       7.5000000000E-01               0
GRID*              18097               0-1.148750067E+007.5000000000E-01+
*       0.0000000000E+00               0
GRID*              18098               01.8987499475E+00-7.500000000E-01+
*       -2.500000000E-01               0
GRID*              18099               01.1487500668E+00-7.500000000E-01+
*       0.0000000000E+00               0
GRID*              18100               01.8987499475E+007.5000000000E-01+
*       -2.500000000E-01               0
GRID*              18101               01.1487500668E+007.5000000000E-01+
*       0.0000000000E+00               0
GRID*              18102               01.1487500668E+00-7.500000000E-01+
*       7.5000000000E-01               0
GRID*              18103               01.1487500668E+002.5000000000E-01+
*       7.5000000000E-01               0
GRID*              18104               01.1487500668E+007.5000000000E-01+
*       7.5000000000E-01               0
GRID*              18105               01.3987499475E+00-7.500000000E-01+
*       7.5000000000E-01               0
GRID*              18106               01.3987499475E+007.5000000000E-01+
*       7.5000000000E-01               0
GRID*              18107               01.3987499475E+00-7.500000000E-01+
*       0.0000000000E+00               0
GRID*              18108               01.3987499475E+002.5000000000E-01+
*       7.5000000000E-01               0
GRID*              18109               01.3987499475E+007.5000000000E-01+
*       0.0000000000E+00               0
GRID*              18110               01.8987499475E+00-7.500000000E-01+
*       0.0000000000E+00               0
GRID*              18111               01.6487499475E+00-3.750000000E-01+
*       0.0000000000E+00               0
GRID*              18112               01.6487499475E+006.2500000000E-01+
*       0.0000000000E+00               0
GRID*              18113               01.8987499475E+007.5000000000E-01+
*       0.0000000000E+00               0
GRID*              18114               0-1.648749948E+006.2500000000E-01+
*       -2.500000000E-01               0
GRID*              18115               0-1.648749948E+00-3.750000000E-01+
*       -2.500000000E-01               0
GRID*              18116               01.6487499475E+006.2500000000E-01+
*       -2.500000000E-01               0
GRID*              18117               01.6487499475E+00-3.750000000E-01+
*       -2.500000000E-01               0
GRID*              18118               01.6487500000E+00-5.000000000E-01+
*       -1.250000000E-01               0
GRID*              18119               0-1.648750000E+005.0000000000E-01+
*       -1.250000000E-01               0
GRID*              18120               0-1.648750000E+00-5.000000000E-01+
*       -1.250000000E-01               0
GRID*              18121               01.2737500000E+000.0000000000E+00+
*       7.5000000000E-01               0
GRID*              18122               0-1.273750000E+000.0000000000E+00+
*       7.5000000000E-01               0
GRID*              18123               01.6487500000E+005.0000000000E-01+
*       -1.250000000E-01               0
$*
$* ELEMENT CARDS
$*
$*  Mesh Collector: RBE3 Collector(1)
$*  Mesh: connection_recipe_1_mesh
RBE3       10766           18119  1234561.000000     123   11660   11661+
+          11662   11663   11664   11665   11666   11667   11668   11669+
+          11670   11671   11672   11673   11674   11675   11676   11677+
+          11678   11679   11680   11681   11682   11683   11684   11685+
+          11686   11687   11688   11689   11690   11691   11692   11693+
+          11694   11695   11696   11697   11698   11699   11700   11701+
+          11702   11703   11704   11705   11706   11707   11708   11709+
+          11710   11711   11712   11713   11714   11715   11716   11717+
+          11718   11719   11720   11721   11722   11723   11724   11725+
+          11726   11727   11728   11729   11730   11731   11732   11733+
+          11734   11735   11736   11737   11738   11739   11740   11741+
+          11742   11743   11744   11745   11746   11747   11748   11749+
+          11750   11751   11752   11753   11754   17256   17257   17258+
+          17259   17260   17261   17262   17263   17264   17265   17266+
+          17267   17268   17269   17270   17271   17272   17273   17274+
+          17986   17987   17988   17989   17990   18025   18026   18027+
+          18028   18029   18030   18031   18032   18033   18034   18035+
+          18036   18037   18038   18039   18040   18041   18042   18043+
+          18088   18114
$*  Mesh Collector: RBE3 Collector(2)
$*  Mesh: connection_recipe_2_mesh
RBE3       10767           18120  1234561.000000     123   11565   11566+
+          11567   11568   11569   11570   11571   11572   11573   11574+
+          11575   11576   11577   11578   11579   11580   11581   11582+
+          11583   11584   11585   11586   11587   11588   11589   11590+
+          11591   11592   11593   11594   11595   11596   11597   11598+
+          11599   11600   11601   11602   11603   11604   11605   11606+
+          11607   11608   11609   11610   11611   11612   11613   11614+
+          11615   11616   11617   11618   11619   11620   11621   11622+
+          11623   11624   11625   11626   11627   11628   11629   11630+
+          11631   11632   11633   11634   11635   11636   11637   11638+
+          11639   11640   11641   11642   11643   11644   11645   11646+
+          11647   11648   11649   11650   11651   11652   11653   11654+
+          11655   11656   11657   11658   11659   17237   17238   17239+
+          17240   17241   17242   17243   17244   17245   17246   17247+
+          17248   17249   17250   17251   17252   17253   17254   17255+
+          17991   17992   17993   17994   17995   18006   18007   18008+
+          18009   18010   18011   18012   18013   18014   18015   18016+
+          18017   18018   18019   18020   18021   18022   18023   18024+
+          18087   18115
$*  Mesh Collector: RBE3 Collector(3)
$*  Mesh: connection_recipe_3_mesh
RBE3       10769           18122  1234561.000000     123   12401   12402+
+          12403   12404   12405   12406   12407   12408   12409   12410+
+          12411   12412   12413   12414   12415   12416   12417   12418+
+          12419   12420   12421   12422   12423   12424   12425   12426+
+          12427   12428   12429   12430   12431   12432   12433   12434+
+          12435   12436   12437   12438   12439   12440   12441   12442+
+          12443   12444   12445   12446   12447   12448   12449   12450+
+          12451   12452   12453   12454   12455   12456   12457   12458+
+          12459   12460   12461   12462   12463   12464   12465   12466+
+          12467   12468   12469   12470   12471   12472   12473   12474+
+          12475   12476   12477   12478   12479   12480   12481   12482+
+          12483   12484   12485   12486   12487   12488   12489   12490+
+          12491   12492   12493   12494   12495   12496   12497   12498+
+          12499   12500   12501   12502   12503   12504   12505   12506+
+          12507   12508   12509   12510   12511   12512   12513   12514+
+          12515   12516   12517   12518   12519   12520   12521   12522+
+          12523   12524   12525   12526   12527   12528   12529   12530+
+          12531   12532   12533   12534   12535   12536   12537   12538+
+          12539   12540   12541   12542   12543   12544   12545   12546+
+          12547   12548   12549   12550   12551   12552   12553   12554+
+          12555   12556   12557   12558   12559   12560   12561   12562+
+          12563   12564   12565   12566   12567   12568   12569   12570+
+          12571   12572   12573   12574   12575   12576   12577   12578+
+          12579   12580   12581   12582   12583   12584   12585   12586+
+          12587   12588   12589   12590   12591   12592   12593   12594+
+          12595   12596   12597   12598   12599   12600   12601   12602+
+          12603   12604   12605   17289   17290   17291   17292   17293+
+          17294   17295   17296   17297   17298   17299   17300   17301+
+          17302   17303   17304   17305   17306   17307   17308   17309+
+          17310   17311   17312   17313   17314   17315   17316   17317+
+          17318   17319   17320   17321   17322   17323   17324   17325+
+          17326   17327   17328   17329   17404   17405   17406   17407+
+          17408   17409   17410   17411   17412   17413   17414   17415+
+          17416   17417   17418   17419   17420   17421   17422   17423+
+          17424   17425   17426   17427   17428   17429   17430   17431+
+          17432   17433   17434   17435   17436   17437   17438   17439+
+          17440   17441   17442   17443   17444   17981   17982   17983+
+          17984   17985   18091   18096
$*  Mesh Collector: RBE3 Collector(4)
$*  Mesh: connection_recipe_4_mesh
RBE3       10768           18121  1234561.000000     123   16005   16006+
+          16007   16008   16009   16010   16011   16012   16013   16014+
+          16015   16016   16017   16018   16019   16020   16021   16022+
+          16023   16024   16025   16026   16027   16028   16029   16030+
+          16031   16032   16033   16034   16035   16036   16037   16038+
+          16039   16040   16041   16042   16043   16044   16045   16046+
+          16047   16048   16049   16050   16051   16052   16053   16054+
+          16055   16056   16057   16058   16059   16060   16061   16062+
+          16063   16064   16065   16066   16067   16068   16069   16070+
+          16071   16072   16073   16074   16075   16076   16077   16078+
+          16079   16080   16081   16082   16083   16084   16085   16086+
+          16087   16088   16089   16090   16091   16092   16093   16094+
+          16095   16096   16097   16098   16099   16100   16101   16102+
+          16103   16104   16105   16106   16107   16108   16109   16110+
+          16111   16112   16113   16114   16115   16116   16117   16118+
+          16119   16120   16121   16122   16123   16124   16125   16126+
+          16127   16128   16129   16130   16131   16132   16133   16134+
+          16135   16136   16137   16138   16139   16140   16141   16142+
+          16143   16144   16145   16146   16147   16148   16149   16150+
+          16151   16152   16153   16154   16155   16156   16157   16158+
+          16159   16160   16161   16162   16163   16164   16165   16166+
+          16167   16168   16169   16170   16171   16172   16173   16174+
+          16175   16176   16177   16178   16179   16180   16181   16182+
+          16183   16184   16185   16186   16187   16188   16189   16190+
+          16191   16192   16193   16194   16195   16196   16197   16198+
+          16199   16200   16201   16202   16203   16204   16205   16206+
+          16207   16208   16209   17669   17670   17671   17672   17673+
+          17674   17675   17676   17677   17678   17679   17680   17681+
+          17682   17683   17684   17685   17686   17687   17688   17689+
+          17690   17691   17692   17693   17694   17695   17696   17697+
+          17698   17699   17700   17701   17702   17703   17704   17705+
+          17706   17707   17708   17709   17784   17785   17786   17787+
+          17788   17789   17790   17791   17792   17793   17794   17795+
+          17796   17797   17798   17799   17800   17801   17802   17803+
+          17804   17805   17806   17807   17808   17809   17810   17811+
+          17812   17813   17814   17815   17816   17817   17818   17819+
+          17820   17821   17822   17823   17824   17976   17977   17978+
+          17979   17980   18103   18108
$*  Mesh Collector: RBE3 Collector(5)
$*  Mesh: connection_recipe_5_mesh
RBE3       10765           18118  1234561.000000     123   16764   16765+
+          16766   16767   16768   16769   16770   16771   16772   16773+
+          16774   16775   16776   16777   16778   16779   16780   16781+
+          16782   16783   16784   16785   16786   16787   16788   16789+
+          16790   16791   16792   16793   16794   16795   16796   16797+
+          16798   16799   16800   16801   16802   16803   16804   16805+
+          16806   16807   16808   16809   16810   16811   16812   16813+
+          16814   16815   16816   16817   16818   16819   16820   16821+
+          16822   16823   16824   16825   16826   16827   16828   16829+
+          16830   16831   16832   16833   16834   16835   16836   16837+
+          16838   16839   16840   16841   16842   16843   16844   16845+
+          16846   16847   16848   16849   16850   16851   16852   16853+
+          16854   16855   16856   16857   16858   17889   17890   17891+
+          17892   17893   17894   17895   17896   17897   17898   17899+
+          17900   17901   17902   17903   17904   17905   17906   17907+
+          18001   18002   18003   18004   18005   18044   18045   18046+
+          18047   18048   18049   18050   18051   18052   18053   18054+
+          18055   18056   18057   18058   18059   18060   18061   18062+
+          18111   18117
$*  Mesh Collector: RBE3 Collector(6)
$*  Mesh: connection_recipe_6_mesh
RBE3       10770           18123  1234561.000000     123   16859   16860+
+          16861   16862   16863   16864   16865   16866   16867   16868+
+          16869   16870   16871   16872   16873   16874   16875   16876+
+          16877   16878   16879   16880   16881   16882   16883   16884+
+          16885   16886   16887   16888   16889   16890   16891   16892+
+          16893   16894   16895   16896   16897   16898   16899   16900+
+          16901   16902   16903   16904   16905   16906   16907   16908+
+          16909   16910   16911   16912   16913   16914   16915   16916+
+          16917   16918   16919   16920   16921   16922   16923   16924+
+          16925   16926   16927   16928   16929   16930   16931   16932+
+          16933   16934   16935   16936   16937   16938   16939   16940+
+          16941   16942   16943   16944   16945   16946   16947   16948+
+          16949   16950   16951   16952   16953   17908   17909   17910+
+          17911   17912   17913   17914   17915   17916   17917   17918+
+          17919   17920   17921   17922   17923   17924   17925   17926+
+          17996   17997   17998   17999   18000   18063   18064   18065+
+          18066   18067   18068   18069   18070   18071   18072   18073+
+          18074   18075   18076   18077   18078   18079   18080   18081+
+          18112   18116
$*  Mesh Collector: Solid(1)
$*  Mesh: 3d_mesh(1)
CTETRA         1       1   13557       1       2       3    1201    1202+
+           1203    1204    1205    1206
CTETRA         2       1   13556       4       5       3    1207    1208+
+           1209    1210    1211    1212
CTETRA         3       1   14645   14750       2       3   15129    1213+
+           1214    1215    1216    1206
CTETRA         4       1   14646       1       5       3    1217    1218+
+           1219    1220    1205    1212
CTETRA         5       1   14645       2       1       3    1214    1202+
+           1221    1215    1206    1205
CTETRA         6       1   13472       6       1       5    1222    1223+
+           1224    1225    1226    1218
CTETRA         7       1   14713   14716       6       5   15021    1227+
+           1228    1229    1230    1226
CTETRA         8       1   14713       6       7       5    1228    1231+
+           1232    1229    1226    1233
CTETRA         9       1   14647   14713       8       5   15000    1234+
+           1235    1236    1229    1237
CTETRA        10       1   14647       8       4       5    1235    1238+
+           1239    1236    1237    1208
CTETRA        11       1   14716       1       6       5    1240    1223+
+           1227    1230    1218    1226
CTETRA        12       1   15589   15611       9      10   15909    1241+
+           1242    1243    1244    1245
CTETRA        13       1   17997      11   16867      12    1246    1247+
+          16936    1248    1249    1250
CTETRA        14       1   15590       9      13      10    1251    1252+
+           1253    1254    1245    1255
CTETRA        15       1   15600      14   15611      10    1256    1257+
+          15898    1258    1259    1244
CTETRA        16       1   18116   18071   16859      15   18081   16912+
+          16911    1260    1261    1262
CTETRA        17       1   17997   16859      16      17   16910    1263+
+           1264    1265    1266    1267
CTETRA        18       1   16859      18      15      19    1268    1269+
+           1262    1270    1271    1272
CTETRA        19       1   17997   18116   16859      17   17998   16911+
+          16910    1265    1273    1266
CTETRA        20       1   17833      20      21      22    1274    1275+
+           1276    1277    1278    1279
CTETRA        21       1   15599      23   15613      24    1280    1281+
+          15920    1282    1283    1284
CTETRA        22       1   16398       9      14      10    1285    1286+
+           1287    1288    1245    1259
CTETRA        23       1   15600   15613      23      10   15913    1281+
+           1289    1258    1290    1291
CTETRA        24       1   16398      14   16402      10    1287    1292+
+          16731    1288    1259    1293
CTETRA        25       1   16402      24      13      10    1294    1295+
+           1296    1293    1297    1255
CTETRA        26       1   13591      25   13601      26    1298    1299+
+          14402    1300    1301    1302
CTETRA        27       1   13590   13600      27      26   14397    1303+
+           1304    1305    1306    1307
CTETRA        28       1   14723      27      28      26    1308    1309+
+           1310    1311    1307    1312
CTETRA        29       1   17257   11670   11671      29   11719   11683+
+          11720    1313    1314    1315
CTETRA        30       1   13600      28      27      26    1316    1309+
+           1303    1306    1312    1307
CTETRA        31       1   13601      30      28      26    1317    1318+
+           1319    1302    1320    1312
CTETRA        32       1   17987      31      32      33    1321    1322+
+           1323    1324    1325    1326
CTETRA        33       1   17604   13662   13463      32   14623   14622+
+          13954    1327    1328    1329
CTETRA        34       1   14722      30      25      26    1330    1331+
+           1332    1333    1320    1301
CTETRA        35       1   17604   15339   15336      32   15470   15472+
+          15462    1327    1334    1335
CTETRA        36       1   17987   11668   18033      32   11737   11738+
+          11739    1323    1336    1337
CTETRA        37       1   13412   13417      34      35   13791    1338+
+           1339    1340    1341    1342
CTETRA        38       1   18010   11570   11569      36   11652   11603+
+          11651    1343    1344    1345
CTETRA        39       1   11570      37      36      38    1346    1347+
+           1344    1348    1349    1350
CTETRA        40       1   17262   11674   11675      39   11728   11699+
+          11729    1351    1352    1353
CTETRA        41       1   17825      40      41      35    1354    1355+
+           1356    1357    1358    1359
CTETRA        42       1   18071   16859      19      42   16912    1270+
+           1360    1361    1362    1363
CTETRA        43       1   13416      43      44      35    1364    1365+
+           1366    1367    1368    1369
CTETRA        44       1   17826      43      40      35    1370    1371+
+           1372    1373    1368    1358
CTETRA        45       1   17826      44      43      35    1374    1365+
+           1370    1373    1369    1368
CTETRA        46       1   17711      45      43      40    1375    1376+
+           1377    1378    1379    1371
CTETRA        47       1   16386      45      46      40    1380    1381+
+           1382    1383    1379    1384
CTETRA        48       1   17826      43      45      40    1370    1376+
+           1385    1372    1371    1379
CTETRA        49       1   17826      45   16386      40    1385    1380+
+          16673    1372    1379    1383
CTETRA        50       1   17827      47   16307      48    1386    1387+
+          16408    1388    1389    1390
CTETRA        51       1   15552   15558      49      48   15707    1391+
+           1392    1393    1394    1395
CTETRA        52       1   15558      50      49      48    1396    1397+
+           1391    1394    1398    1395
CTETRA        53       1   16370      49      50      48    1399    1397+
+           1400    1401    1395    1398
CTETRA        54       1   17889      51   16773      52    1402    1403+
+          16821    1404    1405    1406
CTETRA        55       1   17889   16773   16774      52   16821   16785+
+          16822    1404    1406    1407
CTETRA        56       1   16307      49   16370      48    1408    1399+
+          16624    1390    1395    1401
CTETRA        57       1   18047   16768   16767      53   16853   16796+
+          16852    1409    1410    1411
CTETRA        58       1   18047   18048   16768      54   18057   16850+
+          16853    1412    1413    1414
CTETRA        59       1   16361      55      56      57    1415    1416+
+           1417    1418    1419    1420
CTETRA        60       1   16312   16361      56      57   16583    1417+
+           1421    1422    1418    1420
CTETRA        61       1   16311      58   16360      57    1423    1424+
+          16572    1425    1426    1427
CTETRA        62       1   16311      59      58      57    1428    1429+
+           1423    1425    1430    1426
CTETRA        63       1   13468      60   13552      61    1431    1432+
+          14263    1433    1434    1435
CTETRA        64       1   13467   13551      62      61   14252    1436+
+           1437    1438    1439    1440
CTETRA        65       1   14651      62      63      61    1441    1442+
+           1443    1444    1440    1445
CTETRA        66       1   13551      63      62      61    1446    1442+
+           1436    1439    1445    1440
CTETRA        67       1   13552      64      63      61    1447    1448+
+           1449    1435    1450    1445
CTETRA        68       1   13552      60      64      61    1432    1451+
+           1447    1435    1434    1450
CTETRA        69       1   14764   14767      65      66   15189    1452+
+           1453    1454    1455    1456
CTETRA        70       1   13583      67   13584      66    1457    1458+
+          14350    1459    1460    1461
CTETRA        71       1   17685   17686   16027      68   17693   16132+
+          16133    1462    1463    1464
CTETRA        72       1   17962   17128      69      70   17137    1465+
+           1466    1467    1468    1469
CTETRA        73       1   17962   17128      70      71   17137    1468+
+           1467    1470    1471    1472
CTETRA        74       1   17932   18110      72      73   17933    1473+
+           1474    1475    1476    1477
CTETRA        75       1   17932   13193   18110      73   13359   13358+
+          17933    1475    1478    1476
CTETRA        76       1   18098   17932      74      75   17934    1479+
+           1480    1481    1482    1483
CTETRA        77       1   16768      76      54      77    1484    1485+
+           1414    1486    1487    1488
CTETRA        78       1   13584      67      78      66    1458    1489+
+           1490    1461    1460    1491
CTETRA        79       1   13595      79      80      66    1492    1493+
+           1494    1495    1496    1497
CTETRA        80       1   14767      67      65      66    1498    1499+
+           1452    1455    1460    1456
CTETRA        81       1   13583      65      67      66    1500    1499+
+           1457    1459    1456    1460
CTETRA        82       1   16774      20   16775      81    1501    1502+
+          16789    1503    1504    1505
CTETRA        83       1   13641   13642   13644      20   14533   14535+
+          14534    1506    1507    1508
CTETRA        84       1   16017      82      83      84    1509    1510+
+           1511    1512    1513    1514
CTETRA        85       1   16038      82      58      85    1515    1516+
+           1517    1518    1519    1520
CTETRA        86       1   16017   16037      83      82   16093    1521+
+           1511    1509    1522    1510
CTETRA        87       1   13538      32      86      87    1523    1524+
+           1525    1526    1527    1528
CTETRA        88       1   15615      58   15623      82    1529    1530+
+          15929    1531    1516    1532
CTETRA        89       1   15601   15604   15602      59   15856   15855+
+          15857    1533    1534    1535
CTETRA        90       1   15618   15621      88      82   15940    1536+
+           1537    1538    1539    1540
CTETRA        91       1   15618      83   15631      82    1541    1542+
+          15976    1538    1510    1543
CTETRA        92       1   16037      83      82      89    1521    1510+
+           1522    1544    1545    1546
CTETRA        93       1   16768   16777   16776      76   16798   16797+
+          16795    1484    1547    1548
CTETRA        94       1   16777      21      90      91    1549    1550+
+           1551    1552    1553    1554
CTETRA        95       1   15541      92   15542      93    1555    1556+
+          15678    1557    1558    1559
CTETRA        96       1   17336      94   11776      95    1560    1561+
+          11874    1562    1563    1564
CTETRA        97       1   13432      96      97      95    1565    1566+
+           1567    1568    1569    1570
CTETRA        98       1   11573      97      95      98    1571    1570+
+           1572    1573    1574    1575
CTETRA        99       1   11573      97   11582      95    1571    1576+
+          11615    1572    1570    1577
CTETRA       100       1   13429   13435      94      95   13813    1578+
+           1579    1580    1581    1563
CTETRA       101       1   12001      99     100     101    1582    1583+
+           1584    1585    1586    1587
CTETRA       102       1   11999   12001     100     101   12262    1584+
+           1588    1589    1585    1587
CTETRA       103       1   11999     102     103     101    1590    1591+
+           1592    1589    1593    1594
CTETRA       104       1   11982   11983     104     101   12265    1595+
+           1596    1597    1598    1599
CTETRA       105       1   13522     105   13534     106    1600    1601+
+          14164    1602    1603    1604
CTETRA       106       1   17446     107     108     106    1605    1606+
+           1607    1608    1609    1610
CTETRA       107       1   13532     108     107     106    1611    1606+
+           1612    1613    1610    1609
CTETRA       108       1   13532   13534     109     106   14160    1614+
+           1615    1613    1604    1616
CTETRA       109       1   17718     110     111     112    1617    1618+
+           1619    1620    1621    1622
CTETRA       110       1   13620     113   13621     111    1623    1624+
+          14464    1625    1626    1627
CTETRA       111       1   13173     114     111     115    1628    1629+
+           1630    1631    1632    1633
CTETRA       112       1   15564     116     117     118    1634    1635+
+           1636    1637    1638    1639
CTETRA       113       1   17830     119     117     118    1640    1641+
+           1642    1643    1644    1639
CTETRA       114       1   17239   11576     120     121   11626    1645+
+           1646    1647    1648    1649
CTETRA       115       1   16876     122     123     124    1650    1651+
+           1652    1653    1654    1655
CTETRA       116       1   16326     117     116     118    1656    1635+
+           1657    1658    1639    1638
CTETRA       117       1   17829   16328     125     118   16413    1659+
+           1660    1661    1662    1663
CTETRA       118       1   11952     126     127     128    1664    1665+
+           1666    1667    1668    1669
CTETRA       119       1   16326     116   16328     118    1657    1670+
+          16417    1658    1638    1662
CTETRA       120       1   13546     129     130     131    1671    1672+
+           1673    1674    1675    1676
CTETRA       121       1   17938     132   13401     133    1677    1678+
+          13720    1679    1680    1681
CTETRA       122       1   17452     134   14696     135    1682    1683+
+          14929    1684    1685    1686
CTETRA       123       1   17448     136     108     131    1687    1688+
+           1689    1690    1691    1692
CTETRA       124       1     130     129     136     131    1672    1693+
+           1694    1676    1675    1691
CTETRA       125       1   17448     137   17449     131    1695    1696+
+          17455    1690    1697    1698
CTETRA       126       1   17891      81   16775     138    1699    1505+
+          16825    1700    1701    1702
CTETRA       127       1   17890   16774     139     140   16823    1703+
+           1704    1705    1706    1707
CTETRA       128       1   17890   16774   16775      81   16823   16789+
+          16824    1708    1503    1505
CTETRA       129       1   17831     141   17832     142    1709    1710+
+          17838    1711    1712    1713
CTETRA       130       1   16217     143     144     145    1714    1715+
+           1716    1717    1718    1719
CTETRA       131       1   17363   11987   11992     146   12232   12231+
+          12230    1720    1721    1722
CTETRA       132       1   17392     147     146     148    1723    1724+
+           1725    1726    1727    1728
CTETRA       133       1   12796   12797     147     146   13134    1729+
+           1730    1731    1732    1724
CTETRA       134       1   17853     144   16220     149    1733    1734+
+          16276    1735    1736    1737
CTETRA       135       1   15609      56     144     150    1738    1739+
+           1740    1741    1742    1743
CTETRA       136       1   17852     143   16217     145    1744    1714+
+          16265    1745    1718    1717
CTETRA       137       1   17846   16214   17847     151   16241   16242+
+          17862    1746    1747    1748
CTETRA       138       1   12015   12016   12029     152   12346   12384+
+          12382    1749    1750    1751
CTETRA       139       1   16353   16354   16357     153   16539   16554+
+          16553    1752    1753    1754
CTETRA       140       1   17363     146   12607     154    1720    1755+
+          12625    1756    1757    1758
CTETRA       141       1   17847   16215   17848     155   16246   16247+
+          17863    1759    1760    1761
CTETRA       142       1   17478   12607   12608     146   12622   12626+
+          12629    1762    1755    1763
CTETRA       143       1   15538     156     157     158    1764    1765+
+           1766    1767    1768    1769
CTETRA       144       1   15577   15579   15581     159   15795   15797+
+          15796    1770    1771    1772
CTETRA       145       1   17392     146     147     160    1725    1724+
+           1723    1773    1774    1775
CTETRA       146       1   17830   17831     119     161   17836    1776+
+           1640    1777    1778    1779
CTETRA       147       1   15577     162     158     159    1780    1781+
+           1782    1770    1783    1784
CTETRA       148       1   17831   16965   16957     141   17024   17030+
+          17001    1709    1785    1786
CTETRA       149       1   17829     125     163     118    1660    1787+
+           1788    1661    1663    1789
CTETRA       150       1   15566      93     164     116    1790    1791+
+           1792    1793    1794    1795
CTETRA       151       1   13654     141     119     142    1796    1797+
+           1798    1799    1712    1800
CTETRA       152       1   13380   13654     141     161   14589    1796+
+           1801    1802    1803    1804
CTETRA       153       1   16961   16965     161     165   17025    1805+
+           1806    1807    1808    1809
CTETRA       154       1   15579   15580   15581     166   15793   15803+
+          15797    1810    1811    1812
CTETRA       155       1   13397     161   13398     165    1813    1814+
+          13697    1815    1809    1816
CTETRA       156       1   14783   14784     167     168   15247    1817+
+           1818    1819    1820    1821
CTETRA       157       1   13523   13526   13531     169   14143   14150+
+          14149    1822    1823    1824
CTETRA       158       1   15551      49     170     171    1825    1826+
+           1827    1828    1829    1830
CTETRA       159       1   16332     172     173     164    1831    1832+
+           1833    1834    1835    1836
CTETRA       160       1   13619     167   13626     168    1837    1838+
+          14479    1839    1821    1840
CTETRA       161       1   13619     174     167     168    1841    1842+
+           1837    1839    1843    1821
CTETRA       162       1   13186     175     176     177    1844    1845+
+           1846    1847    1848    1849
CTETRA       163       1   13185     178     176     179    1850    1851+
+           1852    1853    1854    1855
CTETRA       164       1   17560   14653   14699     176   14799   14938+
+          14937    1856    1857    1858
CTETRA       165       1   17516     176   13186     180    1859    1846+
+          13327    1860    1861    1862
CTETRA       166       1   17553   13173   13174     114   13254   13257+
+          13259    1863    1628    1864
CTETRA       167       1   17560   13186     176     177   13325    1846+
+           1856    1865    1847    1849
CTETRA       168       1   17516   13185   13186     176   13328   13326+
+          13327    1859    1852    1846
CTETRA       169       1   13484   13489   13488     181   14009   14011+
+          14010    1866    1867    1868
CTETRA       170       1   14674   14675   14689     182   14842   14899+
+          14898    1869    1870    1871
CTETRA       171       1   13502   13509   13508     183   14085   14087+
+          14086    1872    1873    1874
CTETRA       172       1   13512     184     185     186    1875    1876+
+           1877    1878    1879    1880
CTETRA       173       1   14686     107     187     185    1881    1882+
+           1883    1884    1885    1886
CTETRA       174       1   13512     187   13513     185    1887    1888+
+          14098    1877    1886    1889
CTETRA       175       1   13382   13394   13383     188   13679   13678+
+          13680    1890    1891    1892
CTETRA       176       1   13381   13382   13653     163   13692   14593+
+          14592    1893    1894    1895
CTETRA       177       1   11663     189     190     191    1896    1897+
+           1898    1899    1900    1901
CTETRA       178       1   17713      47     188     192    1902    1903+
+           1904    1905    1906    1907
CTETRA       179       1   17447     107     185     193    1908    1885+
+           1909    1910    1911    1912
CTETRA       180       1   17583   13414   13663     194   13767   14632+
+          14634    1913    1914    1915
CTETRA       181       1   17447     185     137     195    1909    1916+
+           1917    1918    1919    1920
CTETRA       182       1   13513     107   13520     185    1921    1922+
+          14122    1889    1885    1923
CTETRA       183       1   17355   12615   12613     103   12663   12665+
+          12661    1924    1925    1926
CTETRA       184       1   17559     175   13186     177    1927    1844+
+          13324    1928    1848    1847
CTETRA       185       1   17515   13186   13184     175   13323   13322+
+          13321    1929    1844    1930
CTETRA       186       1   14700     175     196     197    1931    1932+
+           1933    1934    1935    1936
CTETRA       187       1   13474     196     175     197    1937    1932+
+           1938    1939    1936    1935
CTETRA       188       1   17515   13186     175     180   13323    1844+
+           1929    1940    1862    1941
CTETRA       189       1   13474     196   13476     175    1937    1942+
+          13968    1938    1932    1943
CTETRA       190       1   13507     107   13513     187    1944    1921+
+          14100    1945    1882    1888
CTETRA       191       1   17504   17505   13192     198   17549   13354+
+          13353    1946    1947    1948
CTETRA       192       1   13521     107     199     106    1949    1950+
+           1951    1952    1609    1953
CTETRA       193       1   17445   18097     199     200   17462    1954+
+           1955    1956    1957    1958
CTETRA       194       1   17601   15338   15341     199   15480   15479+
+          15478    1959    1960    1961
CTETRA       195       1   11668      32      86     201    1336    1524+
+           1962    1963    1964    1965
CTETRA       196       1   17601   13522     199     202   14119    1966+
+           1959    1967    1968    1969
CTETRA       197       1   17445     199     105     200    1955    1970+
+           1971    1956    1958    1972
CTETRA       198       1   17732     203   15627     204    1973    1974+
+          15967    1975    1976    1977
CTETRA       199       1   18026     205   11661     206    1978    1979+
+          11752    1980    1981    1982
CTETRA       200       1   17847   16214   16215     151   16242   16248+
+          16246    1748    1747    1983
CTETRA       201       1   17731   15628     207     208   15962    1984+
+           1985    1986    1987    1988
CTETRA       202       1   16349   16354      88     203   16531    1989+
+           1990    1991    1992    1993
CTETRA       203       1   13514   13521     107     199   14125    1949+
+           1994    1995    1951    1950
CTETRA       204       1   17987   18033   18114      32   11739   18035+
+          17988    1323    1337    1996
CTETRA       205       1   14673   14677     209     210   14853    1997+
+           1998    1999    2000    2001
CTETRA       206       1   16342   16363   16362     211   16596   16598+
+          16591    2002    2003    2004
CTETRA       207       1   17521     210   13180     212    2005    2006+
+          13295    2007    2008    2009
CTETRA       208       1   13180     210     213     212    2006    2010+
+           2011    2009    2008    2012
CTETRA       209       1   13497     213     209     210    2013    2014+
+           2015    2016    2010    2001
CTETRA       210       1   13497     209   13524     210    2015    2017+
+          14127    2016    2001    2018
CTETRA       211       1   16040      58      59     214    2019    1429+
+           2020    2021    2022    2023
CTETRA       212       1   16342   16343   16363     157   16524   16597+
+          16596    2024    2025    2026
CTETRA       213       1   15603      59   15604      56    2027    1534+
+          15867    2028    2029    2030
CTETRA       214       1   16020      59      58     215    2031    1429+
+           2032    2033    2034    2035
CTETRA       215       1   16389      59   16395     216    2036    2037+
+          16707    2038    2039    2040
CTETRA       216       1   16311   16312      59      57   16573    2041+
+           1428    1425    1422    1430
CTETRA       217       1   16225     217     218     219    2042    2043+
+           2044    2045    2046    2047
CTETRA       218       1   15591   15597   15596     220   15842   15847+
+          15835    2048    2049    2050
CTETRA       219       1   17772   15318   18106     217   15371   15373+
+          17774    2051    2052    2053
CTETRA       220       1   17633     221   14766     222    2054    2055+
+          15184    2056    2057    2058
CTETRA       221       1   16312   16395      59     216   16718    2037+
+           2041    2059    2040    2039
CTETRA       222       1   17588   13604     223     224   14417    2060+
+           2061    2062    2063    2064
CTETRA       223       1   13386     225      43     226    2065    2066+
+           2067    2068    2069    2070
CTETRA       224       1   17711     225   14796     226    2071    2072+
+          15301    2073    2069    2074
CTETRA       225       1   11568     227     228     229    2075    2076+
+           2077    2078    2079    2080
CTETRA       226       1   13630     225     226     230    2081    2069+
+           2082    2083    2084    2085
CTETRA       227       1   12606   12614     102     231   12659    2086+
+           2087    2088    2089    2090
CTETRA       228       1   14777   14778   14797     223   15232   15305+
+          15304    2091    2092    2093
CTETRA       229       1   17508   13173   13160     115   13251   13250+
+          13249    2094    1631    2095
CTETRA       230       1   18099   13173   17553     114   13253   13254+
+          17567    2096    1628    1863
CTETRA       231       1   18099   14787   17718     110   15310   15263+
+          17727    2097    2098    1617
CTETRA       232       1   13160   13173     111     115   13250    1630+
+           2099    2095    1631    1633
CTETRA       233       1   17396     232   12718     233    2100    2101+
+          12888    2102    2103    2104
CTETRA       234       1   13386      43   13415     226    2067    2105+
+          13794    2068    2070    2106
CTETRA       235       1   17710      43   17711     226    2107    1377+
+          17726    2108    2070    2073
CTETRA       236       1   16390   16393   16392     144   16709   16705+
+          16694    2109    2110    2111
CTETRA       237       1   13630     230     226     234    2083    2085+
+           2082    2112    2113    2114
CTETRA       238       1   13516     235   13517     236    2115    2116+
+          14112    2117    2118    2119
CTETRA       239       1   13517     235   13518     237    2116    2120+
+          14108    2121    2122    2123
CTETRA       240       1   14680     235   14688     237    2124    2125+
+          14902    2126    2122    2127
CTETRA       241       1   17406     238   12422     239    2128    2129+
+          12527    2130    2131    2132
CTETRA       242       1   17406   17407   12785     240   17427   13111+
+          13121    2133    2134    2135
CTETRA       243       1   17407   12423   12424     241   12529   12450+
+          12530    2136    2137    2138
CTETRA       244       1   13517     236     235     237    2119    2118+
+           2116    2121    2139    2122
CTETRA       245       1   11977     242     243     232    2140    2141+
+           2142    2143    2144    2145
CTETRA       246       1   12735     243     232     244    2146    2145+
+           2147    2148    2149    2150
CTETRA       247       1   17360   12611     245     246   12642    2151+
+           2152    2153    2154    2155
CTETRA       248       1   17359     247   12612     248    2156    2157+
+          12653    2158    2159    2160
CTETRA       249       1   17218     121     120     249    2161    1649+
+           2162    2163    2164    2165
CTETRA       250       1   17282   11976   11932     243   12180   12183+
+          12182    2166    2167    2168
CTETRA       251       1   12734   12735     243     232   12881    2146+
+           2169    2170    2147    2145
CTETRA       252       1   13425     250     251     252    2171    2172+
+           2173    2174    2175    2176
CTETRA       253       1   17229   15337   18085     253   15467   15466+
+          17230    2177    2178    2179
CTETRA       254       1   13424     250     252     254    2180    2175+
+           2181    2182    2183    2184
CTETRA       255       1   11670     255     256     257    2185    2186+
+           2187    2188    2189    2190
CTETRA       256       1   17855   16221   16222     258   16282   16288+
+          16286    2191    2192    2193
CTETRA       257       1   17856   16222   16223      24   16287   16293+
+          16291    2194    2195    2196
CTETRA       258       1   13429      94   13458     250    1579    2197+
+          13930    2198    2199    2200
CTETRA       259       1   17336     251      94     250    2201    2202+
+           1560    2203    2172    2199
CTETRA       260       1   14670     259     260     261    2204    2205+
+           2206    2207    2208    2209
CTETRA       261       1   17761   15532   15543     262   15641   15638+
+          15636    2210    2211    2212
CTETRA       262       1   13500     260     259     261    2213    2205+
+           2214    2215    2209    2208
CTETRA       263       1   13487   13488     261     263   14016    2216+
+           2217    2218    2219    2220
CTETRA       264       1   17775     264   16322     265    2221    2222+
+          16458    2223    2224    2225
CTETRA       265       1   13488     181     261     263    1868    2226+
+           2216    2219    2227    2220
CTETRA       266       1   13488     260   13500     261    2228    2213+
+          14053    2216    2209    2215
CTETRA       267       1   16343     266   16364     157    2229    2230+
+          16599    2025    2231    2232
CTETRA       268       1   15536   15537     211     166   15794    2233+
+           2234    2235    2236    2237
CTETRA       269       1   14664     260     181     261    2238    2239+
+           2240    2241    2209    2226
CTETRA       270       1   16373   16374     267     268   16619    2242+
+           2243    2244    2245    2246
CTETRA       271       1   16027     268     267      68    2247    2246+
+           2248    1464    2249    2250
CTETRA       272       1   17855   16221     269     270   16282    2251+
+           2252    2253    2254    2255
CTETRA       273       1   17741   15599   15614      24   15877   15916+
+          15915    2256    1282    2257
CTETRA       274       1   15545     271     268      50    2258    2259+
+           2260    2261    2262    2263
CTETRA       275       1   15545     268   15556      50    2260    2264+
+          15688    2261    2263    2265
CTETRA       276       1   15545   15548     268     272   15654    2266+
+           2260    2267    2268    2269
CTETRA       277       1   16026     272     268     273    2270    2269+
+           2271    2272    2273    2274
CTETRA       278       1   16006     268     272     274    2275    2269+
+           2276    2277    2278    2279
CTETRA       279       1   16006     268   16026     272    2275    2271+
+          16048    2276    2269    2270
CTETRA       280       1   18031   18032   11667     275   18037   11740+
+          11743    2280    2281    2282
CTETRA       281       1   11929   11991   11930     276   12222   12224+
+          12048    2283    2284    2285
CTETRA       282       1   11666     277     278     279    2286    2287+
+           2288    2289    2290    2291
CTETRA       283       1   11666   11667     280     277   11706    2292+
+           2293    2286    2294    2295
CTETRA       284       1   14772   14776     281     282   15225    2296+
+           2297    2298    2299    2300
CTETRA       285       1   13604     221   13605     282    2301    2302+
+          14423    2303    2304    2305
CTETRA       286       1   13383   13394   13388     283   13678   13681+
+          13684    2306    2307    2308
CTETRA       287       1   17769     211   13191     284    2309    2310+
+          13350    2311    2312    2313
CTETRA       288       1   13605     221     285     282    2302    2314+
+           2315    2305    2304    2316
CTETRA       289       1   14772     281     285     282    2297    2317+
+           2318    2298    2300    2316
CTETRA       290       1   13605     281   13635     282    2319    2320+
+          14501    2305    2300    2321
CTETRA       291       1   15574   15584     286     287   15813    2322+
+           2323    2324    2325    2326
CTETRA       292       1   17717   15574     286     288   15769    2323+
+           2327    2328    2329    2330
CTETRA       293       1   13187     287     289     290    2331    2332+
+           2333    2334    2335    2336
CTETRA       294       1   15584     286     287     290    2322    2326+
+           2325    2337    2338    2335
CTETRA       295       1   17718     291     286     292    2339    2340+
+           2341    2342    2343    2344
CTETRA       296       1   11575     293     294     295    2345    2346+
+           2347    2348    2349    2350
CTETRA       297       1   17718     296     286     291    2351    2352+
+           2341    2339    2353    2340
CTETRA       298       1   13426   13523     134     135   14130    2354+
+           2355    2356    2357    1685
CTETRA       299       1   14693   14696     134     169   14926    1683+
+           2358    2359    2360    2361
CTETRA       300       1   11759   11774     297     298   11867    2362+
+           2363    2364    2365    2366
CTETRA       301       1   17238   11575     295     297   11624    2348+
+           2367    2368    2369    2370
CTETRA       302       1   13530     134   13531     169    2371    2372+
+          14158    2373    2361    1824
CTETRA       303       1   17955   16958   16981     299   17004   17103+
+          17104    2374    2375    2376
CTETRA       304       1   13433     254      96      95    2377    2378+
+           2379    2380    2381    1569
CTETRA       305       1     250     300     301     252    2382    2383+
+           2384    2175    2385    2386
CTETRA       306       1   13433   13434      96     254   13820    2387+
+           2379    2377    2388    2378
CTETRA       307       1   17890   16775   17891      81   16824   16825+
+          17900    1708    1505    1699
CTETRA       308       1   17451     251     250     252    2389    2172+
+           2390    2391    2176    2175
CTETRA       309       1   17451     250     301     252    2390    2384+
+           2392    2391    2175    2386
CTETRA       310       1   16350   16355   16356     302   16544   16548+
+          16547    2393    2394    2395
CTETRA       311       1   16349   16356   16354     203   16549   16550+
+          16531    1991    2396    1992
CTETRA       312       1   16214     203     151     303    2397    2398+
+           1747    2399    2400    2401
CTETRA       313       1   17846   16213     302     304   16236    2402+
+           2403    2404    2405    2406
CTETRA       314       1   13423   13424     305     254   13928    2407+
+           2408    2409    2182    2410
CTETRA       315       1   13424   13428     250     254   13927    2411+
+           2180    2182    2412    2183
CTETRA       316       1   16018   16019   16038      58   16099   16098+
+          16097    2413    2414    1517
CTETRA       317       1   17675   17676   16037     306   17707   16152+
+          16153    2415    2416    2417
CTETRA       318       1   17675   16037   16038     307   16153   16096+
+          16154    2418    2419    2420
CTETRA       319       1   16018   16019      58     308   16099    2414+
+           2413    2421    2422    2423
CTETRA       320       1   13600     309      27      28    2424    2425+
+           1303    1316    2426    1309
CTETRA       321       1   16311   16312   16396      59   16573   16719+
+          16717    1428    2041    2427
CTETRA       322       1   14723     309   14757      28    2428    2429+
+          15171    1310    2426    2430
CTETRA       323       1   17674   17675   16038      85   17708   16154+
+          16155    2431    2432    1518
CTETRA       324       1   13599     309     310      27    2433    2434+
+           2435    2436    2425    2437
CTETRA       325       1   14723      27     309      28    1308    2425+
+           2428    1310    1309    2426
CTETRA       326       1   14724     310     309      27    2438    2434+
+           2439    2440    2437    2425
CTETRA       327       1   12419     311     126     312    2441    2442+
+           2443    2444    2445    2446
CTETRA       328       1   12767   12770     126     128   13003    2447+
+           2448    2449    2450    1668
CTETRA       329       1   12439     126     311     313    2451    2442+
+           2452    2453    2454    2455
CTETRA       330       1   12770     127     126     128    2456    1665+
+           2447    2450    1669    1668
CTETRA       331       1   16320     314   16321     159    2457    2458+
+          16472    2459    2460    2461
CTETRA       332       1   12418     126     127     315    2462    1665+
+           2463    2464    2465    2466
CTETRA       333       1   12419   12439     126     311   12513    2451+
+           2443    2441    2452    2442
CTETRA       334       1   16360      55   16361      57    2467    1415+
+          16586    1427    1419    1418
CTETRA       335       1   15598   15603      56      55   15865    2028+
+           2468    2469    2470    1416
CTETRA       336       1   13602      30      25     316    2471    1331+
+           2472    2473    2474    2475
CTETRA       337       1   14748     317      25     318    2476    2477+
+           2478    2479    2480    2481
CTETRA       338       1   14721      25   14722      30    2482    1332+
+          15119    2483    1331    1330
CTETRA       339       1   13442   13443   13449     319   13860   13887+
+          13882    2484    2485    2486
CTETRA       340       1   13613     174     316     113    2487    2488+
+           2489    2490    2491    2492
CTETRA       341       1   13612      30     316     174    2493    2474+
+           2494    2495    2496    2488
CTETRA       342       1   14755     320   14782     174    2497    2498+
+          15234    2499    2500    2501
CTETRA       343       1   14755      30     320     174    2502    2503+
+           2497    2499    2496    2500
CTETRA       344       1   14754     174   14783     113    2504    2505+
+          15245    2506    2491    2507
CTETRA       345       1   14724     321   14758     309    2508    2509+
+          15168    2439    2510    2511
CTETRA       346       1   14672     322     213     209    2512    2513+
+           2514    2515    2516    2014
CTETRA       347       1   13498     213     322     209    2517    2513+
+           2518    2519    2014    2516
CTETRA       348       1   17520     213   13181     323    2520    2521+
+          13300    2522    2523    2524
CTETRA       349       1   13181     324     213     325    2525    2526+
+           2521    2527    2528    2529
CTETRA       350       1   18001   16772   18002     326   16840   16841+
+          18004    2530    2531    2532
CTETRA       351       1   16772     327     326     328    2533    2534+
+           2531    2535    2536    2537
CTETRA       352       1   13486     322   13498     213    2538    2518+
+          14056    2539    2513    2517
CTETRA       353       1   13400   13407   13406     326   13736   13735+
+          13734    2540    2541    2542
CTETRA       354       1   14666     322     324     213    2543    2544+
+           2545    2546    2513    2526
CTETRA       355       1   13385      44     225     192    2547    2548+
+           2549    2550    2551    2552
CTETRA       356       1   13398   13406   13407     165   13743   13735+
+          13744    1816    2553    2554
CTETRA       357       1   17333   11948   11936     329   12059   12061+
+          12064    2555    2556    2557
CTETRA       358       1   11936   11948   11947     329   12061   12063+
+          12062    2557    2556    2558
CTETRA       359       1   12704   12770   12766     128   13014   13021+
+          13023    2559    2450    2560
CTETRA       360       1   17332     330   11956     331    2561    2562+
+          12105    2563    2564    2565
CTETRA       361       1   12703   12704   12766     329   12818   13023+
+          13020    2566    2567    2568
CTETRA       362       1   11948     331     329     136    2569    2570+
+           2556    2571    2572    2573
CTETRA       363       1   14793   14796     225     332   15298    2072+
+           2574    2575    2576    2577
CTETRA       364       1   13630     332     225     230    2578    2577+
+           2081    2083    2579    2084
CTETRA       365       1   13637     225   13638     332    2580    2581+
+          14521    2582    2577    2583
CTETRA       366       1   14672     333     322     209    2584    2585+
+           2512    2515    2586    2516
CTETRA       367       1   14673   14678   14677     210   14852   14854+
+          14853    1999    2587    2000
CTETRA       368       1   13523   13524     209     210   14137    2017+
+           2588    2589    2018    2001
CTETRA       369       1   13523     210     209     334    2589    2001+
+           2588    2590    2591    2592
CTETRA       370       1   12025   12027   12026     335   12366   12369+
+          12368    2593    2594    2595
CTETRA       371       1   14672   14676     333     209   14847    2596+
+           2584    2515    2597    2586
CTETRA       372       1   13529     134     336     252    2598    2599+
+           2600    2601    2602    2603
CTETRA       373       1   12408   12409     335     337   12473    2604+
+           2605    2606    2607    2608
CTETRA       374       1   12409     335     337     338    2604    2608+
+           2607    2609    2610    2611
CTETRA       375       1   12013   12014   12027     339   12335   12372+
+          12376    2612    2613    2614
CTETRA       376       1   11969     340     341     342    2615    2616+
+           2617    2618    2619    2620
CTETRA       377       1   11968   11969   11971     341   12162   12171+
+          12169    2621    2617    2622
CTETRA       378       1   17450   14693     134     336   14915    2358+
+           2623    2624    2625    2599
CTETRA       379       1   12722     341     342     301    2626    2620+
+           2627    2628    2629    2630
CTETRA       380       1   13523     134     135     343    2354    1685+
+           2357    2631    2632    2633
CTETRA       381       1   15324     344   15326     345    2634    2635+
+          15406    2636    2637    2638
CTETRA       382       1   17331     330     109     346    2639    2640+
+           2641    2642    2643    2644
CTETRA       383       1   13529     336   13544     252    2600    2645+
+          14205    2601    2603    2646
CTETRA       384       1   17445     346   12780     347    2647    2648+
+          13060    2649    2650    2651
CTETRA       385       1   17710   17711   14797     226   17726   15306+
+          15307    2108    2073    2652
CTETRA       386       1   14778     226     223     348    2653    2654+
+           2092    2655    2656    2657
CTETRA       387       1   17582      18   13410     349    2658    2659+
+          13753    2660    2661    2662
CTETRA       388       1   17958   16964     350     351   17010    2663+
+           2664    2665    2666    2667
CTETRA       389       1   17825      41     352      35    1356    2668+
+           2669    1357    1359    2670
CTETRA       390       1   14793     225     353     354    2574    2671+
+           2672    2673    2674    2675
CTETRA       391       1   13415   13418      41      43   13792    2676+
+           2677    2105    2678    2679
CTETRA       392       1   17217   11759   11783     293   11805   11909+
+          11910    2680    2681    2682
CTETRA       393       1   13385   13386     225      43   13798    2065+
+           2549    2683    2067    2066
CTETRA       394       1   13385      44   13416      43    2547    1366+
+          13783    2683    1365    1364
CTETRA       395       1   14661   14708     355     356   14979    2684+
+           2685    2686    2687    2688
CTETRA       396       1   14661     356     355     184    2686    2688+
+           2685    2689    2690    2691
CTETRA       397       1   17955     357   16981     358    2692    2693+
+          17104    2694    2695    2696
CTETRA       398       1   17914     359   16874     360    2697    2698+
+          16928    2699    2700    2701
CTETRA       399       1   13505     355     356     184    2702    2688+
+           2703    2704    2691    2690
CTETRA       400       1   13505     356   13506     184    2703    2705+
+          14075    2704    2690    2706
CTETRA       401       1   16958   16970     361     362   17061    2707+
+           2708    2709    2710    2711
CTETRA       402       1   17913   16873   16874     359   16926   16898+
+          16927    2712    2713    2698
CTETRA       403       1   16874     359     299     360    2698    2714+
+           2715    2701    2700    2716
CTETRA       404       1   13496   13506     356     363   14078    2705+
+           2717    2718    2719    2720
CTETRA       405       1   12772   12784     364     311   13081    2721+
+           2722    2723    2724    2725
CTETRA       406       1   12420     364     311     365    2726    2725+
+           2727    2728    2729    2730
CTETRA       407       1   17915   16874   16875     360   16929   16902+
+          16930    2731    2701    2732
CTETRA       408       1   13630     332     230     234    2578    2579+
+           2083    2112    2733    2113
CTETRA       409       1   14746     366     317     367    2734    2735+
+           2736    2737    2738    2739
CTETRA       410       1   14642     368     367     369    2740    2741+
+           2742    2743    2744    2745
CTETRA       411       1   17856   16404   16405      24   16747   16752+
+          16750    2194    2746    2747
CTETRA       412       1   17741   16223   16222      24   16294   16293+
+          16290    2256    2196    2195
CTETRA       413       1   17396   17397   12735     244   17400   12882+
+          12883    2748    2749    2148
CTETRA       414       1   13560     367     368     369    2750    2741+
+           2751    2752    2745    2744
CTETRA       415       1   15606   15607     144      23   15879    2753+
+           2754    2755    2756    2757
CTETRA       416       1   14643     370   14744     367    2758    2759+
+          15096    2760    2761    2762
CTETRA       417       1   14746     367     317     369    2737    2739+
+           2736    2763    2745    2764
CTETRA       418       1   14642     367   14746     369    2742    2737+
+          15103    2743    2745    2763
CTETRA       419       1   17854     149   16220     371    2765    1737+
+          16277    2766    2767    2768
CTETRA       420       1   14703   14715     372     373   15014    2769+
+           2770    2771    2772    2773
CTETRA       421       1   17793   16015     374     375   16189    2774+
+           2775    2776    2777    2778
CTETRA       422       1   13490     373     376       7    2779    2780+
+           2781    2782    2783    2784
CTETRA       423       1   15539   15629   15634     266   15993   15992+
+          15994    2785    2786    2787
CTETRA       424       1   13491     372     377     373    2788    2789+
+           2790    2791    2773    2792
CTETRA       425       1   14712     373   14714       7    2793    2794+
+          15016    2795    2783    2796
CTETRA       426       1   14715     377     372     373    2797    2789+
+           2769    2772    2792    2773
CTETRA       427       1   14712     376     373       7    2798    2780+
+           2793    2795    2784    2783
CTETRA       428       1   17334     378     300     379    2799    2800+
+           2801    2802    2803    2804
CTETRA       429       1   17793   16015   16014     374   16189   16083+
+          16192    2775    2774    2805
CTETRA       430       1   12723   12724     378     300   12808    2806+
+           2807    2808    2809    2800
CTETRA       431       1   17790   16018   16017      84   16183   16095+
+          16186    2810    2811    1512
CTETRA       432       1   17334     378   11963     300    2799    2812+
+          12133    2801    2800    2813
CTETRA       433       1   17789   16019   16018     308   16181   16099+
+          16184    2814    2422    2421
CTETRA       434       1   16017   16018      82      84   16095    2815+
+           1509    1512    2811    1513
CTETRA       435       1   17335   11963     342     300   12132    2816+
+           2817    2818    2813    2819
CTETRA       436       1     305     252     300     254    2820    2385+
+           2821    2410    2184    2822
CTETRA       437       1   13563   13574     380     381   14308    2823+
+           2824    2825    2826    2827
CTETRA       438       1   17334     130     300     254    2828    2829+
+           2801    2830    2831    2822
CTETRA       439       1   17449     130     305     300    2832    2833+
+           2834    2835    2829    2821
CTETRA       440       1   13487     324     263     322    2836    2837+
+           2218    2838    2544    2839
CTETRA       441       1   13486     324   13487     322    2840    2836+
+          14019    2538    2544    2838
CTETRA       442       1   17560   13186   13185     176   13325   13326+
+          13317    1856    1846    1852
CTETRA       443       1   14671   14672     333     322   14831    2584+
+           2841    2842    2512    2585
CTETRA       444       1   14665     324   14666     322    2843    2545+
+          14819    2844    2544    2543
CTETRA       445       1   13184     368     175     382    2845    2846+
+           1930    2847    2848    2849
CTETRA       446       1   13593     383     285     221    2850    2851+
+           2852    2853    2854    2314
CTETRA       447       1   14765      80      65     285    2855    2856+
+           2857    2858    2859    2860
CTETRA       448       1   13594      80   13606     285    2861    2862+
+          14418    2863    2859    2864
CTETRA       449       1   13593     383   13594     285    2850    2865+
+          14388    2852    2851    2863
CTETRA       450       1   17559   13184   13186     175   13315   13322+
+          13324    1927    1930    1844
CTETRA       451       1   17445   14687     107     199   14889    2866+
+           2867    1955    2868    1950
CTETRA       452       1   14765      65     383     285    2857    2869+
+           2870    2858    2860    2851
CTETRA       453       1   13507   13514     107     199   14096    1994+
+           1944    2871    1995    1950
CTETRA       454       1   13523     384     169     343    2872    2873+
+           1822    2631    2874    2875
CTETRA       455       1   13527     236   13541     169    2876    2877+
+          14187    2878    2879    2880
CTETRA       456       1   13526   13528     385     333   14144    2881+
+           2882    2883    2884    2885
CTETRA       457       1   14676   14677   14695     169   14848   14923+
+          14922    2886    2887    2888
CTETRA       458       1   14677   14697   14695     169   14932   14930+
+          14923    2887    2889    2888
CTETRA       459       1   17962      70      69     386    1467    1469+
+           1466    2890    2891    2892
CTETRA       460       1   16766     387      20     388    2893    2894+
+           2895    2896    2897    2898
CTETRA       461       1   14692     236     385     169    2899    2900+
+           2901    2902    2879    2903
CTETRA       462       1   18045   18046   16766     388   18059   16854+
+          16857    2904    2905    2896
CTETRA       463       1   16765     389     141     390    2906    2907+
+           2908    2909    2910    2911
CTETRA       464       1   14676   14692     385     169   14906    2901+
+           2912    2886    2902    2903
CTETRA       465       1   13526     385   13527     169    2882    2913+
+          14146    1823    2903    2878
CTETRA       466       1   12716     391   12717     242    2914    2915+
+          12868    2916    2917    2918
CTETRA       467       1   11977     391     242     232    2919    2917+
+           2140    2143    2920    2144
CTETRA       468       1   17595   17596   13571     392   17621   14271+
+          14270    2921    2922    2923
CTETRA       469       1   17596   15349   15348     393   15528   15530+
+          15531    2924    2925    2926
CTETRA       470       1   12718     391     394     232    2927    2928+
+           2929    2101    2920    2930
CTETRA       471       1   11970     391     394     395    2931    2928+
+           2932    2933    2934    2935
CTETRA       472       1   14651      63      62     393    1443    1442+
+           1441    2936    2937    2938
CTETRA       473       1   17449     137     305     131    1696    2939+
+           2834    1698    1697    2940
CTETRA       474       1   17449     305     137     336    2834    2939+
+           1696    2941    2942    2943
CTETRA       475       1   11971     341   11977     391    2622    2944+
+          12195    2945    2946    2919
CTETRA       476       1   13422   13545   13546     130   14226   14222+
+          14227    2947    2948    1673
CTETRA       477       1   13422   13423   13545     305   13817   14228+
+          14226    2949    2408    2950
CTETRA       478       1   11582     396      95     397    2951    2952+
+           1577    2953    2954    2955
CTETRA       479       1   17280   13164     398     399   13199    2956+
+           2957    2958    2959    2960
CTETRA       480       1   17281   11979   11976     232   12201   12203+
+          12181    2961    2962    2963
CTETRA       481       1   17397   12713   12735     244   12884   12880+
+          12882    2749    2964    2148
CTETRA       482       1   13164     232     394     399    2965    2930+
+           2966    2959    2967    2968
CTETRA       483       1   11573      95      94     400    1572    1563+
+           2969    2970    2971    2972
CTETRA       484       1   13450   13451      97     401   13889    2973+
+           2974    2975    2976    2977
CTETRA       485       1   11773      97   11775      96    2978    2979+
+          11864    2980    1566    2981
CTETRA       486       1   13450      97      96     401    2974    1566+
+           2982    2975    2977    2983
CTETRA       487       1   17356   12614   12615     402   12658   12670+
+          12664    2984    2985    2986
CTETRA       488       1   17357   12606   12614     403   12647   12659+
+          12657    2987    2988    2989
CTETRA       489       1   17992     401      97     404    2990    2977+
+           2991    2992    2993    2994
CTETRA       490       1   11772      96   11775     401    2995    2981+
+          11863    2996    2983    2997
CTETRA       491       1   11775      96      97     401    2981    1566+
+           2979    2997    2983    2977
CTETRA       492       1   17991      97     401     405    2998    2977+
+           2999    3000    3001    3002
CTETRA       493       1   17991     405     401     406    3000    3002+
+           2999    3003    3004    3005
CTETRA       494       1   17850      55   16218     407    3006    3007+
+          16261    3008    3009    3010
CTETRA       495       1   17735      55   15598     408    3011    2469+
+          15848    3012    3013    3014
CTETRA       496       1   15603   15605      59      57   15866    3015+
+           2027    3016    3017    1430
CTETRA       497       1   15587   15603      55      57   15864    2470+
+           3018    3019    3016    1419
CTETRA       498       1   17735   15588      55     409   15853    3020+
+           3011    3021    3022    3023
CTETRA       499       1   17850   16361   16348      55   16579   16580+
+          16535    3006    1415    3024
CTETRA       500       1   12405   12425     100      99   12456    3025+
+           3026    3027    3028    1583
CTETRA       501       1   17717   14786   14785     167   15260   15258+
+          15259    3029    3030    3031
CTETRA       502       1   15587   15588     410      55   15852    3032+
+           3033    3018    3020    3034
CTETRA       503       1   16348   16360     410      55   16585    3035+
+           3036    3024    2467    3034
CTETRA       504       1   17361   11995   12010     411   12273   12312+
+          12311    3037    3038    3039
CTETRA       505       1   12009     412   12010     411    3040    3041+
+          12317    3042    3043    3039
CTETRA       506       1   17407   17408   12792     413   17428   13108+
+          13107    3044    3045    3046
CTETRA       507       1   17476   12800   12801     411   13143   13148+
+          13146    3047    3048    3049
CTETRA       508       1   17408     414   12425     415    3050    3051+
+          12532    3052    3053    3054
CTETRA       509       1   17408   12707   12792     416   13112   13113+
+          13108    3055    3056    3057
CTETRA       510       1   12404   12405   12425     100   12457   12456+
+          12455    3058    3026    3025
CTETRA       511       1   13582      65   13594     383    3059    3060+
+          14387    3061    2869    2865
CTETRA       512       1   12721   12728     417     340   12844    3062+
+           3063    3064    3065    3066
CTETRA       513       1   17634   14766   14769     383   15183   15197+
+          15200    3067    3068    3069
CTETRA       514       1   13593     383     221     418    2850    2854+
+           2853    3070    3071    3072
CTETRA       515       1   14765      65   14769     383    2857    3073+
+          15198    2870    2869    3069
CTETRA       516       1   17307   12419   12418     419   12569   12511+
+          12572    3074    3075    3076
CTETRA       517       1   12721   12724   12722     342   12821   12813+
+          12822    3077    3078    2627
CTETRA       518       1   16320   16333     420     421   16479    3079+
+           3080    3081    3082    3083
CTETRA       519       1   15577     162     159     421    1780    1783+
+           1770    3084    3085    3086
CTETRA       520       1   15568     164   15569     421    3087    3088+
+          15752    3089    3090    3091
CTETRA       521       1   16320     420     159     421    3080    3092+
+           2459    3081    3083    3086
CTETRA       522       1   15568   15573     164     421   15764    3093+
+           3087    3089    3094    3090
CTETRA       523       1   17991   17237   18087     406   11621   17246+
+          17995    3003    3095    3096
CTETRA       524       1   17991   11574   17237     406   11619   11622+
+          11621    3003    3097    3095
CTETRA       525       1   17829   16969     422     283   17046    3098+
+           3099    3100    3101    3102
CTETRA       526       1   13388   13393     423     283   13682    3103+
+           3104    2308    3105    3106
CTETRA       527       1   15573     420     164     421    3107    3108+
+           3093    3094    3083    3090
CTETRA       528       1   13596     424   13608      79    3109    3110+
+          14410    3111    3112    3113
CTETRA       529       1   11995     425   12009     411    3114    3115+
+          12316    3038    3116    3042
CTETRA       530       1   16970   16971     361     426   17056    3117+
+           2707    3118    3119    3120
CTETRA       531       1   16959   16960     422     350   17013    3121+
+           3122    3123    3124    3125
CTETRA       532       1   16959   16971   16970     426   17055   17056+
+          17052    3126    3119    3118
CTETRA       533       1   13607     427     428      79    3127    3128+
+           3129    3130    3131    3132
CTETRA       534       1   13595      79   13607      80    1492    3130+
+          14413    1494    1493    3133
CTETRA       535       1   16017   16037   16036      83   16093   16092+
+          16090    1511    1521    3134
CTETRA       536       1   17676   16036   16037     429   16151   16092+
+          16152    3135    3136    3137
CTETRA       537       1   14680   14682     235     186   14862    3138+
+           2124    3139    3140    3141
CTETRA       538       1   16038      82      85     307    1515    1519+
+           1518    2420    3142    3143
CTETRA       539       1   13510     235     430     186    3144    3145+
+           3146    3147    3141    3148
CTETRA       540       1   13503     431   13504     430    3149    3150+
+          14064    3151    3152    3153
CTETRA       541       1   16017   16018   16037      82   16095   16094+
+          16093    1509    2815    1522
CTETRA       542       1   17675   16038      85     307   16154    1518+
+           2432    2418    2420    3143
CTETRA       543       1   16347   16360      58     410   16576    1424+
+           3154    3155    3035    3156
CTETRA       544       1   13510     430   13511     186    3146    3157+
+          14089    3147    3148    3158
CTETRA       545       1   14776   14777     332     282   15226    3159+
+           3160    2299    3161    3162
CTETRA       546       1   14774     432     427     428    3163    3164+
+           3165    3166    3167    3128
CTETRA       547       1   13596   13608   13607      79   14410   14412+
+          14411    3111    3113    3130
CTETRA       548       1   14726   14760   14759     424   15157   15159+
+          15154    3168    3169    3170
CTETRA       549       1   12745   12748   12746     433   12910   12912+
+          12911    3171    3172    3173
CTETRA       550       1   13606      80     428     281    2862    3174+
+           3175    3176    3177    3178
CTETRA       551       1   13606     428   13622     281    3175    3179+
+          14466    3176    3178    3180
CTETRA       552       1   14775   14776     434     281   15223    3181+
+           3182    3183    2296    3184
CTETRA       553       1   13633     281     434     332    3185    3184+
+           3186    3187    3188    3189
CTETRA       554       1   13633     281     332     282    3185    3188+
+           3187    3190    2300    3162
CTETRA       555       1   13622     428     434     281    3179    3191+
+           3192    3180    3178    3184
CTETRA       556       1   14760     435   14761      66    3193    3194+
+          15164    3195    3196    3197
CTETRA       557       1   14775     434     428     281    3182    3191+
+           3198    3183    3184    3178
CTETRA       558       1   15559      45   15561     436    3199    3200+
+          15715    3201    3202    3203
CTETRA       559       1   16369     436      45      48    3204    3202+
+           3205    3206    3207    3208
CTETRA       560       1   15561      46      45      40    3209    1381+
+           3200    3210    1384    1379
CTETRA       561       1   17711   15560   17712      45   15710   15709+
+          17725    1375    3211    3212
CTETRA       562       1   17712      45   15560      48    3212    3211+
+          15709    3213    3208    3214
CTETRA       563       1   17711   15561      45      40   15717    3200+
+           1375    1378    3210    1379
CTETRA       564       1   16385      45     436      46    3215    3202+
+           3216    3217    1381    3218
CTETRA       565       1   16385   16386      45      46   16676    1380+
+           3215    3217    1382    1381
CTETRA       566       1   17825   16386      46      40   16672    1382+
+           3219    1354    1383    1384
CTETRA       567       1   12776     437     438     439    3220    3221+
+           3222    3223    3224    3225
CTETRA       568       1   14721   14747      25     440   15121    3226+
+           2482    3227    3228    3229
CTETRA       569       1   17557   13176     369     441   13268    3230+
+           3231    3232    3233    3234
CTETRA       570       1   11939     442     438     443    3235    3236+
+           3237    3238    3239    3240
CTETRA       571       1   11940     437     438     444    3241    3221+
+           3242    3243    3244    3245
CTETRA       572       1   12775   12777     438     442   13048    3246+
+           3247    3248    3249    3236
CTETRA       573       1   12777     438     442     443    3246    3236+
+           3249    3250    3240    3239
CTETRA       574       1   17556   13177   13176     318   13277   13279+
+          13280    3251    3252    3253
CTETRA       575       1   17193   13439   13444     445   13843   13849+
+          13848    3254    3255    3256
CTETRA       576       1   13443   13444   13451     401   13855   13892+
+          13891    3257    3258    2976
CTETRA       577       1   13615     427     432     428    3259    3164+
+           3260    3261    3128    3167
CTETRA       578       1   17194     445   13444     446    3262    3256+
+          13853    3263    3264    3265
CTETRA       579       1   13607     427   13615     428    3127    3259+
+          14444    3129    3128    3261
CTETRA       580       1   13609     447   13615     427    3266    3267+
+          14449    3268    3269    3259
CTETRA       581       1   16862     448      34     449    3270    3271+
+           3272    3273    3274    3275
CTETRA       582       1   17826     450      35     451    3276    3277+
+           1373    3278    3279    3280
CTETRA       583       1   14758     447     321     427    3281    3282+
+           2509    3283    3269    3284
CTETRA       584       1   13608     321     427     424    3285    3284+
+           3286    3110    3287    3288
CTETRA       585       1   13608     321   13609     427    3285    3289+
+          14425    3286    3284    3268
CTETRA       586       1   16861     452      34     453    3290    3291+
+           3292    3293    3294    3295
CTETRA       587       1   12739     454   12760     455    3296    3297+
+          12995    3298    3299    3300
CTETRA       588       1   17827      34   16975     423    3301    3302+
+          17073    3303    3304    3305
CTETRA       589       1   17827     423   17828      44    3303    3306+
+          17834    3307    3308    3309
CTETRA       590       1   12408     456     339     457    3310    3311+
+           3312    3313    3314    3315
CTETRA       591       1   12617     458     459     460    3316    3317+
+           3318    3319    3320    3321
CTETRA       592       1   12711   12760     461     455   13001    3322+
+           3323    3324    3300    3325
CTETRA       593       1   11933     455   12031     462    3326    3327+
+          12397    3328    3329    3330
CTETRA       594       1   12429     463     335     464    3331    3332+
+           3333    3334    3335    3336
CTETRA       595       1   12745     335   12748     433    3337    3338+
+          12910    3171    3339    3172
CTETRA       596       1   11933     465     455     462    3340    3341+
+           3326    3328    3342    3329
CTETRA       597       1   12014   12015   12026     335   12343   12371+
+          12370    3343    3344    2595
CTETRA       598       1   12404   12405     100     466   12457    3026+
+           3058    3345    3346    3347
CTETRA       599       1   12756     104     103     101    3348    3349+
+           3350    3351    1599    1594
CTETRA       600       1   17672   16041     467     468   16160    3352+
+           3353    3354    3355    3356
CTETRA       601       1   12742   12743      99     104   12928    3357+
+           3358    3359    3360    3361
CTETRA       602       1   11935     454   12030     455    3362    3363+
+          12390    3364    3299    3365
CTETRA       603       1   11935     461     454     455    3366    3367+
+           3362    3364    3325    3299
CTETRA       604       1   11997     100     241     469    3368    3369+
+           3370    3371    3372    3373
CTETRA       605       1   12424     100   12425     414    3374    3025+
+          12454    3375    3376    3051
CTETRA       606       1   17589   13593     221     418   14382    2853+
+           3377    3378    3070    3072
CTETRA       607       1   13606      80     281     285    2862    3177+
+           3176    2864    2859    2317
CTETRA       608       1   17589   15332   15333     221   15444   15443+
+          15445    3377    3379    3380
CTETRA       609       1   17633   15333   15332     221   15441   15443+
+          15437    2054    3380    3379
CTETRA       610       1   14773     223     221     470    3381    3382+
+           3383    3384    3385    3386
CTETRA       611       1   12007   12009     241     471   12308    3387+
+           3388    3389    3390    3391
CTETRA       612       1   17633   14773     221     470   15212    3383+
+           2054    3392    3384    3386
CTETRA       613       1   17293   17294   12405     472   17329   12598+
+          12597    3393    3394    3395
CTETRA       614       1   17335   11963   11960     342   12132   12129+
+          12127    2817    2816    3396
CTETRA       615       1   11970     391   11978     394    2931    3397+
+          12197    2932    2928    3398
CTETRA       616       1   13580   13581     317     369   14337    3399+
+           3400    3401    3402    2764
CTETRA       617       1   15601   15612   15611      14   15903   15902+
+          15897    3403    3404    1257
CTETRA       618       1   17513     369   13176     473    3405    3230+
+          13270    3406    3407    3408
CTETRA       619       1   12729   12730   12733     341   12849   12870+
+          12871    3409    3410    3411
CTETRA       620       1   12721     342     417     378    3077    3412+
+           3063    3413    3414    3415
CTETRA       621       1   17233   13167   13168     474   13225   13224+
+          13223    3416    3417    3418
CTETRA       622       1   17336     251     301     395    2201    3419+
+           3420    3421    3422    3423
CTETRA       623       1   12730   12733     341     395   12870    3411+
+           3410    3424    3425    3426
CTETRA       624       1   13172     369     368     475    3427    2744+
+           3428    3429    3430    3431
CTETRA       625       1   17513   13581   13560     369   14330   14335+
+          14234    3405    3402    2752
CTETRA       626       1   17982   12420   17308     476   12566   12567+
+          12568    3432    3433    3434
CTETRA       627       1   17643   15343   15344     363   15498   15500+
+          15502    3435    3436    3437
CTETRA       628       1   14708   14709     477     356   14983    3438+
+           3439    2687    3440    3441
CTETRA       629       1   17307     312   12419     419    3442    2444+
+          12569    3074    3443    3075
CTETRA       630       1   17599   13507   13496     363   14072   14077+
+          14035    3444    3445    2718
CTETRA       631       1   13495     477   13496     356    3446    3447+
+          14044    3448    3441    2717
CTETRA       632       1   13496     363     477     478    2718    3449+
+           3447    3450    3451    3452
CTETRA       633       1   17643   14709     363     479   14978    3453+
+           3435    3454    3455    3456
CTETRA       634       1   14662   14686   14663     187   14880   14882+
+          14881    3457    1883    3458
CTETRA       635       1   17330     280     480     481    3459    3460+
+           3461    3462    3463    3464
CTETRA       636       1   14768      67     482     483    3465    3466+
+           3467    3468    3469    3470
CTETRA       637       1   11675     280   11676     480    3471    3472+
+          11703    3473    3460    3474
CTETRA       638       1   11675      39     278     484    1353    3475+
+           3476    3477    3478    3479
CTETRA       639       1   14761      78   14762      67    3480    3481+
+          15162    3482    1489    3483
CTETRA       640       1   14767      67   14768     483    1498    3465+
+          15195    3484    3469    3468
CTETRA       641       1   14767      67     483      65    1498    3469+
+           3484    1452    1499    3485
CTETRA       642       1   13397     165     350     485    1815    3486+
+           3487    3488    3489    3490
CTETRA       643       1   16959   16960   16971     422   17013   17053+
+          17055    3122    3121    3491
CTETRA       644       1   16970   16971   16974     361   17056   17062+
+          17064    2707    3117    3492
CTETRA       645       1   13402     422   13408     350    3493    3494+
+          13737    3495    3125    3496
CTETRA       646       1   17957     426   16970     486    3497    3118+
+          17050    3498    3499    3500
CTETRA       647       1   17954     487     488     489    3501    3502+
+           3503    3504    3505    3506
CTETRA       648       1   14667     490     491     263    3507    3508+
+           3509    3510    3511    3512
CTETRA       649       1   13483     491     490     263    3513    3508+
+           3514    3515    3512    3511
CTETRA       650       1   17518   13479   13482     491   13982   14000+
+          13995    3516    3517    3518
CTETRA       651       1   13183     178     492     493    3519    3520+
+           3521    3522    3523    3524
CTETRA       652       1   13479     178     490     491    3525    3526+
+           3527    3517    3528    3508
CTETRA       653       1   13479     490   13483     491    3527    3514+
+          14001    3517    3508    3513
CTETRA       654       1   12415     494   12435     495    3529    3530+
+          12497    3531    3532    3533
CTETRA       655       1   18047      53   16767     496    1409    1411+
+          16852    3534    3535    3536
CTETRA       656       1   16350   16351   16355     302   16529   16543+
+          16544    2393    3537    2394
CTETRA       657       1   17845   16211   16213     304   16237   16238+
+          16235    3538    3539    2405
CTETRA       658       1   16349      88     497     302    1990    3540+
+           3541    3542    3543    3544
CTETRA       659       1   12415     494     495     498    3529    3532+
+           3531    3545    3546    3547
CTETRA       660       1   11946     127     494     499    3548    3549+
+           3550    3551    3552    3553
CTETRA       661       1   12417     127     494     500    3554    3549+
+           3555    3556    3557    3558
CTETRA       662       1   12417   12437     494     127   12505    3559+
+           3555    3554    3560    3549
CTETRA       663       1   16221      23     269     270    3561    3562+
+           2251    2254    3563    2255
CTETRA       664       1   15599      23     501     502    1280    3564+
+           3565    3566    3567    3568
CTETRA       665       1   12437     494     127     503    3559    3549+
+           3560    3569    3570    3571
CTETRA       666       1   13551      63   13571     393    1446    3572+
+          14279    3573    2937    3574
CTETRA       667       1   15599   15607      23     502   15875    2756+
+           1280    3566    3575    3567
CTETRA       668       1   17739   15607     504     505   15881    3576+
+           3577    3578    3579    3580
CTETRA       669       1   16224      13     506     507    3581    3582+
+           3583    3584    3585    3586
CTETRA       670       1   13571      63     508     393    3572    3587+
+           3588    3574    2937    3589
CTETRA       671       1   17596   13550     393     509   14275    3590+
+           2924    3591    3592    3593
CTETRA       672       1   17640   15348   15349     393   15523   15530+
+          15529    3594    2926    2925
CTETRA       673       1   17596   13550   13571     393   14275   14278+
+          14271    2924    3590    3574
CTETRA       674       1   13571     393     508     392    3574    3589+
+           3588    2923    3595    3596
CTETRA       675       1   16214     203   16215     151    2397    3597+
+          16248    1747    2398    1983
CTETRA       676       1   15620     510     302     511    3598    3599+
+           3600    3601    3602    3603
CTETRA       677       1   17846   16356   16355     302   16557   16548+
+          16546    2403    2395    2394
CTETRA       678       1   15619   15633     497     512   15986    3604+
+           3605    3606    3607    3608
CTETRA       679       1   14767     483   14769      65    3484    3609+
+          15203    1452    3485    3073
CTETRA       680       1   14768     483     482     513    3468    3470+
+           3467    3610    3611    3612
CTETRA       681       1   17591   13561   13582     483   14293   14351+
+          14346    3613    3614    3615
CTETRA       682       1   15621   15623   15622     153   15936   15933+
+          15937    3616    3617    3618
CTETRA       683       1   13582     483   13583      65    3615    3619+
+          14353    3059    3485    1500
CTETRA       684       1   17732   15628     203     207   15965    3620+
+           1973    3621    1984    3622
CTETRA       685       1   17846   16213   16214     302   16236   16243+
+          16241    2403    2402    3623
CTETRA       686       1   16019   16020   16039      58   16103   16102+
+          16101    2414    2032    3624
CTETRA       687       1   12724     342     378     514    3078    3414+
+           2806    3625    3626    3627
CTETRA       688       1   13595   13596      79      66   14380    3111+
+           1492    1495    3628    1496
CTETRA       689       1   13597     515     424     435    3629    3630+
+           3631    3632    3633    3634
CTETRA       690       1   17670   16042   16043     516   16163   16116+
+          16164    3635    3636    3637
CTETRA       691       1   14726     424     515     435    3168    3630+
+           3638    3639    3634    3633
CTETRA       692       1   15617   15623   15621      82   15934   15936+
+          15938    3640    1532    1539
CTETRA       693       1   16019      58     517     518    2414    3641+
+           3642    3643    3644    3645
CTETRA       694       1   15622     153     410     519    3618    3646+
+           3647    3648    3649    3650
CTETRA       695       1   14727     435     520      78    3651    3652+
+           3653    3654    3655    3656
CTETRA       696       1   16016      83     521     522    3657    3658+
+           3659    3660    3661    3662
CTETRA       697       1   11961     417     340     342    3663    3066+
+           3664    3665    3412    2619
CTETRA       698       1   14726   14760     424     435   15157    3169+
+           3168    3639    3193    3634
CTETRA       699       1   14727   14761     435      78   15163    3194+
+           3651    3654    3480    3655
CTETRA       700       1   13588   13589     310     523   14357    3666+
+           3667    3668    3669    3670
CTETRA       701       1   17791   16017   16016     522   16185   16091+
+          16188    3671    3672    3660
CTETRA       702       1   11933   11975   11974     465   12187   12186+
+          12184    3340    3673    3674
CTETRA       703       1   11971   11977   11978     391   12195   12198+
+          12196    2945    2919    3397
CTETRA       704       1   17790     308   16018     524    3675    2421+
+          16183    3676    3677    3678
CTETRA       705       1   16035     266     525     526    3679    3680+
+           3681    3682    3683    3684
CTETRA       706       1   13589      27     523     366    3685    3686+
+           3669    3687    3688    3689
CTETRA       707       1   14744     523   14752     366    3690    3691+
+          15144    3692    3689    3693
CTETRA       708       1   14749   14751     523     527   15146    3694+
+           3695    3696    3697    3698
CTETRA       709       1   14752     310      27     523    3699    2437+
+           3700    3691    3670    3686
CTETRA       710       1   14751     310     523     527    3701    3670+
+           3694    3697    3702    3698
CTETRA       711       1   12745     433   12752     458    3171    3703+
+          12945    3704    3705    3706
CTETRA       712       1   16325   16328     116     171   16425    1670+
+           3707    3708    3709    3710
CTETRA       713       1   15567     171     116     118    3711    3710+
+           3712    3713    3714    1638
CTETRA       714       1   12020     433   12021     458    3715    3716+
+          12347    3717    3705    3718
CTETRA       715       1   12020   12021   12024     458   12347   12359+
+          12357    3717    3718    3719
CTETRA       716       1   12020     152     433     528    3720    3721+
+           3715    3722    3723    3724
CTETRA       717       1   12014     335     339     433    3343    3725+
+           2613    3726    3339    3727
CTETRA       718       1   12014     339   12021     433    2613    3728+
+          12341    3726    3727    3716
CTETRA       719       1   17596   17597   13550     509   17622   14257+
+          14275    3591    3729    3592
CTETRA       720       1   17596     393   13571     392    2924    3574+
+          14271    2922    3595    2923
CTETRA       721       1   11982     104      99     101    1596    3361+
+           3730    1597    1599    1586
CTETRA       722       1   17595     508   13569     529    3731    3732+
+          14268    3733    3734    3735
CTETRA       723       1   12742     459   12743     104    3736    3737+
+          12928    3359    3738    3360
CTETRA       724       1   15586   15623   15615      58   15927   15929+
+          15928    3739    1530    1529
CTETRA       725       1   11984     530     104     103    3740    3741+
+           3742    3743    3744    3349
CTETRA       726       1   12744     104     530     103    3745    3741+
+           3746    3747    3349    3744
CTETRA       727       1   12744   12756     104     103   12981    3348+
+           3745    3747    3350    3349
CTETRA       728       1   13567     531   13569     532    3748    3749+
+          14288    3750    3751    3752
CTETRA       729       1   12738   12747     152     528   12918    3753+
+           3754    3755    3756    3723
CTETRA       730       1   12756      99     104     101    3757    3361+
+           3348    3351    1586    1599
CTETRA       731       1   17595   15347   15349     508   15518   15525+
+          15527    3731    3758    3759
CTETRA       732       1   17517   13183     178     492   13319    3519+
+           3760    3761    3521    3520
CTETRA       733       1   17638   17639   15347     533   17648   15524+
+          15516    3762    3763    3764
CTETRA       734       1   17639   14737   17640     534   15055   15057+
+          17650    3765    3766    3767
CTETRA       735       1   17561   13185     178     535   13316    1850+
+           3768    3769    3770    3771
CTETRA       736       1   17825     352      41     536    2669    2668+
+           1356    3772    3773    3774
CTETRA       737       1   13480     178     537     490    3775    3776+
+           3777    3778    3526    3779
CTETRA       738       1   14654     537     178     490    3780    3776+
+           3781    3782    3779    3526
CTETRA       739       1   17517   13477   13479     178   13974   13986+
+          13981    3760    3783    3525
CTETRA       740       1   18109   15322   17928     538   15394   15392+
+          17931    3784    3785    3786
CTETRA       741       1   13567   13568   13573     539   14286   14304+
+          14305    3787    3788    3789
CTETRA       742       1   13477     537   13480     178    3790    3777+
+          13987    3783    3776    3775
CTETRA       743       1   13566   13567     540     531   14289    3791+
+           3792    3793    3748    3794
CTETRA       744       1   14735   14736   14738     532   15053   15060+
+          15063    3795    3796    3797
CTETRA       745       1   14729   14734   14736     540   15042   15044+
+          15043    3798    3799    3800
CTETRA       746       1   17638     531   14735     533    3801    3802+
+          15047    3762    3803    3804
CTETRA       747       1   14744     370     366     367    2759    3805+
+           3692    2762    2761    2738
CTETRA       748       1   17558     368   13184     382    3806    2845+
+          13314    3807    2848    2847
CTETRA       749       1   14729   14734     540     380   15042    3799+
+           3798    3808    3809    3810
CTETRA       750       1   17514   13184   13172     368   13313   13312+
+          13311    3811    2845    3428
CTETRA       751       1   14734     539   14736     540    3812    3813+
+          15044    3799    3814    3800
CTETRA       752       1   14643   14698     197     368   14949    3815+
+           3816    3817    3818    3819
CTETRA       753       1   17637     541   14730     542    3820    3821+
+          15147    3822    3823    3824
CTETRA       754       1   13562   13574   13563     381   14309   14308+
+          14310    3825    2826    2825
CTETRA       755       1   14734     539     540     380    3812    3814+
+           3799    3809    3826    3810
CTETRA       756       1   13563   13574   13573     380   14308   14306+
+          14300    2824    2823    3827
CTETRA       757       1   14728     380   14729     381    3828    3808+
+          15046    3829    2827    3830
CTETRA       758       1   17514   13184     368     543   13313    2845+
+           3811    3831    3832    3833
CTETRA       759       1   13475   13559     197     368   14240    3834+
+           3835    3836    3837    3819
CTETRA       760       1   16333     420     164     116    3079    3108+
+           3838    3839    3840    1795
CTETRA       761       1   15573     164     420     116    3093    3108+
+           3107    3841    1795    3840
CTETRA       762       1   15564   15573     420     116   15765    3107+
+           3842    1634    3841    3840
CTETRA       763       1   17641   14711   17642     544   14995   14992+
+          17647    3843    3844    3845
CTETRA       764       1   16326     420   16333     116    3846    3079+
+          16452    1657    3840    3839
CTETRA       765       1   13520   13521   13532     107   14123   14165+
+          14166    1922    1949    1612
CTETRA       766       1   13521   13534   13532     106   14163   14160+
+          14165    1952    1604    1613
CTETRA       767       1   17446   14687   14686     107   14888   14887+
+          14886    1605    2866    1881
CTETRA       768       1   17281   17282   13163     545   17284   13205+
+          13204    3847    3848    3849
CTETRA       769       1   16326   16334     420     117   16451    3850+
+           3846    1656    3851    3852
CTETRA       770       1   15633     157     266     512    3853    2231+
+           3854    3607    3855    3856
CTETRA       771       1   15633   15634     266     157   15991    2787+
+           3854    3853    3857    2231
CTETRA       772       1   13499   13500     259     261   14055    2214+
+           3858    3859    2215    2208
CTETRA       773       1   14656   14664   14670     260   14804   14827+
+          14824    3860    2238    2206
CTETRA       774       1   16315     157     156     158    3861    1765+
+           3862    3863    1769    1768
CTETRA       775       1   13515     182   13516     385    3864    3865+
+          14105    3866    3867    3868
CTETRA       776       1   15539     266   15634     157    2785    2787+
+          15994    3869    2231    3857
CTETRA       777       1   13382   13652   13653     163   14594   14585+
+          14593    1894    3870    1895
CTETRA       778       1   14784     546   14785     167    3871    3872+
+          15251    1817    3873    3031
CTETRA       779       1   13382   13396   13394     163   13689   13690+
+          13679    1894    3874    3875
CTETRA       780       1   11961   11963     417     342   12131    3876+
+           3663    3665    2816    3412
CTETRA       781       1   16041      14   16042     467    3877    3878+
+          16112    3352    3879    3880
CTETRA       782       1   12796     547   12802     412    3881    3882+
+          13154    3883    3884    3885
CTETRA       783       1   17829   16961   17830     548   17045   17027+
+          17837    3886    3887    3888
CTETRA       784       1   16766   16775   16774      20   16790   16789+
+          16787    2895    1502    1501
CTETRA       785       1   16765   16766   16774      20   16788   16787+
+          16786    3889    2895    1501
CTETRA       786       1   17445   18097     200     549   17462    1957+
+           1956    3890    3891    3892
CTETRA       787       1   15537     157   15635     211    3893    3894+
+          16001    2233    3895    3896
CTETRA       788       1   16766      20     387     550    2895    2894+
+           2893    3897    3898    3899
CTETRA       789       1   13642   13645   13644      20   14547   14549+
+          14535    1507    3900    1508
CTETRA       790       1   15537     158     157     211    3901    1769+
+           3893    2233    3902    3895
CTETRA       791       1   13640      20   13643     141    3903    3904+
+          14537    3905    3906    3907
CTETRA       792       1   15539     156     266     157    3908    3909+
+           2785    3869    1765    2231
CTETRA       793       1   14734     551     539     380    3910    3911+
+           3812    3809    3912    3826
CTETRA       794       1   18115   18006   11565     552   18015   11618+
+          11617    3913    3914    3915
CTETRA       795       1   14729     380     540     381    3808    3810+
+           3798    3830    2827    3916
CTETRA       796       1   13574     540     380     381    3917    3810+
+           2823    2826    3916    2827
CTETRA       797       1   13573     540     539     380    3918    3814+
+           3789    3827    3810    3826
CTETRA       798       1   13573   13574     540     380   14306    3917+
+           3918    3827    2823    3810
CTETRA       799       1   13489     553     260     181    3919    3920+
+           3921    1867    3922    2239
CTETRA       800       1   17586   17587   13387     554   17610   13778+
+          13775    3923    3924    3925
CTETRA       801       1   17521   13178     210     555   13294    3926+
+           2005    3927    3928    3929
CTETRA       802       1   13180     213     210     556    2011    2010+
+           2006    3930    3931    3932
CTETRA       803       1   17563   14666   14669     324   14800   14817+
+          14820    3933    2545    3934
CTETRA       804       1   13483   13484     181     490   13999    1866+
+           3935    3514    3936    3937
CTETRA       805       1   14655     181     557     490    3938    3939+
+           3940    3941    3937    3942
CTETRA       806       1   13484     557     553     181    3943    3944+
+           3945    1866    3939    3922
CTETRA       807       1   13484     553   13489     181    3945    3919+
+          14009    1866    3922    1867
CTETRA       808       1   12761     276     147     558    3946    3947+
+           3948    3949    3950    3951
CTETRA       809       1   13161   13169   13171     559   13237   13247+
+          13245    3952    3953    3954
CTETRA       810       1   18086     560   17338     561    3955    3956+
+          17346    3957    3958    3959
CTETRA       811       1   17452     251     134     135    3960    3961+
+           1682    1684    3962    1685
CTETRA       812       1   12785   12792   12791     100   13109   13110+
+          13103    3963    3964    3965
CTETRA       813       1   12773   12774     444     558   13042    3966+
+           3967    3968    3969    3970
CTETRA       814       1   17380   15327   15328     558   15416   15421+
+          15420    3971    3972    3973
CTETRA       815       1   12761   12773     276     558   13040    3974+
+           3946    3949    3968    3950
CTETRA       816       1   17361     411   12610     562    3037    3975+
+          12637    3976    3977    3978
CTETRA       817       1   17495     558   12761     563    3979    3949+
+          13038    3980    3981    3982
CTETRA       818       1   12796   12800   12799     412   13137   13138+
+          13133    3883    3983    3984
CTETRA       819       1   17495   15328   15327     558   15424   15421+
+          15419    3979    3973    3972
CTETRA       820       1   12799     412   12800     411    3984    3983+
+          13138    3985    3043    3048
CTETRA       821       1   12607   12609     411     564   12634    3986+
+           3987    3988    3989    3990
CTETRA       822       1   14707     372     565      60    3991    3992+
+           3993    3994    3995    3996
CTETRA       823       1   13492     566     372     565    3997    3998+
+           3999    4000    4001    3992
CTETRA       824       1   17362   12607   12609     567   12633   12634+
+          12631    4002    4003    4004
CTETRA       825       1   13532   13534   13533     109   14160   14162+
+          14161    1615    1614    4005
CTETRA       826       1   17446   12765   12782     330   13017   13071+
+          13069    4006    4007    4008
CTETRA       827       1   17446   17447   12765     330   17461   13016+
+          13017    4006    4009    4007
CTETRA       828       1   13468   13492     372     565   14022    3999+
+           4010    4011    4000    3992
CTETRA       829       1   13491   13492     377     372   14029    4012+
+           2790    2788    3999    2789
CTETRA       830       1   17330   17331     280     346   17348    4013+
+           3459    4014    2642    4015
CTETRA       831       1   17331   11957   11956     330   12113   12112+
+          12106    2639    4016    2562
CTETRA       832       1   17330     568     346     569    4017    4018+
+           4014    4019    4020    4021
CTETRA       833       1   13469     372     570      60    4022    4023+
+           4024    4025    3995    4026
CTETRA       834       1   13589   13599     310      27   14391    2435+
+           3666    3685    2436    2437
CTETRA       835       1   13176     318     369     441    3253    4027+
+           3230    3233    4028    3234
CTETRA       836       1   12765   12781   12782     330   13064   13072+
+          13071    4007    4029    4008
CTETRA       837       1   13512     184     187     185    1875    4030+
+           1887    1877    1876    1886
CTETRA       838       1   13589   13590      27     366   14363    1304+
+           3685    3687    4031    3688
CTETRA       839       1   14728   14762      78     381   15160    3481+
+           4032    3829    4033    4034
CTETRA       840       1   13432   13433      96      95   13825    2379+
+           1565    1568    2380    1569
CTETRA       841       1   14727     520   14728      78    3653    4035+
+          15076    3654    3656    4032
CTETRA       842       1   13562   13563      78     381   14310    4036+
+           4037    3825    2825    4034
CTETRA       843       1   13522     105     199     202    1600    1970+
+           1966    1968    4038    1969
CTETRA       844       1   13563     380      78     381    2824    4039+
+           4036    2825    2827    4034
CTETRA       845       1   17262      39   11675     484    1351    1353+
+          11729    4040    3478    3477
CTETRA       846       1   13563     520   13585      78    4041    4042+
+          14343    4036    3656    4043
CTETRA       847       1   14766   14772     285     221   15215    2318+
+           4044    2055    4045    2314
CTETRA       848       1   14764   14765      80      65   15190    2855+
+           4046    1453    2857    2856
CTETRA       849       1   17196   13441   13440     571   13852   13851+
+          13850    4047    4048    4049
CTETRA       850       1   14770   14771     428      80   15207    4050+
+           4051    4052    4053    3174
CTETRA       851       1   14760   14764   14770      79   15186   15206+
+          15204    4054    4055    4056
CTETRA       852       1   13594   13595      80      65   14385    1494+
+           2861    3060    4057    2856
CTETRA       853       1   13606   13607     428      80   14415    3129+
+           3175    2862    3133    3174
CTETRA       854       1   14719     553       6     557    4058    4059+
+           4060    4061    3944    4062
CTETRA       855       1   13397   13408     422     350   13751    3494+
+           4063    3487    3496    3125
CTETRA       856       1   13403   13405   13404     361   13727   13726+
+          13722    4064    4065    4066
CTETRA       857       1   16862     423     448     572    4067    4068+
+           3270    4069    4070    4071
CTETRA       858       1   13480   13481     557     537   13985    4072+
+           4073    3777    4074    4075
CTETRA       859       1   13481     573     557     537    4076    4077+
+           4072    4074    4078    4075
CTETRA       860       1   13481       6   13485     557    4079    4080+
+          13992    4072    4062    4081
CTETRA       861       1   13481     573       6     557    4076    4082+
+           4079    4072    4077    4062
CTETRA       862       1   11933   11934     455     465   12185    4083+
+           3326    3340    4084    3341
CTETRA       863       1   16223   16224     506     574   16298    3583+
+           4085    4086    4087    4088
CTETRA       864       1   12734     465     242     243    4089    4090+
+           4091    2169    4092    2141
CTETRA       865       1   15613      24      23      10    1284    1283+
+           1281    1290    1297    1291
CTETRA       866       1   17389     462   13166     575    4093    4094+
+          13218    4095    4096    4097
CTETRA       867       1   13165   13166     243     576   13216    4098+
+           4099    4100    4101    4102
CTETRA       868       1   16402      23      24      10    4103    1283+
+           1294    1293    1291    1297
CTETRA       869       1   12712     465     243     462    4104    4092+
+           4105    4106    3342    4107
CTETRA       870       1   11932     243   11933     462    2168    4108+
+          12190    4109    4107    3328
CTETRA       871       1   15340   15341   15342     105   15477   15488+
+          15493    4110    4111    4112
CTETRA       872       1   16391   16405   16402      23   16748   16751+
+          16735    4113    4114    4103
CTETRA       873       1   12712   12759     465     462   12997    4115+
+           4104    4106    4116    3342
CTETRA       874       1   14729     540     541     381    3798    4117+
+           4118    3830    3916    4119
CTETRA       875       1   13574     541     540     381    4120    4117+
+           3917    2826    4119    3916
CTETRA       876       1   14730     541     531     542    3821    4121+
+           4122    3824    3823    4123
CTETRA       877       1   17593   13566   13575     541   14283   14317+
+          14313    4124    4125    4126
CTETRA       878       1   17776   13188     577     264   13340    4127+
+           4128    4129    4130    4131
CTETRA       879       1   13566     531     540     541    3793    3794+
+           3792    4125    4121    4117
CTETRA       880       1   13566     540   13574     541    3792    3917+
+          14311    4125    4117    4120
CTETRA       881       1   14759     427     321     424    4132    3284+
+           4133    3170    3288    3287
CTETRA       882       1   13598     321     424     578    4134    3287+
+           4135    4136    4137    4138
CTETRA       883       1   14724   14725     321     310   15133    4139+
+           2508    2438    4140    4141
CTETRA       884       1   14757   14758     447     309   15170    3281+
+           4142    2429    2511    4143
CTETRA       885       1   13609     447     321     309    3266    3282+
+           3289    4144    4143    2510
CTETRA       886       1   16015   16016     266     375   16087    4145+
+           4146    2777    4147    4148
CTETRA       887       1   16016   16036   16035     266   16089   16088+
+          16086    4145    4149    3679
CTETRA       888       1   16018      58      82     308    2413    1516+
+           2815    2421    2423    4150
CTETRA       889       1   13565       4   13576     579    4151    4152+
+          14320    4153    4154    4155
CTETRA       890       1   12723   12724   12725     378   12808   12823+
+          12820    2807    2806    4156
CTETRA       891       1   16215     203     153     155    3597    4157+
+           4158    1760    4159    4160
CTETRA       892       1   17677   16035   16036     525   16149   16088+
+          16150    4161    3681    4162
CTETRA       893       1   17677   17678   16035     525   17705   16148+
+          16149    4161    4163    3681
CTETRA       894       1   14741       4     580     579    4164    4165+
+           4166    4167    4154    4168
CTETRA       895       1   17601   13522   13514     199   14119   14121+
+          14095    1959    1966    1995
CTETRA       896       1   14647   14741       4     580   15081    4164+
+           1239    4169    4166    4165
CTETRA       897       1   17602   15341   15340     105   15476   15477+
+          15474    4170    4111    4110
CTETRA       898       1   17556   13176   17557     441   13280   13268+
+          17572    4171    3233    3232
CTETRA       899       1   17558   14698   14642     368   14944   14945+
+          14942    3806    3818    2740
CTETRA       900       1   13559   13560     367     368   14241    2750+
+           4172    3837    2751    2741
CTETRA       901       1   13580   13581   13591     317   14337   14371+
+          14369    3400    3399    4173
CTETRA       902       1   13591      25     317     318    1298    2477+
+           4173    4174    2481    2480
CTETRA       903       1   16342     512     157     211    4175    3855+
+           2024    2002    4176    3895
CTETRA       904       1   14731       4     579     581    4177    4154+
+           4178    4179    4180    4181
CTETRA       905       1   16315     156     162     158    3862    4182+
+           4183    3863    1768    1781
CTETRA       906       1   17449   14679   14694     336   14874   14921+
+          14920    2941    4184    4185
CTETRA       907       1   16033     162     156     582    4186    4182+
+           4187    4188    4189    4190
CTETRA       908       1   13539   13549   13544     336   14218   14224+
+          14206    4191    4192    2645
CTETRA       909       1   17331   17332     278     109   17340    4193+
+           4194    2641    4195    4196
CTETRA       910       1   17602   15340   17603     583   15474   15473+
+          17618    4197    4198    4199
CTETRA       911       1   17330     105     584     585    4200    4201+
+           4202    4203    4204    4205
CTETRA       912       1   17446     109     330     346    4206    2640+
+           4006    4207    2644    2643
CTETRA       913       1   16319     162     172     421    4208    4209+
+           4210    4211    3085    4212
CTETRA       914       1   17409     586   12754     587    4213    4214+
+          12964    4215    4216    4217
CTETRA       915       1   11674     588     278     589    4218    4219+
+           4220    4221    4222    4223
CTETRA       916       1   15578     162     156     158    4224    4182+
+           4225    4226    1781    1768
CTETRA       917       1   17330     569     346     585    4019    4021+
+           4014    4203    4227    4228
CTETRA       918       1   11665   11666   11675     278   11702   11701+
+          11700    4229    2288    3476
CTETRA       919       1   11665     590     278     591    4230    4231+
+           4229    4232    4233    4234
CTETRA       920       1   15569     162   15577     421    4235    1780+
+          15779    3091    3085    3084
CTETRA       921       1   15569   15570     162     172   15758    4236+
+           4235    4237    4238    4209
CTETRA       922       1   15570     156   15578     162    4239    4225+
+          15782    4236    4182    4224
CTETRA       923       1   17586     592   13415     593    4240    4241+
+          13776    4242    4243    4244
CTETRA       924       1   15569     172     162     421    4237    4209+
+           4235    3091    4212    3085
CTETRA       925       1   15576   15577     159     421   15781    1770+
+           4245    4246    3084    3086
CTETRA       926       1   16031     173     172     594    4247    1832+
+           4248    4249    4250    4251
CTETRA       927       1   17585   15321   15313      41   15388   15390+
+          15389    4252    4253    4254
CTETRA       928       1   16010     173      92     595    4255    4256+
+           4257    4258    4259    4260
CTETRA       929       1   15566      93   15571     164    1790    4261+
+          15747    1792    1791    4262
CTETRA       930       1   11973     596     465     242    4263    4264+
+           4265    4266    4267    4090
CTETRA       931       1   13630     226   13632     223    2082    4268+
+          14499    4269    2654    4270
CTETRA       932       1   17587     597   13387     554    4271    4272+
+          13778    3924    4273    3925
CTETRA       933       1   13386   13387   13630     226   13795   14492+
+          14493    2068    4274    2082
CTETRA       934       1   13387   13632     226     598   14497    4268+
+           4274    4275    4276    4277
CTETRA       935       1   12026   12029     454     152   12383    4278+
+           4279    4280    1751    4281
CTETRA       936       1   13630     234     223     599    2112    4282+
+           4269    4283    4284    4285
CTETRA       937       1   17584   13413   13414     352   13763   13766+
+          13765    4286    4287    4288
CTETRA       938       1   17587   13632   13387     598   14496   14497+
+          13778    4289    4276    4275
CTETRA       939       1   13188     264     287     600    4130    4290+
+           4291    4292    4293    4294
CTETRA       940       1   17777     577   13188     601    4295    4127+
+          13341    4296    4297    4298
CTETRA       941       1   17661   13188   13189     602   13336   13339+
+          13330    4299    4300    4301
CTETRA       942       1   15542   15571      93     173   15745    4261+
+           1559    4302    4303    4304
CTETRA       943       1   15542      93      92     173    1559    1558+
+           1556    4302    4304    4256
CTETRA       944       1   12707     100   12792     416    4305    3964+
+          13113    3056    4306    3057
CTETRA       945       1   12711   12712   12759     465   12897   12997+
+          12998    4307    4104    4115
CTETRA       946       1   17294   17295   12406     603   17328   12596+
+          12595    4308    4309    4310
CTETRA       947       1   16010   16030      92     173   16064    4311+
+           4257    4255    4312    4256
CTETRA       948       1   17382     443   15325     604    4313    4314+
+          15410    4315    4316    4317
CTETRA       949       1   12405     100     605     472    3026    4318+
+           4319    3395    4320    4321
CTETRA       950       1   12425     100      99     416    3025    1583+
+           3028    4322    4306    4323
CTETRA       951       1   17982   12401     547     606   12519    4324+
+           4325    4326    4327    4328
CTETRA       952       1   12421     471   12422     238    4329    4330+
+          12442    4331    4332    2129
CTETRA       953       1   18096   17423   12440     607   17444   12562+
+          12563    4333    4334    4335
CTETRA       954       1   17981   18096   12440     607   17985   12563+
+          12564    4336    4333    4335
CTETRA       955       1   12721   12725   12724     378   12824   12823+
+          12821    3413    4156    2806
CTETRA       956       1   17981   12420   17982     364   12565   12566+
+          17984    4337    2726    4338
CTETRA       957       1   11939   11940     438     442   12035    3242+
+           3237    3235    4339    3236
CTETRA       958       1   12777   12778     438     443   13055    4340+
+           3246    3250    4341    3240
CTETRA       959       1   12402   12403   12423     241   12449   12448+
+          12447    4342    4343    2137
CTETRA       960       1   12404     466     100     608    3345    3347+
+           3058    4344    4345    4346
CTETRA       961       1   11996   12002     469     425   12267    4347+
+           4348    4349    4350    4351
CTETRA       962       1   17292   17293   12404     466   17322   12600+
+          12599    4352    4353    3345
CTETRA       963       1   17291   12403   12402     609   12601   12449+
+          12604    4354    4355    4356
CTETRA       964       1   17334     610     130     254    4357    4358+
+           2828    2830    4359    2831
CTETRA       965       1   13396   13397   13408     422   13693   13751+
+          13752    4360    4063    3494
CTETRA       966       1   12418     126     315     611    2462    2465+
+           2464    4361    4362    4363
CTETRA       967       1   11941   11942   11952     126   12052   12082+
+          12084    4364    4365    1664
CTETRA       968       1   11773   11777   11775      97   11876   11878+
+          11864    2978    4366    2979
CTETRA       969       1   11760     319   11771     612    4367    4368+
+          11853    4369    4370    4371
CTETRA       970       1   11760   11765     319     613   11813    4372+
+           4367    4373    4374    4375
CTETRA       971       1   17215   11760   11771     612   11810   11853+
+          11851    4376    4369    4371
CTETRA       972       1   13404     614   13409     422    4377    4378+
+          13749    4379    4380    4381
CTETRA       973       1   16969     614   16971     422    4382    4383+
+          17054    3098    4380    3491
CTETRA       974       1   13552      60   13553      64    1432    4384+
+          14264    1447    1451    4385
CTETRA       975       1   18006   18007   11566     615   18024   11657+
+          11659    4386    4387    4388
CTETRA       976       1   14733     539      64     532    4389    4390+
+           4391    4392    4393    4394
CTETRA       977       1   18006   11566   11565     615   11659   11587+
+          11618    4386    4388    4395
CTETRA       978       1   17960   16968     326     616   17040    4396+
+           4397    4398    4399    4400
CTETRA       979       1   13553     617   13568      64    4401    4402+
+          14281    4385    4403    4404
CTETRA       980       1   13568     617     539      64    4402    4405+
+           3788    4404    4403    4390
CTETRA       981       1   14682     184     430     186    4406    4407+
+           4408    3140    1879    3148
CTETRA       982       1   17938   13401   13400     133   13720   13721+
+          13718    1679    1681    4409
CTETRA       983       1   14682   14683     184     186   14871    4410+
+           4406    3140    4411    1879
CTETRA       984       1   13542     185     137     186    4412    1916+
+           4413    4414    1880    4415
CTETRA       985       1   13511     184   13512     186    4416    1875+
+          14092    3158    1879    1878
CTETRA       986       1   17778   13190   13191     618   13343   13348+
+          13347    4417    4418    4419
CTETRA       987       1   14754     619     316     113    4420    4421+
+           4422    2506    4423    2492
CTETRA       988       1   13613     619   13614     113    4424    4425+
+          14442    2490    4423    4426
CTETRA       989       1   14720     440     316     619    4427    4428+
+           4429    4430    4431    4421
CTETRA       990       1   14720     316   14754     619    4429    4422+
+          15174    4430    4421    4420
CTETRA       991       1   17778   13191   18105     618   13347   13349+
+          17783    4417    4419    4432
CTETRA       992       1   17510   13614   13603     619   14435   14440+
+          14401    4433    4425    4434
CTETRA       993       1   13603   13613     316     619   14441    2489+
+           4435    4434    4424    4421
CTETRA       994       1   13558       2     620     370    4436    4437+
+           4438    4439    4440    4441
CTETRA       995       1   13577   13578     527       2   14322    4442+
+           4443    4444    4445    4446
CTETRA       996       1   14749       2     523     370    4447    4448+
+           3695    4449    4440    4450
CTETRA       997       1   16211     512     302     621    4451    4452+
+           4453    4454    4455    4456
CTETRA       998       1   13485       7   13490     553    4457    2782+
+          14006    4458    4459    4460
CTETRA       999       1   17777   13188   13190     601   13341   13344+
+          13342    4296    4298    4461
CTETRA      1000       1   17776   13188   17777     577   13340   13341+
+          17781    4128    4127    4295
CTETRA      1001       1   17776   13189   13188     264   13338   13339+
+          13340    4129    4462    4130
CTETRA      1002       1   13188   13189     287     264   13339    4463+
+           4291    4130    4462    4290
CTETRA      1003       1   18089     569   17330     585    4464    4019+
+          17339    4465    4227    4203
CTETRA      1004       1   13490       7     376     553    2782    2784+
+           2781    4460    4459    4466
CTETRA      1005       1   14712     376       7     553    2798    2784+
+           2795    4467    4466    4459
CTETRA      1006       1   14656     376   14712     553    4468    2798+
+          15034    4469    4466    4467
CTETRA      1007       1   16321   16339   16338     166   16489   16485+
+          16490    4470    4471    4472
CTETRA      1008       1   14656     260     376     553    3860    4473+
+           4468    4469    3920    4466
CTETRA      1009       1   16309   16330   16310      92   16430   16429+
+          16431    4474    4475    4476
CTETRA      1010       1   17584     352   13414     194    4286    4288+
+          13765    4477    4478    1914
CTETRA      1011       1   13412   13414   13413     352   13768   13766+
+          13769    4479    4288    4287
CTETRA      1012       1   16009     622      92     623    4480    4481+
+           4482    4483    4484    4485
CTETRA      1013       1   16859   16860     352      42   16879    4486+
+           4487    1362    4488    4489
CTETRA      1014       1   14736     540     539     532    3800    3814+
+           3813    3796    4490    4393
CTETRA      1015       1   13567     539   13573     540    3787    3789+
+          14305    3791    3814    3918
CTETRA      1016       1   17335     300     250     254    2818    2382+
+           4491    4492    2822    2183
CTETRA      1017       1   17448     130     300     624    4493    2829+
+           4494    4495    4496    4497
CTETRA      1018       1   15601   15604      59     216   15856    1534+
+           1533    4498    4499    2039
CTETRA      1019       1   12705     494     127     499    4500    3549+
+           4501    4502    3553    3552
CTETRA      1020       1   16020      59   16040      58    2031    2020+
+          16105    2032    1429    2019
CTETRA      1021       1   16020   16021      59     625   16107    4503+
+           2031    4504    4505    4506
CTETRA      1022       1   16020   16021   16040      59   16107   16106+
+          16105    2031    4503    2020
CTETRA      1023       1   17787   16021   16020     625   16177   16107+
+          16180    4507    4505    4504
CTETRA      1024       1   17587   17588   13632     598   17629   14494+
+          14496    4289    4508    4276
CTETRA      1025       1   16015   16016   16035     266   16087   16086+
+          16085    4146    4145    3679
CTETRA      1026       1   13423   13428   13424     254   13821   13927+
+          13928    2409    2412    2182
CTETRA      1027       1   17663   13191   13190     626   13351   13348+
+          13346    4509    4510    4511
CTETRA      1028       1   16017      84      83     627    1512    1514+
+           1511    4512    4513    4514
CTETRA      1029       1   13544     336     305     252    2645    2942+
+           4515    2646    2603    2820
CTETRA      1030       1   13422     305   13545     130    2949    2950+
+          14226    2947    2833    2948
CTETRA      1031       1   13422   13423     305     254   13817    2408+
+           2949    4516    2409    2410
CTETRA      1032       1   15617   15618   15631      82   15939   15976+
+          15980    3640    1538    1543
CTETRA      1033       1   16018   16038   16037      82   16097   16096+
+          16094    2815    1515    1522
CTETRA      1034       1   17792   16016   16015     375   16187   16087+
+          16190    4517    4147    2777
CTETRA      1035       1   13422   13436   13434     254   13826   13827+
+          13816    4516    4518    2388
CTETRA      1036       1   16354   16356   16357     203   16550   16555+
+          16554    1992    2396    4519
CTETRA      1037       1   17676      89   16037     306    4520    1544+
+          16152    2416    4521    2417
CTETRA      1038       1   16346   16349   16354      88   16513   16531+
+          16530    4522    1990    1989
CTETRA      1039       1   14713   14719       7       6   15039    4523+
+           1232    1228    4060    1231
CTETRA      1040       1   16349      88     302     203    1990    3543+
+           3542    1991    1993    4524
CTETRA      1041       1   17732   16215   16214     203   16249   16248+
+          16245    1973    3597    2397
CTETRA      1042       1   17737   15609     150     628   15896    1741+
+           4525    4526    4527    4528
CTETRA      1043       1   15609   15610      56     628   15891    4529+
+           1738    4527    4530    4531
CTETRA      1044       1   16218      55      56     407    3007    1416+
+           4532    3010    3009    4533
CTETRA      1045       1   13472       6   13481     573    1222    4079+
+          13979    4534    4082    4076
CTETRA      1046       1   16218      56   16219     407    4532    4535+
+          16274    3010    4533    4536
CTETRA      1047       1   17736   15598   15610     408   15849   15892+
+          15893    4537    3014    4538
CTETRA      1048       1   13472       1       6     573    1224    1223+
+           1222    4534    4539    4082
CTETRA      1049       1   18104   15596   15592     217   15832   15833+
+          15816    4540    4541    4542
CTETRA      1050       1   18104   16225   17743     629   16306   16305+
+          17744    4543    4544    4545
CTETRA      1051       1   17877     630   15316     631    4546    4547+
+          15357    4548    4549    4550
CTETRA      1052       1   13471       7   13485       6    4551    4457+
+          13990    4552    1231    4080
CTETRA      1053       1   11770      96   11772     610    4553    2995+
+          11855    4554    4555    4556
CTETRA      1054       1   16379   16381   16382     632   16652   16659+
+          16656    4557    4558    4559
CTETRA      1055       1   16378   16381   16379     262   16650   16652+
+          16651    4560    4561    4562
CTETRA      1056       1   13449     319      96     610    2486    4563+
+           4564    4565    4566    4555
CTETRA      1057       1   16379     262     632     633    4562    4567+
+           4557    4568    4569    4570
CTETRA      1058       1   17761     262   15317     634    2210    4571+
+          15363    4572    4573    4574
CTETRA      1059       1   13449     319     610     635    2486    4566+
+           4565    4575    4576    4577
CTETRA      1060       1   17640     393   15349     534    3594    2925+
+          15529    3767    4578    4579
CTETRA      1061       1   11761     610     635     636    4580    4577+
+           4581    4582    4583    4584
CTETRA      1062       1   15594   15597     637     638   15845    4585+
+           4586    4587    4588    4589
CTETRA      1063       1   17640   14737   14652     393   15057   15058+
+          15054    3594    4590    4591
CTETRA      1064       1   15590     637   15597      13    4592    4585+
+          15843    1253    4593    4594
CTETRA      1065       1   15535   15594     637     639   15824    4586+
+           4595    4596    4597    4598
CTETRA      1066       1   17585      41   13413     640    4252    4599+
+          13764    4600    4601    4602
CTETRA      1067       1   18109   16977   17825     352   17081   17083+
+          17842    4603    4604    2669
CTETRA      1068       1   17825      41      40     641    1356    1355+
+           1354    4605    4606    4607
CTETRA      1069       1   12710   12711     461     596   12905    3323+
+           4608    4609    4610    4611
CTETRA      1070       1   17586   13387   13415     592   13775   13777+
+          13776    4240    4612    4241
CTETRA      1071       1   18101     642   17710     643    4613    4614+
+          17728    4615    4616    4617
CTETRA      1072       1   13614     644     113     645    4618    4619+
+           4426    4620    4621    4622
CTETRA      1073       1   16399   16406       9      13   16755    4623+
+           4624    4625    4626    1252
CTETRA      1074       1   13612   13618     320     174   14454    4627+
+           4628    2495    4629    2500
CTETRA      1075       1   16406     637       9      13    4630    4631+
+           4623    4626    4593    1252
CTETRA      1076       1   12002   12003   12004     646   12275   12280+
+          12281    4632    4633    4634
CTETRA      1077       1   16400     638     637      13    4635    4589+
+           4636    4637    4638    4593
CTETRA      1078       1   16024     637       9     647    4639    4631+
+           4640    4641    4642    4643
CTETRA      1079       1   14755   14756   14782     320   15179   15233+
+          15234    2497    4644    2498
CTETRA      1080       1   16367     637   16400     638    4645    4636+
+          16759    4646    4589    4635
CTETRA      1081       1   16368   16406     637       9   16756    4630+
+           4647    4648    4623    4631
CTETRA      1082       1   14737     508      63     393    4649    3587+
+           4650    4590    3589    2937
CTETRA      1083       1   17858   16401   16403     220   16729   16736+
+          16739    4651    4652    4653
CTETRA      1084       1   16400   16401     638     220   16738    4654+
+           4635    4655    4652    4656
CTETRA      1085       1   14729   14736   14730     540   15043   15051+
+          15052    3798    3800    4657
CTETRA      1086       1   17743   15591     220     648   15836    2048+
+           4658    4659    4660    4661
CTETRA      1087       1   17410   12426   12427     586   12535   12462+
+          12536    4662    4663    4664
CTETRA      1088       1   12419     312     126     419    2444    2446+
+           2443    3075    3443    4665
CTETRA      1089       1   17858     220   16225     218    4651    4666+
+          16301    4667    4668    2044
CTETRA      1090       1   16401     217     638     220    4669    4670+
+           4654    4652    4671    4656
CTETRA      1091       1   16320     420   16337     314    3080    4672+
+          16471    2457    4673    4674
CTETRA      1092       1   16334   16337     420     314   16474    4672+
+           3850    4675    4674    4673
CTETRA      1093       1   11981   12001   11982      99   12256   12258+
+          12257    4676    1582    3730
CTETRA      1094       1   15575     420   15581     314    4677    4678+
+          15799    4679    4673    4680
CTETRA      1095       1   16322     314   16335     287    4681    4682+
+          16462    4683    4684    4685
CTETRA      1096       1   17408   17409   12707     649   17429   12967+
+          13112    4686    4687    4688
CTETRA      1097       1   14664     181   14667     263    2240    4689+
+          14808    4690    2227    3510
CTETRA      1098       1   12425     650     649     651    4691    4692+
+           4693    4694    4695    4696
CTETRA      1099       1   12405   12426   12425      99   12459   12458+
+          12456    3027    4697    3028
CTETRA      1100       1   12707   12754   12756      99   12966   12971+
+          12968    4698    4699    3757
CTETRA      1101       1   12768   12770   12769     127   13002   13015+
+          13011    4700    2456    4701
CTETRA      1102       1   12705   12769   12770     127   13012   13015+
+          13013    4501    4701    2456
CTETRA      1103       1   12438     652     127     653    4702    4703+
+           4704    4705    4706    4707
CTETRA      1104       1   14657   14670     654     260   14826    4708+
+           4709    4710    2206    4711
CTETRA      1105       1   14670     259     654     260    2204    4712+
+           4708    2206    2205    4711
CTETRA      1106       1   14657     654     376     260    4709    4713+
+           4714    4710    4711    4473
CTETRA      1107       1   11970     395     394     655    2933    2935+
+           2932    4715    4716    4717
CTETRA      1108       1   17452   17453   12732     655   17460   12856+
+          12859    4718    4719    4720
CTETRA      1109       1   18095   12732   17453     656   12855   12856+
+          17459    4721    4722    4723
CTETRA      1110       1   17338     560     655     561    3956    4724+
+           4725    3959    3958    4726
CTETRA      1111       1   13501     376     654     260    4727    4713+
+           4728    4729    4473    4711
CTETRA      1112       1   13489     376   13501     260    4730    4727+
+          14047    3921    4473    4729
CTETRA      1113       1   12402   12403     241     609   12449    4343+
+           4342    4356    4355    4731
CTETRA      1114       1   12009     241     471     425    3387    3391+
+           3390    3115    4732    4733
CTETRA      1115       1   15540      49   15551     171    4734    1825+
+          15666    4735    1829    1828
CTETRA      1116       1   15551   15558     170      49   15702    4736+
+           1827    1825    1391    1826
CTETRA      1117       1   17407   12792   12785     657   13107   13109+
+          13111    4737    4738    4739
CTETRA      1118       1   16308      49   16327     171    4740    4741+
+          16421    4742    1829    4743
CTETRA      1119       1   14731     579   14740     581    4178    4744+
+          15085    4179    4181    4745
CTETRA      1120       1   13576   13586     579     581   14339    4746+
+           4155    4747    4748    4181
CTETRA      1121       1   13564     551   13565     579    4749    4750+
+          14298    4751    4752    4153
CTETRA      1122       1   12718     394   12732     233    2929    4753+
+          12853    2104    4754    4755
CTETRA      1123       1   13565     551     580     579    4750    4756+
+           4757    4153    4752    4168
CTETRA      1124       1   12732     394     655     658    4753    4717+
+           4720    4758    4759    4760
CTETRA      1125       1   14779     659   14791     354    4761    4762+
+          15280    4763    4764    4765
CTETRA      1126       1   14791     659     660     354    4762    4766+
+           4767    4765    4764    4768
CTETRA      1127       1   17280   18086   11980     398   17286   12207+
+          12205    2957    4769    4770
CTETRA      1128       1   11955   11956     330     331   12108    2562+
+           4771    4772    2565    2564
CTETRA      1129       1   13647   13648     659     354   14556    4773+
+           4774    4775    4776    4764
CTETRA      1130       1   14793     353   14794     354    2672    4777+
+          15289    2673    2675    4778
CTETRA      1131       1   14716   14718       6     573   15041    4779+
+           1227    4780    4781    4082
CTETRA      1132       1   14713   14714       8       7   15002    4782+
+           1234    1232    2796    4783
CTETRA      1133       1   13470   13471       8       7   14005    4784+
+           4785    4786    4551    4783
CTETRA      1134       1   11962     417   11967     340    4787    4788+
+          12143    4789    3066    4790
CTETRA      1135       1   12721     340     417     342    3064    3066+
+           3063    3077    2619    3412
CTETRA      1136       1   12729     341     340     342    3409    2616+
+           4791    4792    2620    2619
CTETRA      1137       1   11969     341     340     661    2617    2616+
+           2615    4793    4794    4795
CTETRA      1138       1   13443     662     319     663    4796    4797+
+           2485    4798    4799    4800
CTETRA      1139       1   17910     664   16870     665    4801    4802+
+          16920    4803    4804    4805
CTETRA      1140       1   17826   16980     450     451   17097    4806+
+           3276    3278    4807    3279
CTETRA      1141       1   17825   16977   17826      35   17083   17091+
+          17843    1357    4808    1373
CTETRA      1142       1   11961     340   11969     342    3664    2615+
+          12159    3665    2619    2618
CTETRA      1143       1   11961     417   11962     340    3663    4787+
+          12140    3664    3066    4789
CTETRA      1144       1   18102   17769   13191     284   17771   13350+
+          13352    4809    2311    2313
CTETRA      1145       1   14708   14711     666     477   14993    4810+
+           4811    3439    4812    4813
CTETRA      1146       1   14710      62     666     667    4814    4815+
+           4816    4817    4818    4819
CTETRA      1147       1   13465     666     667     477    4820    4819+
+           4821    4822    4813    4823
CTETRA      1148       1   16317   16338   16339     166   16481   16485+
+          16484    4824    4472    4471
CTETRA      1149       1   17777   13190   17778     668   13342   13343+
+          17782    4825    4826    4827
CTETRA      1150       1   16316   16362   16363     211   16592   16598+
+          16601    4828    2004    2003
CTETRA      1151       1   13465     666   13466     667    4820    4829+
+          14043    4821    4819    4830
CTETRA      1152       1   17778   13190     669     668   13343    4831+
+           4832    4827    4826    4833
CTETRA      1153       1   13495   13505     355     356   14074    2702+
+           4834    3448    2703    2688
CTETRA      1154       1   14686     107   14687     187    1881    2866+
+          14887    1883    1882    4835
CTETRA      1155       1   13507   13514   13513     107   14096   14101+
+          14100    1944    1994    1921
CTETRA      1156       1   17447     108     193     195    4836    4837+
+           1910    1918    4838    4839
CTETRA      1157       1   16319     162   16341     172    4208    4840+
+          16502    4210    4209    4841
CTETRA      1158       1   16316   16317   16362     166   16483   16589+
+          16592    4842    4824    4843
CTETRA      1159       1   13512     185   13519     186    1877    4844+
+          14116    1878    1880    4845
CTETRA      1160       1   14681     235   14682     430    4846    3138+
+          14861    4847    3145    4408
CTETRA      1161       1   13504     355   13505     430    4848    2702+
+          14070    3153    4849    4850
CTETRA      1162       1   16316   16362     211     166   16592    2004+
+           4828    4842    4843    2237
CTETRA      1163       1   15538   15634   15635     157   15995   15997+
+          16000    1766    3857    3894
CTETRA      1164       1   14685     107   14686     185    4851    1881+
+          14884    4852    1885    1884
CTETRA      1165       1   14662     187   14663     363    3457    3458+
+          14881    4853    4854    4855
CTETRA      1166       1   15536   15579   15537     166   15792   15791+
+          15794    2235    1810    2236
CTETRA      1167       1   14733   14736     539     532   15059    3813+
+           4389    4392    3796    4393
CTETRA      1168       1   12773   12774   12775     444   13042   13047+
+          13075    3967    3966    4856
CTETRA      1169       1   13568   13572     539     617   14303    4857+
+           3788    4402    4858    4405
CTETRA      1170       1   14734   14742     539     551   15093    4859+
+           3812    3910    4860    3911
CTETRA      1171       1   13568      64     539     532    4404    4390+
+           3788    4861    4394    4393
CTETRA      1172       1   15537     158     211     166    3901    3902+
+           2233    2236    4862    2237
CTETRA      1173       1   12425      99     650     651    3028    4863+
+           4691    4694    4864    4695
CTETRA      1174       1   16343     266     157     512    2229    2231+
+           2025    4865    3856    3855
CTETRA      1175       1   14742     539     551     617    4859    3911+
+           4860    4866    4405    4867
CTETRA      1176       1   11997   12000     100     469   12252    4868+
+           3368    3371    4869    3372
CTETRA      1177       1   11996   11997     241     469   12268    3370+
+           4870    4348    3371    3373
CTETRA      1178       1   11996     469     241     425    4348    3373+
+           4870    4349    4351    4732
CTETRA      1179       1   12786     469   12789     646    4871    4872+
+          13105    4873    4874    4875
CTETRA      1180       1   13191     284     211     626    2313    2312+
+           2310    4510    4876    4877
CTETRA      1181       1   13188     166     577     600    4878    4879+
+           4127    4292    4880    4881
CTETRA      1182       1   12785     241     100     469    4882    3369+
+           3963    4883    3373    3372
CTETRA      1183       1   12785     100   12791     469    3963    3965+
+          13103    4883    3372    4884
CTETRA      1184       1   12786     469     646     425    4871    4874+
+           4873    4885    4351    4886
CTETRA      1185       1   13468   13469   13553      60   14025   14266+
+          14265    1431    4025    4384
CTETRA      1186       1   13539   13549     336     670   14218    4192+
+           4191    4887    4888    4889
CTETRA      1187       1   16015   16035   16034     266   16085   16084+
+          16082    4146    3679    4890
CTETRA      1188       1   16014   16015   16034     266   16083   16082+
+          16081    4891    4146    4890
CTETRA      1189       1   17678   16034   16035     526   16147   16084+
+          16148    4892    4893    3682
CTETRA      1190       1   15633   15635   15634     157   15996   15997+
+          15991    3853    3894    3857
CTETRA      1191       1   15629      83   15630     266    4894    4895+
+          15972    2786    4896    4897
CTETRA      1192       1   13423   13424   13544     305   13928   14207+
+          14208    2408    2407    4515
CTETRA      1193       1   11937   11938   11962     417   12074   12138+
+          12137    4898    4899    4787
CTETRA      1194       1   15635     157     512     211    3894    3855+
+           4900    3896    3895    4176
CTETRA      1195       1   13190     166   13191     618    4901    4902+
+          13348    4418    4903    4419
CTETRA      1196       1   13545   13546     130     131   14222    1673+
+           2948    4904    1674    1676
CTETRA      1197       1   14693     336   14694     670    2625    4185+
+          14917    4905    4889    4906
CTETRA      1198       1   16309      92   16310     267    4474    4476+
+          16431    4907    4908    4909
CTETRA      1199       1   17686   16027      68     671   16132    1464+
+           1463    4910    4911    4912
CTETRA      1200       1   13549     305     137     131    4913    2939+
+           4914    4915    2940    1697
CTETRA      1201       1   12710   12737   12711     596   12904   12896+
+          12905    4609    4916    4610
CTETRA      1202       1   15571      93     173     164    4261    4304+
+           4303    4262    1791    1836
CTETRA      1203       1   14679     336     137     670    4184    2943+
+           4917    4918    4889    4919
CTETRA      1204       1     108     136     129     131    1688    1693+
+           4920    1692    1691    1675
CTETRA      1205       1   13532     109     108     106    1615    4921+
+           1611    1613    1616    1610
CTETRA      1206       1   11668      32   11677      86    1336    4922+
+          11709    1962    1524    4923
CTETRA      1207       1   17332     129     108     136    4924    4920+
+           4925    4926    1693    1688
CTETRA      1208       1   17445     346     347     549    2647    2650+
+           2649    3890    4927    4928
CTETRA      1209       1   17602   13535   13522     105   14167   14169+
+          14120    4170    4929    1600
CTETRA      1210       1   17603   15340   15339      86   15473   15475+
+          15471    4930    4931    4932
CTETRA      1211       1   18089   15339      86     672   15486    4932+
+           4933    4934    4935    4936
CTETRA      1212       1   11667      86     280     673    4937    4938+
+           2292    4939    4940    4941
CTETRA      1213       1   17447   14685     137     185   14879    4942+
+           1917    1909    4852    1916
CTETRA      1214       1   14684     137   14685     185    4943    4942+
+          14876    4944    1916    4852
CTETRA      1215       1   13520   13532     108     107   14166    1611+
+           4945    1922    1612    1606
CTETRA      1216       1   17447     108   17448     136    4836    1689+
+          17454    4946    1688    1687
CTETRA      1217       1   17710     226   14778     643    2108    2653+
+          15308    4617    4947    4948
CTETRA      1218       1   17245     396   11582     397    4949    2951+
+          11638    4950    2954    2953
CTETRA      1219       1   13161     559     674     675    3952    4951+
+           4952    4953    4954    4955
CTETRA      1220       1     251     655     559     674    4956    4957+
+           4958    4959    4960    4951
CTETRA      1221       1   13460     251     559     674    4961    4958+
+           4962    4963    4959    4951
CTETRA      1222       1   13386   13630     225     226   14493    2081+
+           2065    2068    2082    2069
CTETRA      1223       1   17453     559     655     674    4964    4957+
+           4719    4965    4951    4960
CTETRA      1224       1   13630     226     223     234    2082    2654+
+           4269    2112    2114    4282
CTETRA      1225       1   14683   14685   14686     185   14877   14884+
+          14883    4966    4852    1884
CTETRA      1226       1   14687     187     107     199    4835    1882+
+           2866    2868    4967    1950
CTETRA      1227       1   17452   17453     674     135   17460    4965+
+           4968    1684    4969    4970
CTETRA      1228       1   16308   16329     170     171   16423    4971+
+           4972    4742    4973    1830
CTETRA      1229       1   13507     187     363     199    1945    4854+
+           3445    2871    4967    4974
CTETRA      1230       1   15540     171   15567     125    4735    3711+
+          15739    4975    4976    4977
CTETRA      1231       1   15541   15551     170     171   15673    1827+
+           4978    4979    1828    1830
CTETRA      1232       1   14722   14756   14755      30   15177   15179+
+          15178    1330    4980    2502
CTETRA      1233       1   15541     170      93     171    4978    4981+
+           1557    4979    1830    4982
CTETRA      1234       1   13640   13641   13644      20   14525   14534+
+          14536    3903    1506    1508
CTETRA      1235       1   13629   13642   13641     296   14532   14533+
+          14527    4983    4984    4985
CTETRA      1236       1   12738     455   12759     462    4986    4987+
+          12992    4988    3329    4116
CTETRA      1237       1   12739   12748     454     152   12922    4989+
+           3296    4990    4991    4281
CTETRA      1238       1   12740   12748     335     454   12914    3338+
+           4992    4993    4989    4994
CTETRA      1239       1   14676   14695   14692     169   14922   14924+
+          14906    2886    2888    2902
CTETRA      1240       1   14689     236     182     385    4995    4996+
+           1871    4997    2900    3867
CTETRA      1241       1   17557   13176   13172     369   13268   13267+
+          13266    3231    3230    3427
CTETRA      1242       1   14745   14748   14747     318   15115   15116+
+          15108    4998    2479    4999
CTETRA      1243       1   13516     236   13527     385    2117    2876+
+          14148    3868    2900    2913
CTETRA      1244       1   14752     523      27     366    3691    3686+
+           3700    3693    3689    3688
CTETRA      1245       1   17513   13172     369     676   13272    3427+
+           3405    5000    5001    5002
CTETRA      1246       1   13515     385   13528     333    3866    2881+
+          14141    5003    2885    2884
CTETRA      1247       1   17449     305     130     131    2834    2833+
+           2832    1698    2940    1676
CTETRA      1248       1   17448     130     624     677    4493    4496+
+           4495    5004    5005    5006
CTETRA      1249       1   13543   13546   13548     131   14214   14216+
+          14212    5007    1674    5008
CTETRA      1250       1   14675     385     259     333    5009    5010+
+           5011    5012    2885    5013
CTETRA      1251       1   14689   14692     236     385   14909    2899+
+           4995    4997    2901    2900
CTETRA      1252       1   14675   14676     385     333   14845    2912+
+           5009    5012    2596    2885
CTETRA      1253       1   13482   13483   13487     263   14002   14015+
+          14018    5014    3515    2218
CTETRA      1254       1   14656   14664     260     181   14804    2238+
+           3860    5015    2240    2239
CTETRA      1255       1   16308     170   16374      50    4972    5016+
+          16618    5017    5018    5019
CTETRA      1256       1   14667     490   14668     491    3507    5020+
+          14814    3509    3508    5021
CTETRA      1257       1   11674     278     678     589    4220    5022+
+           5023    4221    4223    5024
CTETRA      1258       1   16308      50   16370      49    5017    1400+
+          16627    4740    1397    1399
CTETRA      1259       1   12412   12413     596     679   12489    5025+
+           5026    5027    5028    5029
CTETRA      1260       1   15555     271      50     436    5030    2262+
+           5031    5032    5033    5034
CTETRA      1261       1   11667      86     673     680    4937    4940+
+           4939    5035    5036    5037
CTETRA      1262       1   18033   13538   13463      32   14182   14181+
+          13957    1337    1523    1329
CTETRA      1263       1   11665     278     588     591    4229    4219+
+           5038    4232    4234    5039
CTETRA      1264       1   13588     310   13598     578    3667    5040+
+          14395    5041    5042    4136
CTETRA      1265       1   13587     578   13597     515    5043    5044+
+          14374    5045    5046    3629
CTETRA      1266       1   16970   16974   16973     361   17064   17067+
+          17065    2707    3492    5047
CTETRA      1267       1   14732     578     527     581    5048    5049+
+           5050    5051    5052    5053
CTETRA      1268       1   18066   16864     681     682   16943    5054+
+           5055    5056    5057    5058
CTETRA      1269       1   16873     361     683     684    5059    5060+
+           5061    5062    5063    5064
CTETRA      1270       1   13588     310     578     527    3667    5042+
+           5041    5065    3702    5049
CTETRA      1271       1   17338   11970   11980     394   12166   12209+
+          12208    5066    2932    5067
CTETRA      1272       1   12733     391     341     395    5068    2946+
+           3411    3425    2934    3426
CTETRA      1273       1   17280   17281   13164     399   17285   13200+
+          13199    2958    5069    2959
CTETRA      1274       1   13587     578     515     581    5043    5046+
+           5045    5070    5052    5071
CTETRA      1275       1   12718     232     394     233    2101    2930+
+           2929    2104    2103    4754
CTETRA      1276       1   17395   12718   12732     233   12854   12853+
+          12852    5072    2104    4755
CTETRA      1277       1   17447   12765     330     331   13016    4007+
+           4009    5073    5074    2564
CTETRA      1278       1   12703   12766   12765     331   13020   13019+
+          13018    5075    5076    5074
CTETRA      1279       1   17330   11958   11957     346   12115   12119+
+          12114    4014    5077    5078
CTETRA      1280       1   12765   12766   12781     439   13019   13063+
+          13064    5079    5080    5081
CTETRA      1281       1   12778   12781     439     443   13062    5081+
+           5082    4341    5083    5084
CTETRA      1282       1   11951   11954   11955     439   12094   12102+
+          12100    5085    5086    5087
CTETRA      1283       1   12704     499     128     329    5088    5089+
+           2559    2567    5090    5091
CTETRA      1284       1   17497   12779   12777     443   13049   13051+
+          13045    5092    5093    3250
CTETRA      1285       1   12779     344     443     685    5094    5095+
+           5093    5096    5097    5098
CTETRA      1286       1   12778   12779   12781     443   13056   13066+
+          13062    4341    5093    5083
CTETRA      1287       1   12779   12780     344     685   13058    5099+
+           5094    5096    5100    5097
CTETRA      1288       1   13626     546     659     168    5101    5102+
+           5103    1840    5104    5105
CTETRA      1289       1   12781     344     330     439    5106    5107+
+           4029    5081    5108    5109
CTETRA      1290       1   13580   13590     366     317   14367    4031+
+           5110    3400    5111    2735
CTETRA      1291       1   14743   14746     366     317   15111    2734+
+           5112    5113    2736    2735
CTETRA      1292       1   12731   12732     394     655   12857    4753+
+           5114    5115    4720    4717
CTETRA      1293       1   12731     394     395     655    5114    2935+
+           5116    5115    4717    4716
CTETRA      1294       1   13457   13460     559     674   13935    4962+
+           5117    5118    4963    4951
CTETRA      1295       1   12776     437   12783     438    3220    5119+
+          13077    3222    3221    5120
CTETRA      1296       1   18086   17338   11980     561   17346   12208+
+          12207    3957    3959    5121
CTETRA      1297       1   11950     438   11951     439    5122    5123+
+          12091    5124    3225    5085
CTETRA      1298       1   17464   18093   12621     686   17494   12702+
+          12701    5125    5126    5127
CTETRA      1299       1   18090   12621   17389     687   12699   12700+
+          17390    5128    5129    5130
CTETRA      1300       1   13483     490     181     263    3514    3937+
+           3935    3515    3511    2227
CTETRA      1301       1   11941   11951     437     128   12087    5131+
+           5132    5133    5134    5135
CTETRA      1302       1   14726     515   14727     435    3638    5136+
+          15079    3639    3633    3651
CTETRA      1303       1   12407   12408   12428     339   12469   12468+
+          12467    5137    3312    5138
CTETRA      1304       1   14725     424     321     578    5139    3287+
+           4139    5140    4138    4137
CTETRA      1305       1   12427      99     688     586    5141    5142+
+           5143    4664    5144    5145
CTETRA      1306       1   12017   12021     339     458   12342    3728+
+           5146    5147    3718    5148
CTETRA      1307       1   12741   12742   12755     339   12908   12959+
+          12958    5149    5150    5151
CTETRA      1308       1   12406   12407      99     603   12465    5152+
+           5153    4310    5154    5155
CTETRA      1309       1   17296   12408   12407     457   12591   12469+
+          12594    5156    3313    5157
CTETRA      1310       1   13597     578     424     515    5044    4138+
+           3631    3629    5046    3630
CTETRA      1311       1   17982   18091   17289     606   17983   17320+
+          12518    4326    5158    5159
CTETRA      1312       1   14759     427     424      79    4132    3288+
+           3170    5160    3131    3112
CTETRA      1313       1   14759   14770     427      79   15205    5161+
+           4132    5160    4056    3131
CTETRA      1314       1   17982   17308   18091     476   12568   17309+
+          17983    3432    3434    5162
CTETRA      1315       1   13480     537     557     490    3777    4075+
+           4073    3778    3779    3942
CTETRA      1316       1   14712       7   14719     553    2795    4523+
+          15036    4467    4459    4058
CTETRA      1317       1   17982     476   18091     606    3432    5162+
+          17983    4326    5163    5158
CTETRA      1318       1   17308   12420     365     689   12567    2728+
+           5164    5165    5166    5167
CTETRA      1319       1   14657     654     377     376    4709    5168+
+           5169    4714    4713    5170
CTETRA      1320       1   14657     377   14715     376    5169    2797+
+          15011    4714    5170    5171
CTETRA      1321       1   17307   17308   12419     312   17311   12570+
+          12569    3442    5172    2444
CTETRA      1322       1   11986   12009     471     412   12307    3390+
+           5173    5174    3040    5175
CTETRA      1323       1   12421     471     690     691    4329    5176+
+           5177    5178    5179    5180
CTETRA      1324       1   13485   13490   13489     553   14006   14008+
+          14007    4458    4460    3919
CTETRA      1325       1   13491     377   13501     376    2790    5181+
+          14046    5182    5170    4727
CTETRA      1326       1   12401   12402     471     692   12445    5183+
+           5184    5185    5186    5187
CTETRA      1327       1   16379   16381     632     262   16652    4558+
+           4557    4562    4561    4567
CTETRA      1328       1   17761   15315     262     693   15359    5188+
+           2210    5189    5190    5191
CTETRA      1329       1   11671     694     695     696    5192    5193+
+           5194    5195    5196    5197
CTETRA      1330       1   18105   13191   17769     618   13349   13350+
+          17770    4432    4419    5198
CTETRA      1331       1   11671     695     694     697    5194    5193+
+           5192    5199    5200    5201
CTETRA      1332       1   11671     694      29     697    5192    5202+
+           1315    5199    5201    5203
CTETRA      1333       1   15543     632     630     262    5204    5205+
+           5206    2212    4567    5207
CTETRA      1334       1   17505   13194   13192     698   13362   13364+
+          13354    5208    5209    5210
CTETRA      1335       1   17876   16381   16378     262   16648   16650+
+          16641    5211    4561    4560
CTETRA      1336       1   17257   11670     256     257   11719    2187+
+           5212    5213    2188    2190
CTETRA      1337       1   16381     630     632     262    5214    5205+
+           4558    4561    5207    4567
CTETRA      1338       1   17876     262   15315     699    5211    5188+
+          15362    5215    5216    5217
CTETRA      1339       1   13621     111     113     700    1627    1626+
+           1624    5218    5219    5220
CTETRA      1340       1   13614     113     619     645    4426    4423+
+           4425    4620    4622    5221
CTETRA      1341       1   11766   11768   11767     588   11832   11835+
+          11833    5222    5223    5224
CTETRA      1342       1   11673     588   11674     701    5225    4218+
+          11695    5226    5227    5228
CTETRA      1343       1   12415   12435   12434     495   12497   12496+
+          12494    3531    3533    5229
CTETRA      1344       1   13619     113   13620     167    5230    1623+
+          14460    1837    5231    5232
CTETRA      1345       1   11672     189   11673     702    5233    5234+
+          11691    5235    5236    5237
CTETRA      1346       1   11663   11664   11673     189   11694   11693+
+          11692    1896    5238    5234
CTETRA      1347       1   17260   11673     701     702   11725    5226+
+           5239    5240    5237    5241
CTETRA      1348       1   14783   14786     113     167   15257    5242+
+           2507    1818    3030    5231
CTETRA      1349       1   14706     565     431     703    5243    5244+
+           5245    5246    5247    5248
CTETRA      1350       1   13178     135   13179     704    5249    5250+
+          13288    5251    5252    5253
CTETRA      1351       1   18009   18010   11569     705   18021   11651+
+          11654    5254    5255    5256
CTETRA      1352       1   13523     135     210     384    2357    5257+
+           2589    2872    5258    5259
CTETRA      1353       1   18008   18009   11568     706   18022   11653+
+          11656    5260    5261    5262
CTETRA      1354       1   17521   13178   13180     210   13294   13293+
+          13295    2005    3926    2006
CTETRA      1355       1   13178     210     555     707    3926    3929+
+           3928    5263    5264    5265
CTETRA      1356       1   13426     134     251     135    2355    3961+
+           5266    2356    1685    3962
CTETRA      1357       1   17829     422     708     709    3099    5267+
+           5268    5269    5270    5271
CTETRA      1358       1   13388     423   13389      44    3104    5272+
+          13686    5273    3308    5274
CTETRA      1359       1   13402     426     422     350    5275    5276+
+           3493    3495    5277    3125
CTETRA      1360       1   17828   16972   16969     614   17057   17059+
+          17047    5278    5279    4382
CTETRA      1361       1   16969   16972   16971     614   17059   17060+
+          17054    4382    5279    4383
CTETRA      1362       1   13426     251     674     135    5266    4959+
+           5280    2356    3962    4970
CTETRA      1363       1   17833      81     138     710    5281    1701+
+           5282    5283    5284    5285
CTETRA      1364       1   13426     674   13427     135    5280    5286+
+          13938    2356    4970    5287
CTETRA      1365       1   14677   14678   14697     210   14854   14933+
+          14932    2000    2587    5288
CTETRA      1366       1   13523   13531     134     169   14149    2372+
+           2354    1822    1824    2361
CTETRA      1367       1   14735     531   14736     532    3802    5289+
+          15053    3795    3751    3796
CTETRA      1368       1   13569     532     531     508    3752    3751+
+           3749    3732    5290    5291
CTETRA      1369       1   16400     638      13     220    4635    4638+
+           4637    4655    4656    5292
CTETRA      1370       1   17858   16224     220     506   16297    5293+
+           4651    5294    3583    5295
CTETRA      1371       1   15607   15608     144     505   15884    5296+
+           2753    3579    5297    5298
CTETRA      1372       1   17638   14730     531     542   15049    4122+
+           3801    5299    3824    4123
CTETRA      1373       1   15607      23     504     505    2756    5300+
+           3576    3579    5301    3580
CTETRA      1374       1   17853   16220   17854     149   16276   16277+
+          17869    1735    1737    2765
CTETRA      1375       1   17594   15345   15347     531   15507   15515+
+          15517    5302    5303    5304
CTETRA      1376       1   17854   16221   17855     270   16281   16282+
+          17870    5305    2254    2253
CTETRA      1377       1   17638   14730   14735     531   15049   15048+
+          15047    3801    4122    3802
CTETRA      1378       1   14735     533     508     711    3804    5306+
+           5307    5308    5309    5310
CTETRA      1379       1   15544     271   15555     632    5311    5030+
+          15693    5312    5313    5314
CTETRA      1380       1   16380     271     632     436    5315    5313+
+           5316    5317    5033    5318
CTETRA      1381       1   16023       9      14     712    5319    1286+
+           5320    5321    5322    5323
CTETRA      1382       1   17787   16020   17788     625   16180   16179+
+          17809    4507    4504    5324
CTETRA      1383       1   16312   16393     216      56   16699    5325+
+           2059    1421    5326    5327
CTETRA      1384       1   16021   16022      14     713   16111    5328+
+           5329    5330    5331    5332
CTETRA      1385       1   16021   16022   16041      14   16111   16110+
+          16109    5329    5328    3877
CTETRA      1386       1   17786   16022   16021     713   16175   16111+
+          16178    5333    5331    5330
CTETRA      1387       1   16036     266      83     714    4149    4896+
+           3134    5334    5335    5336
CTETRA      1388       1   15547     272     271     633    5337    5338+
+           5339    5340    5341    5342
CTETRA      1389       1   16387     632     271     633    5343    5313+
+           5344    5345    4570    5342
CTETRA      1390       1   15618   15619   15630     497   15947   15975+
+          15974    5346    3605    5347
CTETRA      1391       1   13622     434   13635     281    3192    5348+
+          14504    3180    3184    2320
CTETRA      1392       1   12780     715     344     716    5349    5350+
+           5099    5351    5352    5353
CTETRA      1393       1   18089     568   17330     569    5354    4017+
+          17339    4464    4020    4019
CTETRA      1394       1   13615     432   13622     428    3260    5355+
+          14467    3261    3167    3179
CTETRA      1395       1   17793   16014   17794     717   16192   16191+
+          17815    5356    5357    5358
CTETRA      1396       1   13622     428     432     434    3179    3167+
+           5355    3192    3191    5359
CTETRA      1397       1   16034     266   16035     526    4890    3679+
+          16084    4893    3683    3682
CTETRA      1398       1   14774   14775     432     428   15220    5360+
+           3163    3166    3198    3167
CTETRA      1399       1   12774     442     444     558    5361    5362+
+           3966    3969    5363    3970
CTETRA      1400       1   15579   15581     159     166   15797    1772+
+           1771    1810    1812    5364
CTETRA      1401       1   12774     442   12775     444    5361    3248+
+          13047    3966    5362    4856
CTETRA      1402       1   16316   16338   16317     166   16482   16481+
+          16483    4842    4472    4824
CTETRA      1403       1   12776     128     437     439    5365    5135+
+           3220    3223    5366    3224
CTETRA      1404       1   15577     158   15579     159    1782    5367+
+          15795    1770    1784    1771
CTETRA      1405       1   11929     276   11943     444    2283    5368+
+          12043    5369    5370    5371
CTETRA      1406       1   11943     276     311     444    5368    5372+
+           5373    5371    5370    5374
CTETRA      1407       1   11940   11943   11941     437   12038   12040+
+          12039    3241    5375    5132
CTETRA      1408       1   12772     276   12773     444    5376    3974+
+          13033    5377    5370    3967
CTETRA      1409       1   14704   14705   14710     703   14976   14985+
+          14987    5378    5379    5380
CTETRA      1410       1   17335     342   11960     301    2817    3396+
+          12127    5381    2630    5382
CTETRA      1411       1   13466   13467   13551      62   14037   14252+
+          14255    5383    1437    1436
CTETRA      1412       1   14707      60     565      61    3994    3996+
+           3993    5384    1434    5385
CTETRA      1413       1   14705     666   14710     703    5386    4816+
+          14985    5379    5387    5380
CTETRA      1414       1   14708     477     666     356    3439    4813+
+           4811    2687    3441    5388
CTETRA      1415       1   14708   14711   14710     666   14993   14994+
+          14986    4811    4810    4816
CTETRA      1416       1   13466     666     703      62    4829    5387+
+           5389    5383    4815    5390
CTETRA      1417       1   12722   12730     341     301   12847    3410+
+           2626    2628    5391    2629
CTETRA      1418       1   11667   11676     280      86   11705    3472+
+           2292    4937    5392    4938
CTETRA      1419       1   17452   14697   17453     135   14934   14935+
+          17460    1684    5393    4969
CTETRA      1420       1   13547     108     278     129    5394    5395+
+           5396    5397    4920    5398
CTETRA      1421       1   18095   17453     718     719   17459    5399+
+           5400    5401    5402    5403
CTETRA      1422       1   11960   11969     341     342   12161    2617+
+           5404    3396    2618    2620
CTETRA      1423       1   11963     417     342     378    3876    3412+
+           2816    2812    3415    3414
CTETRA      1424       1   17604      32   13463     720    1327    1329+
+          13954    5405    5406    5407
CTETRA      1425       1   17603   13463   13538      87   13955   14181+
+          14183    5408    5409    1526
CTETRA      1426       1   12721     417   12725     378    3063    5410+
+          12824    3413    3415    4156
CTETRA      1427       1   11937   11947     499     378   12069    5411+
+           5412    5413    5414    5415
CTETRA      1428       1   13421     130   13546     129    5416    1673+
+          14229    5417    1672    1671
CTETRA      1429       1   13421   13422   13546     130   13829   14227+
+          14229    5416    2947    1673
CTETRA      1430       1   11937     499     494     378    5412    3553+
+           5418    5413    5415    5419
CTETRA      1431       1   11937     417   11963     378    4898    3876+
+          12136    5413    3415    2812
CTETRA      1432       1   17383   15324   15326     345   15404   15406+
+          15402    5420    2636    2638
CTETRA      1433       1   13549     137     336     670    4914    2943+
+           4192    4888    4919    4889
CTETRA      1434       1   17448   14679   17449     137   14873   14874+
+          17455    1695    4917    1696
CTETRA      1435       1   18097   15341   15338     199   15485   15479+
+          15481    1954    1961    1960
CTETRA      1436       1   17603      86   13535     583    4930    5421+
+          14168    4199    5422    5423
CTETRA      1437       1   18097   17644   14687     199   17658   14892+
+          15311    1954    5424    2868
CTETRA      1438       1   11674     278   11675      39    4220    3476+
+          11699    1352    3475    1353
CTETRA      1439       1   17959   16963   16964     351   17015   17017+
+          17011    5425    5426    2666
CTETRA      1440       1   13625     659     721     168    5427    5428+
+           5429    5430    5105    5431
CTETRA      1441       1   13521     199   13522     106    1951    1966+
+          14126    1952    1953    1602
CTETRA      1442       1   17447     107   14685     185    1908    4851+
+          14879    1909    1885    4852
CTETRA      1443       1   17445   14687   17446     107   14889   14888+
+          17463    2867    2866    1605
CTETRA      1444       1   14782     320     721     168    2498    5432+
+           5433    5434    5435    5431
CTETRA      1445       1   17331   11956   17332     330   12106   12105+
+          17340    2639    2562    2561
CTETRA      1446       1   13483   13484   13488     181   13999   14010+
+          14014    3935    1866    1868
CTETRA      1447       1   13482     491     263     324    3518    3512+
+           5014    5436    5437    2837
CTETRA      1448       1   14664   14665     261     263   14809    5438+
+           2241    4690    5439    2220
CTETRA      1449       1   14780   14784   14782     168   15240   15243+
+          15238    5440    1820    5434
CTETRA      1450       1   13624     721   13625     659    5441    5429+
+          14471    5442    5428    5427
CTETRA      1451       1   13624   13648     660     659   14553    5443+
+           5444    5442    4773    4766
CTETRA      1452       1   14780     721   14788     659    5445    5446+
+          15274    5447    5428    5448
CTETRA      1453       1   14788     660   14791     659    5449    4767+
+          15284    5448    4766    4762
CTETRA      1454       1   17562     491   13182     722    5450    5451+
+          13302    5452    5453    5454
CTETRA      1455       1   17519   13482   13486     324   13996   14017+
+          14012    5455    5436    2840
CTETRA      1456       1   14680   14681   14688     235   14863   14901+
+          14902    2124    4846    2125
CTETRA      1457       1   17518     491   13183     492    3516    5456+
+          13310    5457    5458    3521
CTETRA      1458       1   13542     137   13549     237    4413    4914+
+          14219    5459    5460    5461
CTETRA      1459       1   13458   13459   13460     251   13932   13944+
+          13942    5462    5463    4961
CTETRA      1460       1   17338     394   11980     561    5066    5067+
+          12208    3959    5464    5121
CTETRA      1461       1   17197     189   13431     723    5465    5466+
+          13803    5467    5468    5469
CTETRA      1462       1   16862   16871   16870      34   16889   16888+
+          16886    3272    5470    5471
CTETRA      1463       1   13416   13418      43      35   13799    2678+
+           1364    1367    5472    1368
CTETRA      1464       1   14679     137     237     670    4917    5460+
+           5473    4918    4919    5474
CTETRA      1465       1   14679     237   14691     670    5473    5475+
+          14908    4918    5474    5476
CTETRA      1466       1   18068     448   16862     449    5477    3270+
+          16947    5478    3274    3273
CTETRA      1467       1   18069     452   16861     453    5479    3290+
+          16949    5480    3294    3293
CTETRA      1468       1   13541     236     237     670    2877    2139+
+           5481    5482    5483    5474
CTETRA      1469       1   13540   13541     237     670   14193    5481+
+           5484    5485    5482    5474
CTETRA      1470       1   18068   16862     448     572   16947    3270+
+           5477    5486    4069    4071
CTETRA      1471       1   17639     508   15347     711    5487    3758+
+          15524    5488    5310    5489
CTETRA      1472       1   18067     724   16863     725    5490    5491+
+          16945    5492    5493    5494
CTETRA      1473       1   17565     210   13178     704    5495    3926+
+          13287    5496    5497    5251
CTETRA      1474       1   17595   13571     508     392   14270    3588+
+           3731    2921    2923    3596
CTETRA      1475       1   13178     210     135     704    3926    5257+
+           5249    5251    5497    5252
CTETRA      1476       1   14738     532      63     508    3797    5498+
+           5499    5500    5290    3587
CTETRA      1477       1   13570      63     532     508    5501    5498+
+           5502    5503    3587    5290
CTETRA      1478       1   17595   13571   13569     508   14270   14272+
+          14268    3731    3588    3732
CTETRA      1479       1   12780   12782   12781     344   13070   13072+
+          13067    5099    5504    5106
CTETRA      1480       1   11948   11955   11954     329   12104   12102+
+          12103    2556    5505    5506
CTETRA      1481       1   13569   13570     532     508   14273    5502+
+           3752    3732    5503    5290
CTETRA      1482       1   13624     721     660     432    5441    5507+
+           5444    5508    5509    5510
CTETRA      1483       1   11955   11956   11957     330   12108   12112+
+          12111    4771    2562    4016
CTETRA      1484       1   13623     660   13634     434    5511    5512+
+          14511    5513    5514    5515
CTETRA      1485       1   14774     447     427     432    5516    3269+
+           3165    3163    5517    3164
CTETRA      1486       1   14770     428      79      80    4051    3132+
+           4056    4052    3174    1493
CTETRA      1487       1   14774   14790     447     432   15267    5518+
+           5516    3163    5519    5517
CTETRA      1488       1   17421   12439   17422     726   12559   12560+
+          17442    5520    5521    5522
CTETRA      1489       1   13616     447     721     432    5523    5524+
+           5525    5526    5517    5509
CTETRA      1490       1   14775   14789     432     434   15271    5527+
+           5360    3182    5528    5359
CTETRA      1491       1   13615     447   13616     432    3267    5523+
+          14450    3260    5517    5526
CTETRA      1492       1   13622     432   13623     434    5355    5529+
+          14468    3192    5359    5513
CTETRA      1493       1   14674   14675     182     259   14842    1870+
+           1869    5530    5011    5531
CTETRA      1494       1   12428     727     339     728    5532    5533+
+           5138    5534    5535    5536
CTETRA      1495       1   13508     654     182     259    5537    5538+
+           5539    5540    4712    5531
CTETRA      1496       1   12427     339   12428     688    5541    5138+
+          12466    5143    5542    5543
CTETRA      1497       1   13473   13474     620     196   13972    5544+
+           5545    5546    1937    5547
CTETRA      1498       1   17410   12427     688     586   12536    5143+
+           5548    4662    4664    5145
CTETRA      1499       1   13474     620     196     197    5544    5547+
+           1937    1939    5549    1936
CTETRA      1500       1   13401     132     326     133    1678    5550+
+           5551    1681    1680    5552
CTETRA      1501       1   14700     196     620     197    1933    5547+
+           5553    1934    1936    5549
CTETRA      1502       1   14717       1     620     573    5554    5555+
+           5556    5557    4539    5558
CTETRA      1503       1   11763   11764     189     635   11823    5559+
+           5560    5561    5562    5563
CTETRA      1504       1   11970   11978   11980     394   12197   12210+
+          12209    2932    3398    5067
CTETRA      1505       1   13441     635     189     571    5564    5563+
+           5565    4048    5566    5567
CTETRA      1506       1   13162   13164     394     398   13201    2966+
+           5568    5569    2956    5570
CTETRA      1507       1   11968     341   11971     395    2621    2622+
+          12169    5571    3426    5572
CTETRA      1508       1   13447   13448     635     636   13872    5573+
+           5574    5575    5576    4584
CTETRA      1509       1   11761     319   11765     635    5577    4372+
+          11815    4581    4576    5578
CTETRA      1510       1   11760   11765   11761     319   11813   11815+
+          11814    4367    4372    5577
CTETRA      1511       1   17420     503   12437     729    5579    3569+
+          12556    5580    5581    5582
CTETRA      1512       1   11761     635   11763     636    4581    5561+
+          11819    4582    4584    5583
CTETRA      1513       1   13442     319     635     730    2484    4576+
+           5584    5585    5586    5587
CTETRA      1514       1   13448     189     635     636    5588    5563+
+           5573    5576    5589    4584
CTETRA      1515       1   14658   14674     183     654   14840    5590+
+           5591    5592    5593    5594
CTETRA      1516       1   14670   14674     654     259   14841    5593+
+           4708    2204    5530    4712
CTETRA      1517       1   14658     183     377     654    5591    5595+
+           5596    5592    5594    5168
CTETRA      1518       1   13502     377     183     654    5597    5595+
+           1872    5598    5168    5594
CTETRA      1519       1   12762     364   12763     147    5599    5600+
+          13035    5601    5602    5603
CTETRA      1520       1   13502     183   13508     654    1872    1874+
+          14086    5598    5594    5537
CTETRA      1521       1   12764   12802     547     471   13152    3882+
+           5604    5605    5606    5607
CTETRA      1522       1   11941     437     126     128    5132    5608+
+           4364    5133    5135    1668
CTETRA      1523       1   17422   12439   12440     313   12560   12516+
+          12561    5609    2453    5610
CTETRA      1524       1   14758     321   14759     427    2509    4133+
+          15156    3283    3284    4132
CTETRA      1525       1   13500     654   13508     259    5611    5537+
+          14081    2214    4712    5540
CTETRA      1526       1   13489   13501   13500     260   14047   14049+
+          14048    3921    4729    2213
CTETRA      1527       1   13437     129     588     636    5612    5613+
+           5614    5615    5616    5617
CTETRA      1528       1   17939   17131   17132     350   17158   17164+
+          17162    5618    5619    5620
CTETRA      1529       1   16963     326     350     731    5621    5622+
+           5623    5624    5625    5626
CTETRA      1530       1   11663   11664     189     732   11694    5238+
+           1896    5627    5628    5629
CTETRA      1531       1   17406   12422   12423     239   12527   12446+
+          12528    2130    2132    5630
CTETRA      1532       1   12785   12792     100     657   13109    3964+
+           3963    4739    4738    5631
CTETRA      1533       1   12793   12794   12795     471   13123   13128+
+          13149    5632    5633    5634
CTETRA      1534       1   11996     241   12009     425    4870    3387+
+          12309    4349    4732    3115
CTETRA      1535       1   17958   16964   16959     350   17010   17012+
+          17008    2664    2663    3123
CTETRA      1536       1   16959     350     426     733    3123    5277+
+           3126    5635    5636    5637
CTETRA      1537       1   17939     350   13401     132    5618    5638+
+          13715    5639    5640    1678
CTETRA      1538       1   17405   12421   12422     238   12525   12442+
+          12526    5641    4331    2129
CTETRA      1539       1   12419   12420     311     312   12515    2727+
+           2441    2444    5642    2445
CTETRA      1540       1   13478     573   13481     537    5643    4076+
+          13983    5644    4078    4074
CTETRA      1541       1   14701   14718     573     537   15031    4781+
+           5645    5646    5647    4078
CTETRA      1542       1   12419   12420   12439     311   12515   12514+
+          12513    2441    2727    2452
CTETRA      1543       1   11930   11931   11944     364   12046   12045+
+          12044    5648    5649    5650
CTETRA      1544       1   12763   12764     547     364   13028    5604+
+           5651    5600    5652    5653
CTETRA      1545       1   12440     734     364     607    5654    5655+
+           5656    4335    5657    5658
CTETRA      1546       1   17982     547     476     606    4325    5659+
+           3432    4326    4328    5163
CTETRA      1547       1   12401   12422   12421     471   12443   12442+
+          12441    5184    4330    4329
CTETRA      1548       1   15581     314     420     159    4680    4673+
+           4678    1772    2460    3092
CTETRA      1549       1   11930   11991   11990     147   12224   12225+
+          12221    5660    5661    5662
CTETRA      1550       1   17981     735     364     736    5663    5664+
+           4337    5665    5666    5667
CTETRA      1551       1   12422     241     239     737    5668    5669+
+           2132    5670    5671    5672
CTETRA      1552       1   12763   12764   12802     547   13028   13152+
+          13153    5651    5604    3882
CTETRA      1553       1   12607     411     412     564    3987    3043+
+           5673    3988    3990    5674
CTETRA      1554       1   11995   12009   12010     411   12316   12317+
+          12312    3038    3042    3039
CTETRA      1555       1   14771     281      80     285    5675    3177+
+           4053    5676    2317    2859
CTETRA      1556       1   16338     158     159     166    5677    1784+
+           5678    4472    4862    5364
CTETRA      1557       1   12707      99     101     416    4698    1586+
+           5679    3056    4323    5680
CTETRA      1558       1   11999     100     102     101    1588    5681+
+           1590    1589    1587    1593
CTETRA      1559       1   12707      99   12756     101    4698    3757+
+          12968    5679    1586    3351
CTETRA      1560       1   11982      99   12001     101    3730    1582+
+          12258    1597    1586    1585
CTETRA      1561       1   11994   11999     102     103   12261    1590+
+           5682    5683    1592    1591
CTETRA      1562       1   12789     469     102     646    4872    5684+
+           5685    4875    4874    5686
CTETRA      1563       1   12404   12425   12424     100   12455   12454+
+          12452    3058    3025    3374
CTETRA      1564       1   12707   12708     100     101   12969    5687+
+           4305    5679    5688    1587
CTETRA      1565       1   14657   14715   14712     376   15011   15013+
+          15012    4714    5171    2798
CTETRA      1566       1   13501     377   13502     654    5181    5597+
+          14062    4728    5168    5598
CTETRA      1567       1   14657   14658     377     654   14839    5596+
+           5169    4709    5592    5168
CTETRA      1568       1   14658   14702     377     566   15008    5689+
+           5596    5690    5691    5692
CTETRA      1569       1   13490   13491   13501     376   14021   14046+
+          14045    2781    5182    4727
CTETRA      1570       1   17496     442   12774     738    5693    5361+
+          13037    5694    5695    5696
CTETRA      1571       1   12775   12778   12776     438   13052   13054+
+          13053    3247    4340    3222
CTETRA      1572       1   12766   12776   12781     439   13065   13061+
+          13063    5080    3223    5081
CTETRA      1573       1   17381   15325   15327     442   15411   15417+
+          15415    5697    5698    5699
CTETRA      1574       1   12776   12778   12781     439   13054   13062+
+          13061    3223    5082    5081
CTETRA      1575       1   17330   11957   17331     346   12114   12113+
+          17348    4014    5078    2642
CTETRA      1576       1   17496   15327   15325     442   15418   15417+
+          15414    5693    5699    5698
CTETRA      1577       1   11930   11990   11931     364   12221   12220+
+          12046    5648    5700    5649
CTETRA      1578       1   12776     438   12778     439    3222    4340+
+          13054    3223    3225    5082
CTETRA      1579       1   17497   12779     443     685   13049    5093+
+           5092    5701    5096    5098
CTETRA      1580       1   15325     442     604     739    5698    5702+
+           4317    5703    5704    5705
CTETRA      1581       1   12762     276     364     147    5706    5707+
+           5599    5601    3947    5602
CTETRA      1582       1   11930   11944   11943     311   12044   12049+
+          12047    5708    5709    5373
CTETRA      1583       1   17308   12420   12419     312   12567   12515+
+          12570    5172    5642    2444
CTETRA      1584       1   17381   11928   11939     442   12037   12034+
+          12032    5697    5710    3235
CTETRA      1585       1   12777   12779   12778     443   13051   13056+
+          13055    3250    5093    4341
CTETRA      1586       1   13441   13442   13447     635   13857   13881+
+          13878    5564    5584    5574
CTETRA      1587       1   17214   11765     613     740   11811    4374+
+           5711    5712    5713    5714
CTETRA      1588       1   11761   11762     610     636   11820    5715+
+           4580    4582    5716    4583
CTETRA      1589       1   13592      25     318     440    5717    2481+
+           5718    5719    3229    5720
CTETRA      1590       1   14756      30      28     320    4980    1318+
+           5721    4644    2503    5722
CTETRA      1591       1   17214   11765   11760     613   11811   11813+
+          11809    5711    4374    4373
CTETRA      1592       1   13611      28      30     320    5723    1318+
+           5724    5725    5722    2503
CTETRA      1593       1   14721      30   14755     316    2483    2502+
+          15180    5726    2474    5727
CTETRA      1594       1   13611      30   13612     320    5724    2493+
+          14433    5725    2503    4628
CTETRA      1595       1   14775     432     428     434    5360    3167+
+           3198    3182    5359    3191
CTETRA      1596       1   13602   13612      30     316   14437    2493+
+           2471    2473    2494    2474
CTETRA      1597       1   17451   12730     301     395   12839    5391+
+           2392    5728    3424    3423
CTETRA      1598       1   17451     301     251     395    2392    3419+
+           2389    5728    3423    3422
CTETRA      1599       1   17451     251   17452     395    2389    3960+
+          17458    5728    3422    5729
CTETRA      1600       1   17337     395   11970     655    5730    2933+
+          12165    5731    4716    4715
CTETRA      1601       1   17452   12731     395     655   12850    5116+
+           5729    4718    5115    4716
CTETRA      1602       1   12730     341     301     395    3410    2629+
+           5391    3424    3426    3423
CTETRA      1603       1   13641   13642      20     296   14533    1507+
+           1506    4985    4984    5732
CTETRA      1604       1   16765   16766      20     388   16788    2895+
+           3889    5733    2896    2898
CTETRA      1605       1   13641     296      20     142    4985    5732+
+           1506    5734    5735    5736
CTETRA      1606       1   17832      20   17833     296    5737    1274+
+          17840    5738    5732    5739
CTETRA      1607       1   16222      23      24     258    5740    1283+
+           2195    2193    5741    5742
CTETRA      1608       1   17741   15599      24     501   15877    1282+
+           2256    5743    3565    5744
CTETRA      1609       1   15613      13   15614      24    5745    5746+
+          15921    1284    1295    2257
CTETRA      1610       1   17213   11764     741     742   11816    5747+
+           5748    5749    5750    5751
CTETRA      1611       1   17445     105     199     106    1971    1970+
+           1955    5752    1603    1953
CTETRA      1612       1   17445     346     105     106    2647    5753+
+           1971    5752    5754    1603
CTETRA      1613       1   14663     187   14687     199    3458    4835+
+          14890    5755    4967    2868
CTETRA      1614       1   13441   13442     635     730   13857    5584+
+           5564    5756    5585    5587
CTETRA      1615       1   17213   11764   11765     740   11816   11818+
+          11812    5757    5758    5713
CTETRA      1616       1   17195   13442   13441     730   13858   13857+
+          13856    5759    5585    5756
CTETRA      1617       1   17196   13441     571     743   13852    4048+
+           4047    5760    5761    5762
CTETRA      1618       1   16861   16862      34     449   16887    3272+
+           3292    5763    3273    3275
CTETRA      1619       1   13514   13522   13521     199   14121   14126+
+          14125    1995    1966    1951
CTETRA      1620       1   13392   13393   13404     614   13688   13725+
+          13724    5764    5765    4377
CTETRA      1621       1   16862     423      34     448    4067    3304+
+           3272    3270    4068    3271
CTETRA      1622       1   13412   13418   13417      35   13800   13801+
+          13791    1340    5472    1341
CTETRA      1623       1   16870      34   16871     665    5471    5470+
+          16888    4805    5766    5767
CTETRA      1624       1   17910   16870   16871     665   16920   16888+
+          16921    4803    4805    5767
CTETRA      1625       1   13507     107     187     199    1944    1882+
+           1945    2871    1950    4967
CTETRA      1626       1   15587   15622   15623     410   15930   15933+
+          15932    3033    3647    5768
CTETRA      1627       1   17446     109     346     106    4206    2644+
+           4207    1608    1616    5754
CTETRA      1628       1   17446   14685   17447     107   14885   14879+
+          17461    1605    4851    1908
CTETRA      1629       1   17848     155   16215     744    1761    1760+
+          16247    5769    5770    5771
CTETRA      1630       1   13640      20     141     142    3903    3906+
+           3905    5772    5736    1712
CTETRA      1631       1   17849   16216     519     745   16255    5773+
+           5774    5775    5776    5777
CTETRA      1632       1   14663   14686   14687     187   14882   14887+
+          14890    3458    1883    4835
CTETRA      1633       1   16008   16029   16028      92   16059   16058+
+          16056    5778    5779    5780
CTETRA      1634       1   16323   16330   16324      93   16432   16434+
+          16433    5781    5782    5783
CTETRA      1635       1   15544   15547     271     633   15642    5339+
+           5311    5784    5340    5342
CTETRA      1636       1   17445     107   17446     106    2867    1605+
+          17463    5752    1609    1608
CTETRA      1637       1   16325   16333   16332     164   16450   16449+
+          16448    5785    3838    1834
CTETRA      1638       1   17446     108     109     106    1607    4921+
+           4206    1608    1610    1616
CTETRA      1639       1   17446   17447     108     107   17461    4836+
+           1607    1605    1908    1606
CTETRA      1640       1   13513     187     107     185    1888    1882+
+           1921    1889    1886    1885
CTETRA      1641       1   11934     461     455     465    5786    3325+
+           4083    4084    5787    3341
CTETRA      1642       1   13564   13573   13572     551   14299   14302+
+          14297    4749    5788    5789
CTETRA      1643       1   12711     455     461     465    3324    3325+
+           3323    4307    3341    5787
CTETRA      1644       1   11934   11974     461     465   12174    5790+
+           5786    4084    3674    5787
CTETRA      1645       1   12734     465   12736     242    4089    5791+
+          12892    4091    4090    5792
CTETRA      1646       1   12711   12759     455     465   12998    4987+
+           3324    4307    4115    3341
CTETRA      1647       1   17679   16033   16034     746   16145   16080+
+          16146    5793    5794    5795
CTETRA      1648       1   12408   12429   12428     335   12471   12470+
+          12468    2605    3333    5796
CTETRA      1649       1   13191     211     166     626    2310    2237+
+           4902    4510    4877    5797
CTETRA      1650       1   12759     455     465     462    4987    3341+
+           4115    4116    3329    3342
CTETRA      1651       1   15619   15620   15633     512   15950   15988+
+          15986    3606    5798    3607
CTETRA      1652       1   17729   15620     510     747   15942    3598+
+           5799    5800    5801    5802
CTETRA      1653       1   13650     163   13655     546    5803    5804+
+          14575    5805    5806    5807
CTETRA      1654       1   13650     163     546     119    5803    5806+
+           5805    5808    5809    5810
CTETRA      1655       1   13172     368     369     676    3428    2744+
+           3427    5001    5811    5002
CTETRA      1656       1   13625   13649   13647     659   14561   14563+
+          14555    5427    5812    4774
CTETRA      1657       1   17714     163     546     188    5813    5806+
+           5814    5815    5816    5817
CTETRA      1658       1   17736   15610   17737     748   15893   15894+
+          17750    5818    5819    5820
CTETRA      1659       1   13647     546   13656     354    5821    5822+
+          14580    4775    5823    5824
CTETRA      1660       1   17714     546   14794     353    5814    5825+
+          15292    5826    5827    4777
CTETRA      1661       1   14794     353     546     354    4777    5827+
+           5825    4778    2675    5823
CTETRA      1662       1   16343     497     266     512    5828    5829+
+           2229    4865    3608    3856
CTETRA      1663       1   15632   15635   15633     512   15998   15996+
+          15989    5830    4900    3607
CTETRA      1664       1   13656     546     188     353    5822    5817+
+           5831    5832    5827    5833
CTETRA      1665       1   16343   16350     497     512   16528    5834+
+           5828    4865    5835    3608
CTETRA      1666       1   13652   13655     163     546   14584    5804+
+           3870    5836    5807    5806
CTETRA      1667       1   15537   15538     157     158   15789    1766+
+           3893    3901    1767    1769
CTETRA      1668       1   13652   13656   13655     546   14586   14583+
+          14584    5836    5822    5807
CTETRA      1669       1   16365     749     217     750    5837    5838+
+           5839    5840    5841    5842
CTETRA      1670       1   16033     582     156     746    4188    4190+
+           4187    5794    5843    5844
CTETRA      1671       1   16032     162   16033     582    5845    4186+
+          16076    5846    4189    4188
CTETRA      1672       1   17760   15317     750     634   15364    5847+
+           5848    5849    4574    5850
CTETRA      1673       1   16316   16340   16338     158   16497   16496+
+          16482    5851    5852    5677
CTETRA      1674       1   13578   13579     523     370   14328    5853+
+           5854    5855    5856    4450
CTETRA      1675       1   16378     262     633     750    4560    4569+
+           5857    5858    5859    5860
CTETRA      1676       1   16377   16378     633     750   16646    5857+
+           5861    5862    5858    5860
CTETRA      1677       1   15580     314   15581     166    5863    4680+
+          15803    1811    5864    1812
CTETRA      1678       1   17875   16378   16365     750   16640   16643+
+          16642    5865    5858    5840
CTETRA      1679       1   17875     750   15317     751    5865    5847+
+          15367    5866    5867    5868
CTETRA      1680       1   17678   17679   16034     752   17695   16146+
+          16147    5869    5870    5871
CTETRA      1681       1   14747     318      25     440    4999    2481+
+           3226    3228    5720    3229
CTETRA      1682       1   16015     266     374     375    4146    5872+
+           2774    2777    4148    2778
CTETRA      1683       1   16014     266   16034     156    4891    4890+
+          16081    5873    3909    5874
CTETRA      1684       1   14721   14722   14755      30   15119   15178+
+          15180    2483    1330    2502
CTETRA      1685       1   16315   16363   16364     157   16602   16600+
+          16605    3861    2026    2232
CTETRA      1686       1   15538   15578   15563     156   15778   15777+
+          15729    1764    4225    5875
CTETRA      1687       1   14783     113     174     167    2507    2491+
+           2505    1818    5231    1842
CTETRA      1688       1   14753     619   14754     113    5876    4420+
+          15176    5877    4423    2506
CTETRA      1689       1   17678   16035     525     526   16148    3681+
+           4163    4892    3682    3684
CTETRA      1690       1   14780     721     659     168    5445    5428+
+           5447    5440    5431    5105
CTETRA      1691       1   13602     440   13603     316    5878    5879+
+          14407    2473    4428    4435
CTETRA      1692       1   17679   16034     752     753   16146    5871+
+           5870    5880    5881    5882
CTETRA      1693       1   14721      25      30     316    2482    1331+
+           2483    5726    2475    2474
CTETRA      1694       1   14720     440   14721     316    4427    3227+
+          15122    4429    4428    5726
CTETRA      1695       1   17450   12722   12724     300   12810   12813+
+          12812    5883    5884    2809
CTETRA      1696       1   13534   13535   13537     105   14170   14172+
+          14171    1601    4929    5885
CTETRA      1697       1   18089   15339   15340      86   15486   15475+
+          15487    4933    4932    4931
CTETRA      1698       1   11970   11971     391     395   12168    2945+
+           2931    2933    5572    2934
CTETRA      1699       1   17336     251     250     301    2201    2172+
+           2203    3420    3419    2384
CTETRA      1700       1   17986     754     755     756    5886    5887+
+           5888    5889    5890    5891
CTETRA      1701       1   17330   11756      86     481   11791    5892+
+           5893    3462    5894    5895
CTETRA      1702       1   17450   17451     301     252   17456    2392+
+           5896    5897    2391    2386
CTETRA      1703       1   11960     341   11968     301    5404    2621+
+          12157    5382    2629    5898
CTETRA      1704       1   16860      35     352     757    5899    2670+
+           4486    5900    5901    5902
CTETRA      1705       1   17585   13415      41     593   13779    2677+
+           4252    5903    4244    5904
CTETRA      1706       1   17585   13415   13413      41   13779   13780+
+          13764    4252    2677    4599
CTETRA      1707       1   17710      43     226     758    2107    2070+
+           2108    5905    5906    5907
CTETRA      1708       1   14782     174     320     168    2501    2500+
+           2498    5434    1843    5435
CTETRA      1709       1   17825   17826      40      35   17843    1372+
+           1354    1357    1373    1358
CTETRA      1710       1   17716     119   17717     759    5908    5909+
+          17721    5910    5911    5912
CTETRA      1711       1   17991   17245   11582     397   11639   11638+
+          11640    5913    4950    2953
CTETRA      1712       1   17825     536      41     641    3772    3774+
+           1356    4605    5914    4606
CTETRA      1713       1   14783   14785   14786     167   15252   15258+
+          15257    1818    3031    3030
CTETRA      1714       1   13386   13418   13415      43   13796   13792+
+          13794    2067    2678    2105
CTETRA      1715       1   17634   14766     383     222   15183    3068+
+           3067    5915    2058    5916
CTETRA      1716       1   17710     593      41     758    5917    5904+
+           5918    5905    5919    5920
CTETRA      1717       1   13386   13630   13638     225   14493   14512+
+          14514    2065    2081    2581
CTETRA      1718       1   14777   14797   14795     332   15304   15302+
+          15295    3159    5921    5922
CTETRA      1719       1   14776     434     281     332    3181    3184+
+           2296    3160    3189    3188
CTETRA      1720       1   17447   17448     331     136   17454    5923+
+           5073    4946    1687    2572
CTETRA      1721       1   17447     193     185     195    1910    1912+
+           1909    1918    4839    1919
CTETRA      1722       1   17446     330     109     108    4006    2640+
+           4206    1607    5924    4921
CTETRA      1723       1   13543     137     108     131    5925    5926+
+           5927    5007    1697    1692
CTETRA      1724       1   17447   17448   12703     331   17454   12803+
+          12804    5073    5923    5075
CTETRA      1725       1   13633   13635     434     281   14507    5348+
+           3186    3185    2320    3184
CTETRA      1726       1   13382   13383   13652     188   13680   14595+
+          14594    1890    1892    5928
CTETRA      1727       1   14776   14777   14795     332   15226   15295+
+          15294    3160    3159    5922
CTETRA      1728       1   17715   17716     546     119   17720    5929+
+           5930    5931    5908    5810
CTETRA      1729       1   14792     660     434     332    5932    5514+
+           5933    5934    5935    3189
CTETRA      1730       1   14771   14772     281     285   15210    2297+
+           5675    5676    2318    2317
CTETRA      1731       1   14766     221     383     222    2055    2854+
+           3068    2058    2057    5916
CTETRA      1732       1   17445   17446   12782     346   17463   13069+
+          13068    2647    4207    5936
CTETRA      1733       1   17332     278     109     108    4193    4196+
+           4195    4925    5395    4921
CTETRA      1734       1   17445     199     107     106    1955    1950+
+           2867    5752    1953    1609
CTETRA      1735       1   14776   14792     434     332   15278    5933+
+           3181    3160    5934    3189
CTETRA      1736       1   13633     434   13634     332    3186    5515+
+          14509    3187    3189    5937
CTETRA      1737       1   13393     614     423     283    5765    5938+
+           3103    3105    5939    3106
CTETRA      1738       1   11770   11773   11772      96   11860   11861+
+          11855    4553    2980    2995
CTETRA      1739       1   13443   13451   13450     401   13891   13889+
+          13888    3257    2976    2975
CTETRA      1740       1   13389      34   13416      44    5940    5941+
+          13787    5274    5942    1366
CTETRA      1741       1   13432   13433   13450      96   13825   13883+
+          13884    1565    2379    2982
CTETRA      1742       1   13420   13421   13547     129   13833   14230+
+          14231    5943    5417    5397
CTETRA      1743       1   11763     189     588     636    5560    5944+
+           5945    5583    5589    5617
CTETRA      1744       1   13420   13437   13421     129   13832   13831+
+          13833    5943    5612    5417
CTETRA      1745       1   17828      47      44     283    5946    5947+
+           3309    5948    5949    5950
CTETRA      1746       1   17333     130   11762     129    5951    5952+
+          11828    5953    1672    5954
CTETRA      1747       1   13421   13437   13436     129   13831   13830+
+          13828    5417    5612    5955
CTETRA      1748       1   16379     632   16387     633    4557    5343+
+          16680    4568    4570    5345
CTETRA      1749       1   17448     136     130     677    1687    1694+
+           4493    5004    5956    5005
CTETRA      1750       1   15556   15557     267     268   15687    5957+
+           5958    2264    5959    2246
CTETRA      1751       1   17661   17662   13188     600   17665   13337+
+          13336    5960    5961    4292
CTETRA      1752       1   16376     272     749     633    5962    5963+
+           5964    5965    5341    5966
CTETRA      1753       1   16376   16387     272     633   16678    5967+
+           5962    5965    5345    5341
CTETRA      1754       1   15572     420     288     117    5968    5969+
+           5970    5971    3852    5972
CTETRA      1755       1   17831     288   16334     117    5973    5974+
+          16443    5975    5972    3851
CTETRA      1756       1   17715     117     119     118    5976    1641+
+           5931    5977    1639    1644
CTETRA      1757       1   17716   15572     288     117   15760    5970+
+           5978    5979    5971    5972
CTETRA      1758       1   17716     288     119     117    5978    5980+
+           5908    5979    5972    1641
CTETRA      1759       1   17828   16327      47     125   16410    5981+
+           5946    5982    5983    5984
CTETRA      1760       1   17712      47      45      48    5985    5986+
+           3212    3213    1389    3208
CTETRA      1761       1   12403   12404   12424     241   12453   12452+
+          12451    4343    5987    2138
CTETRA      1762       1     188      47     283     192    1903    5949+
+           5988    1907    1906    5989
CTETRA      1763       1   17244   11581   11582     396   11636   11614+
+          11637    5990    5991    2951
CTETRA      1764       1   17827   16307   16369      48   16408   16622+
+          16620    1388    1390    3206
CTETRA      1765       1   17712     225      44     192    5992    2548+
+           5993    5994    2552    2551
CTETRA      1766       1   13384      44   13385     192    5995    2547+
+          13782    5996    2551    2550
CTETRA      1767       1      44     283      47     192    5950    5949+
+           5947    2551    5989    1906
CTETRA      1768       1   13503   13510     235     430   14084    3144+
+           5997    3151    3146    3145
CTETRA      1769       1   12405   12406   12426      99   12461   12460+
+          12459    3027    5153    4697
CTETRA      1770       1   13516     235     236     182    2115    2118+
+           2117    3865    5998    4996
CTETRA      1771       1   13491   13502   13501     377   14061   14062+
+          14046    2790    5597    5181
CTETRA      1772       1   14681   14690   14688     235   14896   14903+
+          14901    4846    5999    2125
CTETRA      1773       1   14658     183   14659     566    5591    6000+
+          14897    5690    6001    6002
CTETRA      1774       1   14688     235   14690     182    2125    5999+
+          14903    6003    5998    6004
CTETRA      1775       1   13509     235   13516     182    6005    2115+
+          14111    6006    5998    3865
CTETRA      1776       1   18030   11666   11665     279   11745   11702+
+          11744    6007    2289    6008
CTETRA      1777       1   14674   14690     183     182   14894    6009+
+           5590    1869    6004    6010
CTETRA      1778       1   18046   18047   16767     496   18060   16852+
+          16855    6011    3534    3536
CTETRA      1779       1   14675     182     259     385    1870    5531+
+           5011    5009    3867    5010
CTETRA      1780       1   13502   13503     183     566   14068    6012+
+           1872    6013    6014    6001
CTETRA      1781       1   15316      46     630     760    6015    6016+
+           4547    6017    6018    6019
CTETRA      1782       1   16383   16385     630      46   16670    6020+
+           6021    6022    3217    6016
CTETRA      1783       1   17710      46   15561      40    6023    3209+
+          15718    6024    1384    3210
CTETRA      1784       1   18096   12421   17404     691   12523   12524+
+          17424    6025    5178    6026
CTETRA      1785       1   15553     630   15561      46    6027    6028+
+          15714    6029    6016    3209
CTETRA      1786       1   13604     282   13631     223    2303    6030+
+          14490    2060    6031    6032
CTETRA      1787       1   11954     128     499     329    6033    5089+
+           6034    5506    5091    5090
CTETRA      1788       1   17588     223   13632     598    2061    4270+
+          14494    4508    6035    4276
CTETRA      1789       1   17632     223   14773     470    6036    3381+
+          15213    6037    3385    3384
CTETRA      1790       1   12770     499     127     128    6038    3552+
+           2456    2450    5089    1669
CTETRA      1791       1   17632   14778   14773     223   15228   15230+
+          15213    6036    2092    3381
CTETRA      1792       1   12704     329   12723     378    2567    6039+
+          12817    6040    6041    2807
CTETRA      1793       1   17991   11582      97     397   11640    1576+
+           2998    5913    2953    6042
CTETRA      1794       1   14778     226   14797     223    2653    2652+
+          15305    2092    2654    2093
CTETRA      1795       1   13630   13632   13631     223   14499   14498+
+          14500    4269    4270    6032
CTETRA      1796       1   12428     339     335     728    5138    3725+
+           5796    5534    5536    6043
CTETRA      1797       1   17412     463   12429     464    6044    3331+
+          12540    6045    3335    3334
CTETRA      1798       1   14772   14773   14777     282   15216   15231+
+          15227    2298    6046    3161
CTETRA      1799       1   16366     749     639     638    6047    6048+
+           6049    6050    6051    6052
CTETRA      1800       1   13634     434     660     332    5515    5514+
+           5512    5937    3189    5935
CTETRA      1801       1   14764   14771   14770      80   15208   15207+
+          15206    4046    4053    4052
CTETRA      1802       1   14774   14775   14789     432   15220   15271+
+          15270    3163    5360    5527
CTETRA      1803       1   17296   17297   12408     456   17326   12592+
+          12591    6053    6054    3310
CTETRA      1804       1   12408   12409   12429     335   12473   12472+
+          12471    2605    2604    3333
CTETRA      1805       1   13623     432     660     434    5529    5510+
+           5511    5513    5359    5514
CTETRA      1806       1   12408     335   12428     339    2605    5796+
+          12468    3312    3725    5138
CTETRA      1807       1   12408     335     339     456    2605    3725+
+           3312    3310    6055    3311
CTETRA      1808       1   12407   12428   12427     339   12467   12466+
+          12464    5137    5138    5541
CTETRA      1809       1   17293   12405   12404     466   12597   12457+
+          12600    4353    3346    3345
CTETRA      1810       1   17992   11565     401     404   11616    6056+
+           2990    2992    6057    2993
CTETRA      1811       1   11931   11990   11989     547   12220   12219+
+          12218    6058    6059    6060
CTETRA      1812       1   13633   13635   13634     434   14507   14508+
+          14509    3186    5348    5515
CTETRA      1813       1   13606   13622   13635     281   14466   14504+
+          14503    3176    3180    2320
CTETRA      1814       1   14765     383   14766     285    2870    3068+
+          15199    2858    2851    4044
CTETRA      1815       1   14772     285     221     282    2318    2314+
+           4045    2298    2316    2304
CTETRA      1816       1   15621      88     153     203    1536    6061+
+           3616    6062    1993    4157
CTETRA      1817       1   17296     456   12408     457    6053    3310+
+          12591    5156    3314    3313
CTETRA      1818       1   16214     302     203     303    3623    4524+
+           2397    2399    6063    2400
CTETRA      1819       1   15625   15628     302     203   15963    6064+
+           6065    6066    3620    4524
CTETRA      1820       1   15621   15625      88     203   15946    6067+
+           1536    6062    6066    1993
CTETRA      1821       1   13623   13624   13648     660   14475   14553+
+          14552    5511    5444    5443
CTETRA      1822       1   12420   12440   12439     311   12517   12516+
+          12514    2727    6068    2452
CTETRA      1823       1   17981   12440     364     607   12564    5656+
+           4337    4336    4335    5658
CTETRA      1824       1   11930     364     311     276    5648    2725+
+           5708    2285    5707    5372
CTETRA      1825       1   11952   11953     127     126   12083    6069+
+           1666    1664    6070    1665
CTETRA      1826       1   16970     426     361     486    3118    3120+
+           2707    3500    3499    6071
CTETRA      1827       1   17940   13403   13402     426   13711   13713+
+          13712    6072    6073    5275
CTETRA      1828       1   17940   13403     426     761   13711    6073+
+           6072    6074    6075    6076
CTETRA      1829       1   14664   14671   14670     261   14829   14828+
+          14827    2241    6077    2207
CTETRA      1830       1   14656     260     553     181    3860    3920+
+           4469    5015    2239    3922
CTETRA      1831       1   17981   18096     735     736   17985    6078+
+           5663    5665    6079    5666
CTETRA      1832       1   13508     654     183     182    5537    5594+
+           1874    5539    5538    6010
CTETRA      1833       1   13499     259   13515     333    3858    6080+
+          14103    6081    5013    5003
CTETRA      1834       1   12748     335     152     433    3338    6082+
+           4991    3172    3339    3721
CTETRA      1835       1   12619     762     458     763    6083    6084+
+           6085    6086    6087    6088
CTETRA      1836       1   17351   12618   12619     762   12683   12689+
+          12687    6089    6090    6083
CTETRA      1837       1   17352     458   12618     764    6091    6092+
+          12682    6093    6094    6095
CTETRA      1838       1   17352   12617     458     765   12678    3316+
+           6091    6096    6097    6098
CTETRA      1839       1   14657   14670   14674     654   14826   14841+
+          14838    4709    4708    5593
CTETRA      1840       1   14693     134     336     670    2358    2599+
+           2625    4905    6099    4889
CTETRA      1841       1   14671   14675     259     333   14844    5011+
+           6100    2841    5012    5013
CTETRA      1842       1   14704   14707     565      61   14970    3993+
+           6101    6102    5384    5385
CTETRA      1843       1   12718   12731   12732     394   12858   12857+
+          12853    2929    5114    4753
CTETRA      1844       1   17395   12732     658     766   12852    4758+
+           6103    6104    6105    6106
CTETRA      1845       1   13467     703     565      61    6107    5247+
+           6108    1438    6109    5385
CTETRA      1846       1   11978   11979   11980     394   12204   12206+
+          12210    3398    6110    5067
CTETRA      1847       1   12732     394     658     766    4753    4759+
+           4758    6105    6111    6106
CTETRA      1848       1   14650   14738      64      63   15065    6112+
+           6113    6114    5499    1448
CTETRA      1849       1   13570      64     532      63    6115    4394+
+           5502    5501    1448    5498
CTETRA      1850       1   14649     570   14703      60    6116    6117+
+          14963    6118    4026    6119
CTETRA      1851       1   13469     570   13553      60    4024    6120+
+          14266    4025    4026    4384
CTETRA      1852       1   17335      96   11770     254    6121    4553+
+          11848    4492    2378    6122
CTETRA      1853       1   13446   13447   13449     610   13875   13879+
+          13880    6123    6124    4565
CTETRA      1854       1   17334   17335   11770     254   17343   11848+
+          11847    2830    4492    6122
CTETRA      1855       1   14649     570      60     617    6116    4026+
+           6118    6125    6126    6127
CTETRA      1856       1   17337   11780     767     768   11894    6128+
+           6129    6130    6131    6132
CTETRA      1857       1   13433   13446   13450      96   13866   13885+
+          13883    2379    6133    2982
CTETRA      1858       1   14703     570     372      60    6117    4023+
+           2770    6119    4026    3995
CTETRA      1859       1   14648     580     570     617    6134    6135+
+           6136    6137    6138    6126
CTETRA      1860       1   17330     480   11756     481    3461    6139+
+          11791    3462    3464    5894
CTETRA      1861       1   12703     329   12766     331    2566    2568+
+          13020    5075    2570    5076
CTETRA      1862       1   13470   13554     570       8   14260    6140+
+           6141    4785    6142    6143
CTETRA      1863       1   13469   13491   13470     373   14027   14020+
+          14028    6144    2791    6145
CTETRA      1864       1   18009   11569   11568     705   11654   11599+
+          11653    5254    5256    6146
CTETRA      1865       1   15626   15627     153     204   15958    6147+
+           6148    6149    1977    6150
CTETRA      1866       1   14648     570   14649     617    6136    6116+
+          14967    6137    6126    6125
CTETRA      1867       1   16220     149      23     371    1737    6151+
+           6152    2768    2767    6153
CTETRA      1868       1   14648   14714     570       8   15005    6154+
+           6136    6155    4782    6143
CTETRA      1869       1   13466      62   13550     667    5383    6156+
+          14258    4830    4818    6157
CTETRA      1870       1   17856      24   16223     769    2194    2196+
+          16291    6158    6159    6160
CTETRA      1871       1   16371   16388   16387     272   16686   16684+
+          16683    6161    6162    5967
CTETRA      1872       1   17803     770   16005     771    6163    6164+
+          16124    6165    6166    6167
CTETRA      1873       1   13466     703   13467      62    5389    6107+
+          14037    5383    5390    1437
CTETRA      1874       1   17332     109     330     108    4195    2640+
+           2561    4925    4921    5924
CTETRA      1875       1   11955     439     329     331    5087    6168+
+           5505    4772    6169    2570
CTETRA      1876       1   11948   11955     329     331   12104    5505+
+           2556    2569    4772    2570
CTETRA      1877       1   17977   18108     772     773   17978    6170+
+           6171    6172    6173    6174
CTETRA      1878       1   16366   16376     639     749   16636    6175+
+           6049    6047    5964    6048
CTETRA      1879       1   16005     770     639     771    6164    6176+
+           6177    6167    6166    6178
CTETRA      1880       1   17332     108     330     331    4925    5924+
+           2561    2563    6179    2564
CTETRA      1881       1   17332     331   11948     136    2563    2569+
+          12060    4926    2572    2571
CTETRA      1882       1   12411     461     454     774    6180    3367+
+           6181    6182    6183    6184
CTETRA      1883       1   16028     267      92     775    6185    4908+
+           5780    6186    6187    6188
CTETRA      1884       1   16008      92   16028     267    5778    5780+
+          16056    6189    4908    6185
CTETRA      1885       1   15540   15541   15567     171   15676   15740+
+          15739    4735    4979    3711
CTETRA      1886       1   15541   15542   15566      93   15678   15742+
+          15741    1557    1559    1790
CTETRA      1887       1   16325   16328   16326     116   16425   16417+
+          16426    3707    1670    1657
CTETRA      1888       1   15541   15549   15542      92   15677   15671+
+          15678    1555    6190    1556
CTETRA      1889       1   18105   17769   16212     776   17770   16232+
+          16231    6191    6192    6193
CTETRA      1890       1   16008      92     267     777    5778    4908+
+           6189    6194    6195    6196
CTETRA      1891       1   16323      92      93     173    6197    1558+
+           5781    6198    4256    4304
CTETRA      1892       1   16030      92     173     778    4311    4256+
+           4312    6199    6200    6201
CTETRA      1893       1   11765     319     613     740    4372    4375+
+           4374    5713    6202    5714
CTETRA      1894       1   11771     319     401     612    4368    6203+
+           6204    4371    4370    6205
CTETRA      1895       1   13443     401     319     662    3257    6203+
+           2485    4796    6206    4797
CTETRA      1896       1   16021   16041      59      14   16109    6207+
+           4503    5329    3877    6208
CTETRA      1897       1   16041      59     467     468    6207    6209+
+           3352    3355    6210    3356
CTETRA      1898       1   16022   16042   16041      14   16113   16112+
+          16110    5328    3878    3877
CTETRA      1899       1   17785   16022   17786     779   16176   16175+
+          17807    6211    6212    6213
CTETRA      1900       1   16023   16043   16042      14   16117   16116+
+          16114    5320    6214    3878
CTETRA      1901       1   12413   12414     780     781   12493    6215+
+           6216    6217    6218    6219
CTETRA      1902       1   18102     782   17769     783    6220    6221+
+          17771    6222    6223    6224
CTETRA      1903       1   15620   15632   15633     512   15985   15989+
+          15988    5798    5830    3607
CTETRA      1904       1   13450      96     319     401    2982    4563+
+           6225    2975    2983    6203
CTETRA      1905       1   11771     319   11772     401    4368    6226+
+          11857    6204    6203    2996
CTETRA      1906       1   13449   13450      96     319   13886    2982+
+           4564    2486    6225    4563
CTETRA      1907       1   13517   13541     236     237   14190    2877+
+           2119    2121    5481    2139
CTETRA      1908       1   13601      25   13602      30    1299    2472+
+          14403    1317    1331    2471
CTETRA      1909       1   16348     410     519      55    3036    3650+
+           6227    3024    3034    6228
CTETRA      1910       1   17735   15588   15598      55   15853   15850+
+          15848    3011    3020    2469
CTETRA      1911       1   13591   13592      25     318   14372    5717+
+           1298    4174    5718    2481
CTETRA      1912       1   13581   13591     317     318   14371    4173+
+           3399    6229    4174    2480
CTETRA      1913       1   14643     197     370     367    3816    6230+
+           2758    2760    6231    2761
CTETRA      1914       1   16346      88   16354     153    4522    1989+
+          16530    6232    6061    1753
CTETRA      1915       1   16347   16353   16348     519   16538   16537+
+          16540    6233    6234    6227
CTETRA      1916       1   14745     317   14748     318    6235    2476+
+          15115    4998    2480    2479
CTETRA      1917       1   17734   15626     519     784   15955    6236+
+           6237    6238    6239    6240
CTETRA      1918       1   14743   14746   14744     366   15111   15098+
+          15114    5112    2734    3692
CTETRA      1919       1   16400      13   16403     220    4637    6241+
+          16737    4655    5292    4653
CTETRA      1920       1   15533   15595   15534     749   15826   15828+
+          15652    6242    6243    6244
CTETRA      1921       1   13590     317   13591      26    5111    4173+
+          14368    1305    6245    1300
CTETRA      1922       1   13437   13438     588     129   13834    6246+
+           5614    5612    6247    5613
CTETRA      1923       1   17411   12427   12428     688   12537   12466+
+          12538    6248    5143    5543
CTETRA      1924       1   17791      84   16017     627    6249    1512+
+          16185    6250    4513    4512
CTETRA      1925       1   17331     278   11782     280    4194    6251+
+          11905    4013    6252    6253
CTETRA      1926       1   15533   15592     749     750   15818    6254+
+           6242    6255    6256    5841
CTETRA      1927       1   13419   13438   13420     278   13840   13835+
+          13841    6257    6258    6259
CTETRA      1928       1   16365   16377   16366     749   16644   16638+
+          16645    5837    6260    6047
CTETRA      1929       1   13533   13536     278     280   14174    6261+
+           6262    6263    6264    6252
CTETRA      1930       1   17332     278     108     129    4193    5395+
+           4925    4924    5398    4920
CTETRA      1931       1   17743   16225     220     629   16305    4666+
+           4658    4545    4544    6265
CTETRA      1932       1   11762   11766     129     636   11826    6266+
+           5954    5716    6267    5616
CTETRA      1933       1   15533   15592   15595     749   15818   15827+
+          15826    6242    6254    6243
CTETRA      1934       1   13436     129   13437     636    5955    5612+
+          13830    6268    5616    5615
CTETRA      1935       1   15592   15595     749     217   15827    6243+
+           6254    4542    6269    5838
CTETRA      1936       1   18104   15596     217     219   15832    4541+
+           4540    6270    6271    2046
CTETRA      1937       1   16365     749   16366     217    5837    6047+
+          16645    5839    5838    6272
CTETRA      1938       1   18106   16365   16401     217   16761   16762+
+          16730    2053    5839    4669
CTETRA      1939       1   15595     638     749     217    6273    6051+
+           6243    6269    4670    5838
CTETRA      1940       1   15534     749   15595     638    6244    6243+
+          15828    6274    6051    6273
CTETRA      1941       1   17639   15349   15347     508   15526   15525+
+          15524    5487    3759    3758
CTETRA      1942       1   15596     220     217     219    2050    4671+
+           4541    6271    6275    2046
CTETRA      1943       1   12719   12726   12720     417   12828   12830+
+          12829    6276    6277    6278
CTETRA      1944       1   18100   17973   15320     785   17975   15380+
+          15382    6279    6280    6281
CTETRA      1945       1   16867      12      11     786    1250    1249+
+           1247    6282    6283    6284
CTETRA      1946       1   17853   16392   16394     144   16697   16704+
+          16702    1733    2111    6285
CTETRA      1947       1   17853   16217     144     145   16266    1716+
+           1733    6286    1717    1719
CTETRA      1948       1   14793   14795   14796     332   15297   15299+
+          15298    2575    5922    2576
CTETRA      1949       1   16390     216   16393     144    6287    5325+
+          16709    2109    6288    2110
CTETRA      1950       1   13636     353     225     354    6289    2671+
+           6290    6291    2675    2674
CTETRA      1951       1   17470   12615   17471     787   12667   12668+
+          17486    6292    6293    6294
CTETRA      1952       1   13646   13656     353     354   14581    5832+
+           6295    6296    5824    2675
CTETRA      1953       1   11764     635   11765     740    5562    5578+
+          11818    5758    6297    5713
CTETRA      1954       1   13630     332     234     599    2578    2733+
+           2112    4283    6298    4284
CTETRA      1955       1   15606   15609     216     144   15888    6299+
+           6300    2754    1740    6288
CTETRA      1956       1   16390     216     144      23    6287    6288+
+           2109    6301    6302    2757
CTETRA      1957       1   17827      45      44      47    6303    6304+
+           3307    1386    5986    5947
CTETRA      1958       1   17471   12614   17472     231   12669   12660+
+          17487    6305    2089    6306
CTETRA      1959       1   13636     225   13637     354    6290    2580+
+          14522    6291    2674    6307
CTETRA      1960       1   11977     391     341     242    2919    2946+
+           2944    2140    2917    6308
CTETRA      1961       1   14661     355     430     184    2685    4849+
+           6309    2689    2691    4407
CTETRA      1962       1   17714     188     546     353    5815    5817+
+           5814    5826    5833    5827
CTETRA      1963       1   14683   14684     185     186   14872    4944+
+           4966    4411    6310    1880
CTETRA      1964       1   17829     188     283     709    6311    5988+
+           3100    5269    6312    6313
CTETRA      1965       1   17332   11948   17333     136   12060   12059+
+          17341    4926    2571    6314
CTETRA      1966       1   17447   14685   17448     137   14879   14878+
+          17454    1917    4942    1695
CTETRA      1967       1   17447     108     107     193    4836    1606+
+           1908    1910    4837    1911
CTETRA      1968       1   14665     263     324     322    5439    2837+
+           2843    2844    2839    2544
CTETRA      1969       1   13382   13652     163     188   14594    3870+
+           1894    1890    5928    5816
CTETRA      1970       1   13181     213     324     323    2521    2526+
+           2525    2524    2523    6315
CTETRA      1971       1   14655     553     557     181    6316    3944+
+           3940    3938    3922    3939
CTETRA      1972       1   17830     161     163     548    1777    6317+
+           6318    3888    6319    6320
CTETRA      1973       1   14699   14701     196     176   14948    6321+
+           6322    1858    6323    6324
CTETRA      1974       1   13649   13655   13656     546   14576   14583+
+          14582    6325    5807    5822
CTETRA      1975       1   14779   14784   14780     659   15241   15240+
+          15242    4761    6326    5447
CTETRA      1976       1   17714   17715   14779     546   17719   15248+
+          15249    5814    5930    6327
CTETRA      1977       1   17833     286     296     788    6328    2352+
+           5739    6329    6330    6331
CTETRA      1978       1   14653   14668   14654     178   14811   14813+
+          14815    6332    6333    3781
CTETRA      1979       1   13483     181   13488     263    3935    1868+
+          14014    3515    2227    2219
CTETRA      1980       1   14655   14667     181     490   14805    4689+
+           3938    3941    3507    3937
CTETRA      1981       1   13485       6     553     557    4080    4059+
+           4458    4081    4062    3944
CTETRA      1982       1   13621   13629   13628     111   14484   14489+
+          14488    1627    6334    6335
CTETRA      1983       1   15590   15594   15597     637   15840   15845+
+          15843    4592    4586    4585
CTETRA      1984       1   17507   13642   13629     296   14530   14532+
+          14483    6336    4984    4983
CTETRA      1985       1   13160   13196   13195     296   13374   13377+
+          13368    6337    6338    6339
CTETRA      1986       1   16400     637   16406      13    4636    4630+
+          16758    4637    4593    4626
CTETRA      1987       1   13627   13628   13639     111   14486   14528+
+          14529    6340    6335    6341
CTETRA      1988       1   16366     638   16401     217    6050    4654+
+          16763    6272    4670    4669
CTETRA      1989       1   17717   17718   14787     111   17722   15263+
+          15262    6342    1619    6343
CTETRA      1990       1   13561   13575   13562     482   14314   14316+
+          14315    6344    6345    6346
CTETRA      1991       1   17856   16403   16404      24   16746   16742+
+          16747    2194    6347    2746
CTETRA      1992       1   15591      13   15597     220    6348    4594+
+          15842    2048    5292    2049
CTETRA      1993       1   13420   13547     278     129   14231    5396+
+           6259    5943    5397    5398
CTETRA      1994       1   13419   13420   13533     278   13841   14232+
+          14176    6257    6259    6262
CTETRA      1995       1   13533   13534   13537     280   14162   14171+
+          14173    6263    6349    6350
CTETRA      1996       1   15613      13      24      10    5745    1295+
+           1284    1290    1255    1297
CTETRA      1997       1   15614     574      13     507    6351    6352+
+           5746    6353    6354    3585
CTETRA      1998       1   16402      14      23      10    1292    6355+
+           4103    1293    1259    1291
CTETRA      1999       1   12728     780     495     340    6356    6357+
+           6358    3065    6359    6360
CTETRA      2000       1   14735   14738   14737     508   15063   15064+
+          15056    5307    5500    4649
CTETRA      2001       1   11662     789     790     791    6361    6362+
+           6363    6364    6365    6366
CTETRA      2002       1   17448     130   17449     300    4493    2832+
+          17455    4494    2829    2835
CTETRA      2003       1   17856   16222      24     258   16287    2195+
+           2194    6367    2193    5742
CTETRA      2004       1   15611      14       9      10    1257    1286+
+           1241    1244    1259    1245
CTETRA      2005       1   13532   13547   13543     108   14209   14211+
+          14202    1611    5394    5927
CTETRA      2006       1   14667     181     490     263    4689    3937+
+           3507    3510    2227    3511
CTETRA      2007       1   13487     261   13499     322    2217    3859+
+          14059    2838    6368    6369
CTETRA      2008       1   13483   13488   13487     263   14014   14016+
+          14015    3515    2219    2218
CTETRA      2009       1   14665   14671     261     322   14830    6077+
+           5438    2844    2842    6368
CTETRA      2010       1   13480   13484   13483     490   13997   13999+
+          13998    3778    3936    3514
CTETRA      2011       1   12717     391   12718     232    2915    2927+
+          12861    6370    2920    2101
CTETRA      2012       1   14655   14656     553     181   14803    4469+
+           6316    3938    5015    3922
CTETRA      2013       1   11978   11979     394     232   12204    6110+
+           3398    6371    2962    2930
CTETRA      2014       1   13480     557   13484     490    4073    3943+
+          13997    3778    3942    3936
CTETRA      2015       1   12718     391   12731     394    2927    6372+
+          12858    2929    2928    5114
CTETRA      2016       1   18099     291   17718     292    6373    2339+
+          17727    6374    2343    2342
CTETRA      2017       1   17338   11970     394     655   12166    2932+
+           5066    4725    4715    4717
CTETRA      2018       1   12798   12800     412     411   13140    3983+
+           6375    6376    3048    3043
CTETRA      2019       1   17833     286     788     792    6328    6330+
+           6329    6377    6378    6379
CTETRA      2020       1   18107   17833     788     792   17839    6329+
+           6380    6381    6377    6379
CTETRA      2021       1   12009     425     471     412    3115    4733+
+           3390    3040    6382    5175
CTETRA      2022       1   14663     363     187     199    4855    4854+
+           3458    5755    4974    4967
CTETRA      2023       1   17330      86     280     481    5893    4938+
+           3459    3462    5895    3463
CTETRA      2024       1   13522   13535   13534     105   14169   14170+
+          14164    1600    4929    1601
CTETRA      2025       1   12002   12003     646     425   12275    4633+
+           4632    4350    6383    4886
CTETRA      2026       1   13534     109     105     280    1614    6384+
+           1601    6349    6385    6386
CTETRA      2027       1   12786     646   12788     425    4873    6387+
+          13090    4885    4886    6388
CTETRA      2028       1   12798     471     241     425    6389    3391+
+           6390    6391    4733    4732
CTETRA      2029       1   17445   18097   14687     199   17462   15311+
+          14889    1955    1954    2868
CTETRA      2030       1   17445     347   18097     549    2649    6392+
+          17462    3890    4928    3891
CTETRA      2031       1   11938   11967   11962     417   12141   12143+
+          12138    4899    4788    4787
CTETRA      2032       1   13463      32   13538      87    1329    1523+
+          14181    5409    1527    1526
CTETRA      2033       1   12786     241     469     425    6393    3373+
+           4871    4885    4732    4351
CTETRA      2034       1   12707     587   12754     650    6394    4217+
+          12966    6395    6396    6397
CTETRA      2035       1   12019     339      99     104    6398    6399+
+           6400    6401    6402    3361
CTETRA      2036       1   12405   12406      99     472   12461    5153+
+           3027    3395    6403    6404
CTETRA      2037       1   13559   13580   13579     367   14334   14333+
+          14332    4172    6405    6406
CTETRA      2038       1   14643   14744   14746     367   15096   15098+
+          15097    2760    2762    2737
CTETRA      2039       1   13578     523     527       2    5854    3698+
+           4442    4445    4448    4446
CTETRA      2040       1   12029     454     152     455    4278    4281+
+           1751    6407    3299    6408
CTETRA      2041       1   12742   12745   12750     459   12909   12927+
+          12926    3736    6409    6410
CTETRA      2042       1   13577     527     581       3    4443    5053+
+           6411    6412    6413    6414
CTETRA      2043       1   14643     197   14644     370    3816    6415+
+          15025    2758    6230    6416
CTETRA      2044       1   12707   12754      99     650   12966    4699+
+           4698    6395    6397    4863
CTETRA      2045       1   14644     620   14645       2    6417    6418+
+          15028    6419    4437    1214
CTETRA      2046       1   14744   14749     523     370   15125    3695+
+           3690    2759    4449    4450
CTETRA      2047       1   13558     197   13559     370    6420    3834+
+          14237    4439    6230    6421
CTETRA      2048       1   17404   12421   17405     690   12524   12525+
+          17425    6422    5177    6423
CTETRA      2049       1   12771   12772   12784     364   13031   13081+
+          13084    6424    2722    2721
CTETRA      2050       1   13473     620       1     573    5545    5555+
+           6425    6426    5558    4539
CTETRA      2051       1   12767     437   12776     128    6427    3220+
+          13078    2449    5135    5365
CTETRA      2052       1   11940   11943     437     444   12038    5375+
+           3241    3243    5371    3244
CTETRA      2053       1   11941   11943     311     437   12040    5373+
+           6428    5132    5375    6429
CTETRA      2054       1   12418   12419     126     419   12511    2443+
+           2462    3076    3075    4665
CTETRA      2055       1   12419   12439   12438     126   12513   12512+
+          12510    2443    2451    6430
CTETRA      2056       1   12614     793     403     794    6431    6432+
+           2989    6433    6434    6435
CTETRA      2057       1   17421   12438   12439     653   12558   12512+
+          12559    6436    4705    6437
CTETRA      2058       1   12407   12427      99     339   12464    5141+
+           5152    5137    5541    6399
CTETRA      2059       1   14732     578   14751     527    5048    6438+
+          15134    5050    5049    3697
CTETRA      2060       1   12708   12791   12792     100   13114   13110+
+          13115    5687    3965    3964
CTETRA      2061       1   14726     578   14732     515    6439    5048+
+          15069    3638    5046    6440
CTETRA      2062       1   11672     795     189     796    6441    6442+
+           5233    6443    6444    6445
CTETRA      2063       1   11664     588   11673     189    6446    5225+
+          11693    5238    5944    5234
CTETRA      2064       1   17259   11672   17260     797   11723   11724+
+          17269    6447    6448    6449
CTETRA      2065       1   11663   11673   11672     189   11692   11691+
+          11689    1896    5234    5233
CTETRA      2066       1   13588     523     310     527    3668    3670+
+           3667    5065    3698    3702
CTETRA      2067       1   13599     309     321     310    2433    2510+
+           6450    2435    2434    4141
CTETRA      2068       1   16780     798     799     800    6451    6452+
+           6453    6454    6455    6456
CTETRA      2069       1   17961   16956   16979     801   16995   17092+
+          17094    6457    6458    6459
CTETRA      2070       1   13587   13588     578     527   14361    5041+
+           5043    6460    5065    5049
CTETRA      2071       1   16780     798     616     802    6451    6461+
+           6462    6463    6464    6465
CTETRA      2072       1   15574   15582   15584     287   15801   15814+
+          15813    2324    6466    2325
CTETRA      2073       1   17896   16780     798     799   16835    6451+
+           6467    6468    6453    6452
CTETRA      2074       1   16335     286     314     288    6469    6470+
+           4682    6471    2330    6472
CTETRA      2075       1   13188     287   13189     602    4291    4463+
+          13339    4300    6473    4301
CTETRA      2076       1   16861      34      35     453    3292    1342+
+           6474    3293    3295    6475
CTETRA      2077       1   16862   16871      34     423   16889    5470+
+           3272    4067    6476    3304
CTETRA      2078       1   13389   13393   13395     423   13685   13687+
+          13670    5272    3103    6477
CTETRA      2079       1   17660   13189     287     803   13329    4463+
+           6478    6479    6480    6481
CTETRA      2080       1   17660   13189   13187     287   13329   13333+
+          13334    6478    4463    2331
CTETRA      2081       1   17775   13187   13189     287   13331   13333+
+          13335    6482    2331    4463
CTETRA      2082       1   17775   16322     287     265   16458    4683+
+           6482    2223    2225    6483
CTETRA      2083       1   13392     423   13393     614    6484    3103+
+          13688    5764    5938    5765
CTETRA      2084       1   17718   14787     111     110   15263    6343+
+           1619    1617    2098    1618
CTETRA      2085       1   16403      13   16404      24    6241    6485+
+          16742    6347    1295    2746
CTETRA      2086       1   16974     423     361     614    6486    6487+
+           3492    6488    5938    6489
CTETRA      2087       1   17237   11759   11774     297   11808   11867+
+          11869    6490    2363    2362
CTETRA      2088       1   15590      13   15613      10    1253    5745+
+          15911    1254    1255    1290
CTETRA      2089       1   15596   15597     638     220   15847    4588+
+           6491    2050    2049    4656
CTETRA      2090       1   15599   15613   15614      24   15920   15921+
+          15916    1282    1284    2257
CTETRA      2091       1   13392     361     423     614    6492    6487+
+           6484    5764    6489    5938
CTETRA      2092       1   16863     361     423     725    6493    6487+
+           6494    5494    6495    6496
CTETRA      2093       1   16872     804     423     805    6497    6498+
+           6499    6500    6501    6502
CTETRA      2094       1   16402      23   16405      24    4103    4114+
+          16751    1294    1283    2747
CTETRA      2095       1   16319   16340     162     421   16495    6503+
+           4208    4211    6504    3085
CTETRA      2096       1   16319     164   16333     421    6505    3838+
+          16477    4211    3090    3082
CTETRA      2097       1   16333     164     420     421    3838    3108+
+           3079    3082    3090    3083
CTETRA      2098       1   15568   15569   15576     421   15752   15768+
+          15767    3089    3091    4246
CTETRA      2099       1   16863     361   16872     423    6493    6506+
+          16893    6494    6487    6499
CTETRA      2100       1   17717     111     167     806    6342    6507+
+           3029    6508    6509    6510
CTETRA      2101       1   14731   14732   14750     581   15086   15135+
+          15128    4179    5051    6511
CTETRA      2102       1   13612     316   13613     174    2494    2489+
+          14438    2495    2488    2487
CTETRA      2103       1   17730   15620   15624     511   15941   15944+
+          15943    6512    3601    6513
CTETRA      2104       1   14754     316     174     113    4422    2488+
+           2504    2506    2492    2491
CTETRA      2105       1   17844   16212   16211     621   16228   16230+
+          16229    6514    6515    4454
CTETRA      2106       1   17769     782     211     783    6221    6516+
+           2309    6224    6223    6517
CTETRA      2107       1   17845   16213   17846     304   16235   16236+
+          17860    3538    2405    2404
CTETRA      2108       1   13620     167     113     111    5232    5231+
+           1623    1625    6507    1626
CTETRA      2109       1   17730   15624   17731     807   15943   15952+
+          17755    6518    6519    6520
CTETRA      2110       1   15632     211     512     782    6521    4176+
+           5830    6522    6516    6523
CTETRA      2111       1   17716   17717   14785     167   17721   15259+
+          15254    6524    3029    3031
CTETRA      2112       1   17716     119     759     808    5908    5911+
+           5910    6525    6526    6527
CTETRA      2113       1   14783   14784   14785     167   15247   15251+
+          15252    1818    1817    3031
CTETRA      2114       1   13626   13650     546     167   14566    5805+
+           5101    1838    6528    3873
CTETRA      2115       1   13472   13473       1     573   13980    6425+
+           1224    4534    6426    4539
CTETRA      2116       1   13473   13478     196     573   13971    6529+
+           5546    6426    5643    6530
CTETRA      2117       1   16013   16033   16032     162   16077   16076+
+          16074    6531    4186    5845
CTETRA      2118       1   16012     162     172     809    6532    4209+
+           6533    6534    6535    6536
CTETRA      2119       1   16013     156   16033     162    6537    4187+
+          16077    6531    4182    4186
CTETRA      2120       1   14717     620     196     573    5556    5547+
+           6538    5557    5558    6530
CTETRA      2121       1   16032     172     162     810    6539    4209+
+           5845    6540    6541    6542
CTETRA      2122       1   17788   16020   16019     215   16179   16103+
+          16182    6543    2033    6544
CTETRA      2123       1   14716       1   14717     573    1240    5554+
+          15027    4780    4539    5557
CTETRA      2124       1   16033     156   16034     746    4187    5874+
+          16080    5794    5844    5795
CTETRA      2125       1   16321     159     314     166    2461    2460+
+           2458    4470    5364    5864
CTETRA      2126       1   16346      58   16358      82    6545    6546+
+          16558    6547    1516    6548
CTETRA      2127       1   16346   16354   16347     153   16530   16533+
+          16532    6232    1753    6549
CTETRA      2128       1   14701   14717     196     573   15032    6538+
+           6321    5645    5557    6530
CTETRA      2129       1   15615   15623   15617      82   15929   15934+
+          15935    1531    1532    3640
CTETRA      2130       1   15567     125     171     118    4977    4976+
+           3711    3713    1663    3714
CTETRA      2131       1   16308   16327   16329     171   16421   16424+
+          16423    4742    4743    4973
CTETRA      2132       1   16323   16324   16331     173   16433   16445+
+          16441    6198    6550    6551
CTETRA      2133       1   16307   16308   16370      49   16422   16627+
+          16624    1408    4740    1399
CTETRA      2134       1   17716   14785     546     167   15254    3872+
+           5929    6524    3031    3873
CTETRA      2135       1   17716     759     167     808    5910    6552+
+           6524    6525    6527    6553
CTETRA      2136       1   16027     268      68     671    2247    2249+
+           1464    4911    6554    4912
CTETRA      2137       1   17717     806     119     811    6508    6555+
+           5909    6556    6557    6558
CTETRA      2138       1   18084     812   13464     813    6559    6560+
+          13959    6561    6562    6563
CTETRA      2139       1   13650   13653     163     119   14577    1895+
+           5803    5808    6564    5809
CTETRA      2140       1   17362     154   12607     567    6565    1758+
+          12633    4002    6566    4003
CTETRA      2141       1   13381   13653   13654     161   14592   14578+
+          14590    6567    6568    1803
CTETRA      2142       1   18112     122   16876     814    6569    1650+
+          16933    6570    6571    6572
CTETRA      2143       1   17583   17584   13414     194   17609   13765+
+          13767    1913    4477    1914
CTETRA      2144       1   17717     142     119     288    6573    1800+
+           5909    2328    6574    5980
CTETRA      2145       1   17715     119     163     118    5931    5809+
+           6575    5977    1644    1789
CTETRA      2146       1   17714   17715     163     118   17719    6575+
+           5813    6576    5977    1789
CTETRA      2147       1   13650   13654   13653     119   14574   14578+
+          14577    5808    1798    6564
CTETRA      2148       1   17831     119     142     288    1776    1800+
+           1711    5973    5980    6574
CTETRA      2149       1   17831     119     288     117    1776    5980+
+           5973    5975    1641    5972
CTETRA      2150       1   17830   16326   16328     118   16414   16417+
+          16416    1643    1658    1662
CTETRA      2151       1   15564   15567     116     118   15733    3712+
+           1634    1637    3713    1638
CTETRA      2152       1   17829   17830   16328     118   17837   16416+
+          16413    1661    1643    1662
CTETRA      2153       1   17715   17716     119     117   17720    5908+
+           5931    5976    5979    1641
CTETRA      2154       1   17715   15564   17716     117   15731   15732+
+          17720    5976    1636    5979
CTETRA      2155       1   13526     333     385     169    2883    2885+
+           2882    1823    6577    2903
CTETRA      2156       1   14693   14695   14696     169   14925   14927+
+          14926    2359    2888    2360
CTETRA      2157       1   17452     674     251     135    4968    4959+
+           3960    1684    4970    3962
CTETRA      2158       1   13541     169     236     670    2880    2879+
+           2877    5482    6578    5483
CTETRA      2159       1   13523     169     384     334    1822    2873+
+           2872    2590    6579    6580
CTETRA      2160       1   17451   14696   17452     134   14928   14929+
+          17458    6581    1683    1682
CTETRA      2161       1   17450     336     134     252    2624    2599+
+           2623    5897    2603    2602
CTETRA      2162       1   17830     119   17831     117    1640    1776+
+          17836    1642    1641    5975
CTETRA      2163       1   16366     639   16367     638    6049    6582+
+          16639    6050    6052    4646
CTETRA      2164       1   15535   15594   15593     637   15824   15823+
+          15822    4595    4586    6583
CTETRA      2165       1   16025     639     272     815    6584    6585+
+           6586    6587    6588    6589
CTETRA      2166       1   15534   15594     639     638   15825    4597+
+           6590    6274    4587    6052
CTETRA      2167       1   15534     639   15548     272    6590    6591+
+          15648    6592    6585    2268
CTETRA      2168       1   17448     329     331     136    6593    2570+
+           5923    1687    2573    2572
CTETRA      2169       1   17333   11948     329     136   12059    2556+
+           2555    6314    2571    2573
CTETRA      2170       1   17561   13183     816     493   13307    6594+
+           6595    6596    3522    6597
CTETRA      2171       1   17448     329     136     677    6593    2573+
+           1687    5004    6598    5956
CTETRA      2172       1   11947     329     499     378    2558    5090+
+           5411    5414    6041    5415
CTETRA      2173       1   13555       4   13565     580    6599    4151+
+          14291    6600    4165    4757
CTETRA      2174       1   13640   13641      20     142   14525    1506+
+           3903    5772    5734    5736
CTETRA      2175       1   17508     817   13160     818    6601    6602+
+          13249    6603    6604    6605
CTETRA      2176       1   17506   17507   13195     819   17552   13367+
+          13365    6606    6607    6608
CTETRA      2177       1   14765   14769   14766     383   15198   15197+
+          15199    2870    3069    3068
CTETRA      2178       1   13586   13587     515     581   14355    5045+
+           6609    4748    5070    5071
CTETRA      2179       1   14732   14740     515     581   15071    6610+
+           6440    5051    4745    5071
CTETRA      2180       1   14764      65      80      66    1453    2856+
+           4046    1454    1456    1497
CTETRA      2181       1   14773   14777     282     223   15231    3161+
+           6046    3381    2091    6031
CTETRA      2182       1   13578   13589   13588     523   14358   14357+
+          14356    5854    3669    3668
CTETRA      2183       1   14732     527   14750     581    5050    6611+
+          15135    5051    5053    6511
CTETRA      2184       1   13577     527   13587     581    4443    6460+
+          14360    6411    5053    5070
CTETRA      2185       1   12708     469     100     102    6612    3372+
+           5687    6613    5684    5681
CTETRA      2186       1   13484   13485   13489     553   13994   14007+
+          14009    3945    4458    3919
CTETRA      2187       1   11997     100   12008     241    3368    6614+
+          12299    3370    3369    6615
CTETRA      2188       1   14712   14713   14719       7   15017   15039+
+          15036    2795    1232    4523
CTETRA      2189       1   13488   13489     260     181   14011    3921+
+           2228    1868    1867    2239
CTETRA      2190       1   11981     100   12001      99    6616    1584+
+          12256    4676    1583    1582
CTETRA      2191       1   17358   17359   12612     248   17369   12653+
+          12651    6617    2158    2160
CTETRA      2192       1   12610     425   12611     246    6618    6619+
+          12644    6620    6621    2154
CTETRA      2193       1   12610     411     425     562    3975    3116+
+           6618    3978    3977    6622
CTETRA      2194       1   11996   12003   12002     425   12274   12275+
+          12267    4349    6383    4350
CTETRA      2195       1   12612     425     646     247    6623    4886+
+           6624    2157    6625    6626
CTETRA      2196       1   11572      94     820     821    6627    6628+
+           6629    6630    6631    6632
CTETRA      2197       1   16374     267     268      50    2242    2246+
+           2245    5019    6633    2263
CTETRA      2198       1   13426   13457   13427     674   13937   13920+
+          13938    5280    5118    5286
CTETRA      2199       1   18095     656   17453     822    4721    4723+
+          17459    6634    6635    6636
CTETRA      2200       1   15555      50   15558     436    5031    1396+
+          15698    5032    5034    6637
CTETRA      2201       1   13161     674   13179     675    4952    6638+
+          13283    4953    4955    6639
CTETRA      2202       1   17524     559   13161     675    6640    3952+
+          13236    6641    4954    4953
CTETRA      2203       1   17498   12780   12779     685   13057   13058+
+          13050    6642    5100    5096
CTETRA      2204       1   12779   12780   12781     344   13058   13067+
+          13066    5094    5099    5106
CTETRA      2205       1   18097   12780   17498     715   13059   13057+
+          17502    6643    5349    6644
CTETRA      2206       1   16370   16374   16371      50   16625   16607+
+          16626    1400    5019    6645
CTETRA      2207       1   15555   15556   15558      50   15692   15697+
+          15698    5031    2265    1396
CTETRA      2208       1   11960     342     341     301    3396    2620+
+           5404    5382    2630    2629
CTETRA      2209       1   17451   12730   12722     301   12839   12847+
+          12811    2392    5391    2628
CTETRA      2210       1   16380     632   16382     436    5316    4559+
+          16658    5317    5318    6646
CTETRA      2211       1   15555     632     271     436    5314    5313+
+           5030    5032    5318    5033
CTETRA      2212       1   15559      45     436      48    3199    3202+
+           3201    6647    3208    3207
CTETRA      2213       1   17827      45      47      48    6303    5986+
+           1386    1388    3208    1389
CTETRA      2214       1   15552   15559   15558      48   15708   15706+
+          15707    1393    6647    1394
CTETRA      2215       1   15554     632   15555     436    6648    5314+
+          15695    6649    5318    5032
CTETRA      2216       1   12708     102     100     101    6613    5681+
+           5687    5688    1593    1587
CTETRA      2217       1   12606     646     823     824    6650    6651+
+           6652    6653    6654    6655
CTETRA      2218       1   17473   12606   12612     646   12652   12650+
+          12648    6656    6650    6624
CTETRA      2219       1   17473   12788   12790     646   13093   13100+
+          13098    6656    6387    6657
CTETRA      2220       1   17358   12612   12606     248   12651   12650+
+          12646    6617    2160    6658
CTETRA      2221       1   12611   12612     425     825   12655    6623+
+           6619    6659    6660    6661
CTETRA      2222       1   12782     330     344     346    4008    5107+
+           5504    5936    2643    6662
CTETRA      2223       1   12781     344   12782     330    5106    5504+
+          13072    4029    5107    4008
CTETRA      2224       1   17446     330   12782     346    4006    4008+
+          13069    4207    2643    5936
CTETRA      2225       1   17297   12409   12408     337   12589   12473+
+          12592    6663    2607    2606
CTETRA      2226       1   11957     330     344     439    4016    5107+
+           6664    6665    5109    5108
CTETRA      2227       1   11986     471     547     412    5173    5607+
+           6666    5174    5175    3884
CTETRA      2228       1   12409   12410   12430     454   12477   12476+
+          12475    6667    6668    6669
CTETRA      2229       1   12429     454   12430     464    6670    6669+
+          12474    3334    6671    6672
CTETRA      2230       1   11955     330   11957     439    4771    4016+
+          12111    5087    5109    6665
CTETRA      2231       1   12014   12026   12027     335   12370   12369+
+          12372    3343    2595    2594
CTETRA      2232       1   12021     433     339     458    3716    3727+
+           3728    3718    3705    5148
CTETRA      2233       1   17297   17298   12409     338   17325   12590+
+          12589    6673    6674    2609
CTETRA      2234       1   17331   11957     330     346   12113    4016+
+           2639    2642    5078    2643
CTETRA      2235       1   16312   16360   16361      57   16574   16586+
+          16583    1422    1427    1418
CTETRA      2236       1   15621     153      88      82    3616    6061+
+           1536    1539    6675    1540
CTETRA      2237       1   16346     153   16347     410    6232    6549+
+          16532    6676    3646    3155
CTETRA      2238       1   15588     519     410      55    6677    3650+
+           3032    3020    6228    3034
CTETRA      2239       1   11940     438     442     444    3242    3236+
+           4339    3243    3245    5362
CTETRA      2240       1   15586     410      58      57    6678    3156+
+           3739    6679    6680    1426
CTETRA      2241       1   16347   16348     410     519   16540    3036+
+           3155    6233    6227    3650
CTETRA      2242       1   12402     241   12422     471    4342    5668+
+          12444    5183    3391    4330
CTETRA      2243       1   12439     311   12440     313    2452    6068+
+          12516    2453    2455    5610
CTETRA      2244       1   12617     459     765     826    3318    6681+
+           6097    6682    6683    6684
CTETRA      2245       1   17423     734   12440     607    6685    5654+
+          12562    4334    5657    4335
CTETRA      2246       1   12403     241     609     827    4343    4731+
+           4355    6686    6687    6688
CTETRA      2247       1   12422     471     241     737    4330    3391+
+           5668    5670    6689    5671
CTETRA      2248       1   12436     828     494     829    6690    6691+
+           6692    6693    6694    6695
CTETRA      2249       1   12704     499     329     378    5088    5090+
+           2567    6040    5415    6041
CTETRA      2250       1   12704   12725   12705     499   12819   12833+
+          12834    5088    6696    4502
CTETRA      2251       1   11954     439     128     329    5086    5366+
+           6033    5506    6168    5091
CTETRA      2252       1   11993     547     147     412    6697    6698+
+           6699    6700    3884    6701
CTETRA      2253       1   11945     494   11946     127    6702    3550+
+          12075    6703    3549    3548
CTETRA      2254       1   14684     137     185     186    4943    1916+
+           4944    6310    4415    1880
CTETRA      2255       1   11941   11944   11942     126   12050   12051+
+          12052    4364    6704    4365
CTETRA      2256       1   11990   11993     547     147   12241    6697+
+           6059    5662    6699    6698
CTETRA      2257       1   12761     276   12762     147    3946    5706+
+          13041    3948    3947    5601
CTETRA      2258       1   17392   15328     558     830   15423    3973+
+           6705    6706    6707    6708
CTETRA      2259       1   12772   12773   12783     444   13033   13073+
+          13074    5377    3967    6709
CTETRA      2260       1   12772   12783   12784     311   13074   13080+
+          13081    2723    6710    2724
CTETRA      2261       1   17962      71     386     831    1470    6711+
+           2890    6712    6713    6714
CTETRA      2262       1   12716     341   12733     391    6715    3411+
+          12867    2914    2946    5068
CTETRA      2263       1   11965   11967     780     340   12147    6716+
+           6717    6718    4790    6359
CTETRA      2264       1   11943     311     437     444    5373    6429+
+           5375    5371    5374    3244
CTETRA      2265       1   12772     311     364     276    2723    2725+
+           2722    5376    5372    5707
CTETRA      2266       1   12762   12772     364     276   13032    2722+
+           5599    5706    5376    5707
CTETRA      2267       1   12763     547   12796     147    5651    3881+
+          13155    5603    6698    1730
CTETRA      2268       1   17913   16873     683     684   16926    5061+
+           6719    6720    5062    5064
CTETRA      2269       1   12767     126   12783     437    2448    6721+
+          13079    6427    5608    5119
CTETRA      2270       1   11947   11954     499     329   12098    6034+
+           5411    2558    5506    5090
CTETRA      2271       1   17914   16874   17915     360   16928   16929+
+          17924    2699    2701    2731
CTETRA      2272       1   16874     360     357     832    2701    6722+
+           6723    6724    6725    6726
CTETRA      2273       1   12766     329     439     331    2568    6168+
+           5080    5076    2570    6169
CTETRA      2274       1   17935      69     833     834    6727    6728+
+           6729    6730    6731    6732
CTETRA      2275       1   17932   13193      73     835   13359    1478+
+           1475    6733    6734    6735
CTETRA      2276       1   17504   13193   18098     836   13360   13361+
+          17550    6736    6737    6738
CTETRA      2277       1   16770   16780   16779     833   16808   16807+
+          16805    6739    6740    6741
CTETRA      2278       1   16770   16771   16780     833   16810   16809+
+          16808    6739    6742    6740
CTETRA      2279       1   18049   18050   16770     837   18058   16846+
+          16849    6743    6744    6745
CTETRA      2280       1   18098     836   13193     838    6738    6737+
+          13361    6746    6747    6748
CTETRA      2281       1   17962      71      70     386    1470    1472+
+           1467    2890    6711    2891
CTETRA      2282       1   16770   16771     833     839   16810    6742+
+           6739    6749    6750    6751
CTETRA      2283       1   12439     126     313     726    2451    2454+
+           2453    5521    6752    6753
CTETRA      2284       1   18050     839   16770     837    6754    6749+
+          16846    6744    6755    6745
CTETRA      2285       1   12772   12783     311     444   13074    6710+
+           2723    5377    6709    5374
CTETRA      2286       1   12765   12766     439     331   13019    5080+
+           5079    5074    5076    6169
CTETRA      2287       1   11951     128   11954     439    5134    6033+
+          12094    5085    5366    5086
CTETRA      2288       1   18050   16771   16770     839   16847   16810+
+          16846    6754    6750    6749
CTETRA      2289       1   11950   11955   11957     439   12101   12111+
+          12109    5124    5087    6665
CTETRA      2290       1   17962     386     840     831    2890    6756+
+           6757    6712    6714    6758
CTETRA      2291       1   15588   15626   15622     519   15953   15954+
+          15931    6677    6236    3648
CTETRA      2292       1   11950     439     344     443    5124    5108+
+           6759    6760    5084    5095
CTETRA      2293       1   15622   15626   15627     153   15954   15958+
+          15957    3618    6148    6147
CTETRA      2294       1   14725   14759     321     424   15153    4133+
+           4139    5139    3170    3287
CTETRA      2295       1   15623      58     410      82    1530    3156+
+           5768    1532    1516    6761
CTETRA      2296       1   14760      79     424     435    4054    3112+
+           3169    3193    6762    3634
CTETRA      2297       1   16310   16330   16323      92   16429   16432+
+          16418    4476    4475    6197
CTETRA      2298       1   16010   16011   16031     173   16069   16068+
+          16067    4255    6763    4247
CTETRA      2299       1   13597   13598     424     578   14390    4135+
+           3631    5044    4136    4138
CTETRA      2300       1   13556       5       1       3    1209    1218+
+           6764    1210    1212    1205
CTETRA      2301       1   13585   13586     515     520   14342    6609+
+           6765    4042    6766    6767
CTETRA      2302       1   16220      23   16221     371    6152    3561+
+          16283    2768    6153    6768
CTETRA      2303       1   13585   13597   13596     435   14375   14377+
+          14376    6769    3632    6770
CTETRA      2304       1   17737   15608   17738     841   15895   15883+
+          17751    6771    6772    6773
CTETRA      2305       1   14725   14726     424     578   15073    3168+
+           5139    5140    6439    4138
CTETRA      2306       1   14727     515   14740     520    5136    6610+
+          15078    3653    6767    6774
CTETRA      2307       1   17853   16217   16220     144   16266   16278+
+          16276    1733    1716    1734
CTETRA      2308       1   16312     216      59      56    2059    2039+
+           2041    1421    5327    2029
CTETRA      2309       1   12711     461     596     465    3323    4611+
+           4610    4307    5787    4264
CTETRA      2310       1   15599      23      24     501    1280    1283+
+           1282    3565    3564    5744
CTETRA      2311       1   17239   11576   11577     120   11626   11592+
+          11627    1646    1645    6775
CTETRA      2312       1   17739   15608   15607     505   15882   15884+
+          15881    3578    5297    3579
CTETRA      2313       1   12412     596     461     679    5026    4611+
+           6776    5027    5029    6777
CTETRA      2314       1   12413     780     596     781    6216    6778+
+           5025    6217    6219    6779
CTETRA      2315       1   16367   16406   16400     637   16757   16758+
+          16759    4645    4630    4636
CTETRA      2316       1   11965     780     596     661    6717    6778+
+           6780    6781    6782    6783
CTETRA      2317       1   11974     596     461     465    6784    4611+
+           5790    3674    4264    5787
CTETRA      2318       1   16367     639     637     638    6582    4598+
+           4645    4646    6052    4589
CTETRA      2319       1   17976     842     637     843    6785    6786+
+           6787    6788    6789    6790
CTETRA      2320       1   16044       9     637     844    6791    4631+
+           6792    6793    6794    6795
CTETRA      2321       1   16325     164      93     116    5785    1791+
+           6796    3707    1795    1794
CTETRA      2322       1   17685   16028     775     845   16134    6186+
+           6797    6798    6799    6800
CTETRA      2323       1   17684     846   16029     847    6801    6802+
+          16136    6803    6804    6805
CTETRA      2324       1   11966     461   11974     596    6806    5790+
+          12178    6807    4611    6784
CTETRA      2325       1   15630   15633     266     497   15987    3854+
+           4897    5347    3604    5829
CTETRA      2326       1   16352      83     266     497    6808    4896+
+           6809    6810    6811    5829
CTETRA      2327       1   16343   16352     266     497   16526    6809+
+           2229    5828    6810    5829
CTETRA      2328       1   14730     540     531     541    4657    3794+
+           4122    3821    4117    4121
CTETRA      2329       1   17713   15552   15540      49   15663   15665+
+          15668    6812    1392    4734
CTETRA      2330       1   17714     163     125     118    5813    1787+
+           6813    6576    1789    1663
CTETRA      2331       1   13551   13570   13571      63   14276   14274+
+          14279    1446    5501    3572
CTETRA      2332       1   17714     125   15567     118    6813    4977+
+          15737    6576    1663    3713
CTETRA      2333       1   17714   15567   17715     118   15737   15736+
+          17719    6576    3713    5977
CTETRA      2334       1   12716   12733   12717     391   12867   12866+
+          12868    2914    5068    2915
CTETRA      2335       1   12715     780     340     661    6814    6359+
+           6815    6816    6782    4795
CTETRA      2336       1   17597   13465   13550     667   14251   14256+
+          14257    6817    4821    6157
CTETRA      2337       1   11969   11972   11971     341   12170   12172+
+          12171    2617    6818    2622
CTETRA      2338       1   17828   16327   16307      47   16410   16409+
+          16407    5946    5981    1387
CTETRA      2339       1   17594   13569     531     529   14269    3749+
+           5302    6819    3735    6820
CTETRA      2340       1   17829     283     188     125    3100    5988+
+           6311    1660    6821    6822
CTETRA      2341       1   17713   17714     188     125   17724    5815+
+           1904    6823    6813    6822
CTETRA      2342       1   14730   14736   14735     531   15051   15053+
+          15048    4122    5289    3802
CTETRA      2343       1   17639   14735   14737     508   15050   15056+
+          15055    5487    5307    4649
CTETRA      2344       1   13570   13571      63     508   14274    3572+
+           5501    5503    3588    3587
CTETRA      2345       1   14713   14716   14719       6   15021   15040+
+          15039    1228    1227    4060
CTETRA      2346       1   14656   14712   14719     553   15034   15036+
+          15035    4469    4467    4058
CTETRA      2347       1   13567     539     540     532    3787    3814+
+           3791    3750    4393    4490
CTETRA      2348       1   12703   12723   12704     329   12805   12817+
+          12818    2566    6039    2567
CTETRA      2349       1   17448   17449   12723     300   17455   12807+
+          12806    4494    2835    2808
CTETRA      2350       1   13552      64   13570      63    1447    6115+
+          14277    1449    1448    5501
CTETRA      2351       1   14738     532      64      63    3797    4394+
+           6112    5499    5498    1448
CTETRA      2352       1   17447     137   17448     108    1917    1695+
+          17454    4836    5926    1689
CTETRA      2353       1   11954   11955     439     329   12102    5087+
+           5086    5506    5505    6168
CTETRA      2354       1   13568   13570      64     532   14284    6115+
+           4404    4861    5502    4394
CTETRA      2355       1   13585     515   13597     435    6765    3629+
+          14375    6769    3633    3632
CTETRA      2356       1   13561      67   13583     483    6824    1457+
+          14352    3614    3469    3619
CTETRA      2357       1   14761      67   14767      66    3482    1498+
+          15187    3197    1460    1455
CTETRA      2358       1   14732     515     578     581    6440    5046+
+           5048    5051    5071    5052
CTETRA      2359       1   18048   18049   16769     848   18062   16848+
+          16851    6825    6826    6827
CTETRA      2360       1   13639   13641   13640     142   14523   14525+
+          14524    6828    5734    5772
CTETRA      2361       1   17831     141     119     161    1709    1797+
+           1776    1778    1804    1779
CTETRA      2362       1   16774     141     139     140    6829    6830+
+           1703    1706    6831    1707
CTETRA      2363       1   13640   13644   13643      20   14536   14538+
+          14537    3903    1508    3904
CTETRA      2364       1   14725     310   14751     578    4140    3701+
+          15131    5140    5042    6438
CTETRA      2365       1   13586     515     579     581    6609    6832+
+           4746    4748    5071    4181
CTETRA      2366       1   17855   16222   17856     258   16286   16287+
+          17871    2191    2193    6367
CTETRA      2367       1   14740     579     515     581    4744    6832+
+           6610    4745    4181    5071
CTETRA      2368       1   13604   13605   13631     282   14423   14491+
+          14490    2303    2305    6030
CTETRA      2369       1   13586     579     515     520    4746    6832+
+           6609    6766    6833    6767
CTETRA      2370       1   14781     721   14782     320    6834    5433+
+          15237    6835    5432    2498
CTETRA      2371       1   13625   13626     659     168   14477    5103+
+           5427    5430    1840    5105
CTETRA      2372       1   17632   14773   17633     470   15213   15212+
+          17656    6037    3384    3392
CTETRA      2373       1   14773     282     221     223    6046    2304+
+           3383    3381    6031    3382
CTETRA      2374       1   13632     223     226     598    4270    2654+
+           4268    4276    6035    4277
CTETRA      2375       1   13604   13631   13632     223   14490   14498+
+          14495    2060    6032    4270
CTETRA      2376       1   14790     721     447     432    6836    5524+
+           5518    5519    5509    5517
CTETRA      2377       1   14781   14790     721     447   15269    6836+
+           6834    6837    5518    5524
CTETRA      2378       1   13610     721   13616     447    6838    5525+
+          14445    6839    5524    5523
CTETRA      2379       1   13578     523   13588     527    5854    3668+
+          14356    4442    3698    5065
CTETRA      2380       1   13579     366     523     370    6840    3689+
+           5853    5856    3805    4450
CTETRA      2381       1   13558   13579   13578     370   14329   14328+
+          14327    4439    5856    5855
CTETRA      2382       1   17216   11759   17217     849   11806   11805+
+          17222    6841    6842    6843
CTETRA      2383       1   14748      25     317      26    2478    2477+
+           2476    6844    1301    6245
CTETRA      2384       1   18097   15338   17644     199   15481   15482+
+          17658    1954    1960    5424
CTETRA      2385       1   14652     393     667     850    4591    6845+
+           6846    6847    6848    6849
CTETRA      2386       1   17597   13465     667     851   14251    4821+
+           6817    6850    6851    6852
CTETRA      2387       1   17445     105     346     549    1971    5753+
+           2647    3890    6853    4927
CTETRA      2388       1   13550     667     393     509    6157    6845+
+           3590    3592    6854    3593
CTETRA      2389       1   14652     393      62     667    4591    2938+
+           6855    6846    6845    4818
CTETRA      2390       1     105     346     109     106    5753    2644+
+           6384    1603    5754    1616
CTETRA      2391       1     105     280     109     346    6386    6385+
+           6384    5753    4015    2644
CTETRA      2392       1   17330     280     105     346    3459    6386+
+           4200    4014    4015    5753
CTETRA      2393       1   17828     614   16969     283    5278    4382+
+          17047    5948    5939    3101
CTETRA      2394       1   17520   13486   13497     213   14013   14051+
+          14050    2520    2539    2013
CTETRA      2395       1   17519   17520   13181     323   17542   13300+
+          13304    6856    2522    2524
CTETRA      2396       1   13497     213   13498     209    2013    2517+
+          14058    2015    2014    2519
CTETRA      2397       1   17520   17521   13180     212   17541   13295+
+          13299    6857    2007    2009
CTETRA      2398       1   14676   14677     169     209   14848    2887+
+           2886    2597    1997    6858
CTETRA      2399       1   17520   13180   13181     213   13299   13298+
+          13300    2520    2011    2521
CTETRA      2400       1   16969     614     422     283    4382    4380+
+           3098    3101    5939    3102
CTETRA      2401       1   17829     188     163     125    6311    5816+
+           1788    1660    6822    1787
CTETRA      2402       1   17563   13181   17564     325   13297   13296+
+          17576    6859    2527    6860
CTETRA      2403       1   13384   13388      44     283   13784    5273+
+           5995    6861    2308    5950
CTETRA      2404       1   17564   13180   17565     556   13292   13291+
+          17575    6862    3930    6863
CTETRA      2405       1   13383     283   13384     192    2306    6861+
+          13785    6864    5989    5996
CTETRA      2406       1   17216     401   11759     849    6865    6866+
+          11806    6841    6867    6842
CTETRA      2407       1   13443   13450     319     401   13888    6225+
+           2485    3257    2975    6203
CTETRA      2408       1   13388     423      44     283    3104    3308+
+           5273    2308    3106    5950
CTETRA      2409       1   18115   11573   18014      98   11644   11643+
+          18016    6868    1573    6869
CTETRA      2410       1   12618     458   12619     762    6092    6085+
+          12689    6090    6084    6083
CTETRA      2411       1   17829     163     188     709    1788    5816+
+           6311    5269    6870    6312
CTETRA      2412       1   17826      35   16977     451    1373    4808+
+          17091    3278    3280    6871
CTETRA      2413       1   16869     352      35     852    6872    2670+
+           6873    6874    6875    6876
CTETRA      2414       1   16860     352     853     757    4486    6877+
+           6878    5900    5902    6879
CTETRA      2415       1   17584   13413     352     640   13763    4287+
+           4286    6880    4602    6881
CTETRA      2416       1   16859      19      42     854    1270    1363+
+           1362    6882    6883    6884
CTETRA      2417       1   17713     188     353     192    1904    5833+
+           6885    1905    1907    6886
CTETRA      2418       1   13383     188   13394     283    1892    1891+
+          13678    2306    5988    2307
CTETRA      2419       1   13382     163   13394     188    1894    3875+
+          13679    1890    5816    1891
CTETRA      2420       1   17522   13178     555     707   13290    3928+
+           6887    6888    5263    5265
CTETRA      2421       1   17521   13497   13525     210   14052   14132+
+          14131    2005    2016    6889
CTETRA      2422       1   17523   13161   13179     675   13284   13283+
+          13285    6890    4953    6639
CTETRA      2423       1   11677     672      86     855    6891    4936+
+           4923    6892    6893    6894
CTETRA      2424       1   17330     105     280      86    4200    6386+
+           3459    5893    6895    4938
CTETRA      2425       1   17453     135     718     719    4969    6896+
+           5399    5402    6897    5403
CTETRA      2426       1   17523     856   13179     857    6898    6899+
+          13285    6900    6901    6902
CTETRA      2427       1   17338     559     560     858    6903    6904+
+           3956    6905    6906    6907
CTETRA      2428       1   17453   14697   14678     135   14935   14933+
+          14936    4969    5393    6908
CTETRA      2429       1   13551   13552      63      61   14253    1449+
+           1446    1439    1435    1445
CTETRA      2430       1   14711     667     477     544    6909    4823+
+           4812    3844    6910    6911
CTETRA      2431       1   17338   11778     859     858   11884    6912+
+           6913    6905    6914    6915
CTETRA      2432       1   17525   13170   13169     860   13232   13234+
+          13233    6916    6917    6918
CTETRA      2433       1   13494     703     666     355    6919    5387+
+           6920    6921    6922    6923
CTETRA      2434       1   17452     655     251     674    4718    4956+
+           3960    4968    4960    4959
CTETRA      2435       1   13465   13495     666     477   14042    6924+
+           4820    4822    3446    4813
CTETRA      2436       1   14651   14710   14652      62   14990   14998+
+          14999    1441    4814    6855
CTETRA      2437       1   17597     667   13550     509    6817    6157+
+          14257    3729    6854    3592
CTETRA      2438       1   17640     393   14652     850    3594    4591+
+          15054    6925    6848    6847
CTETRA      2439       1   12785   12786     241     469   13104    6393+
+           4882    4883    4871    3373
CTETRA      2440       1   16316     211     158     166    4828    3902+
+           5851    4842    2237    4862
CTETRA      2441       1   16316   16363     158     211   16601    6926+
+           5851    4828    2003    3902
CTETRA      2442       1   17512   13176     318     473   13271    3253+
+           6927    6928    3408    6929
CTETRA      2443       1   13581     317     369     318    3399    2764+
+           3402    6229    2480    4027
CTETRA      2444       1   13592   13602      25     440   14406    2472+
+           5717    5719    5878    3229
CTETRA      2445       1   13470       8     373       7    4785    6930+
+           6145    4786    4783    2783
CTETRA      2446       1   17512     318   13177     861    6927    3252+
+          13278    6931    6932    6933
CTETRA      2447       1   17556     318   13176     441    3251    3253+
+          13280    4171    4028    3233
CTETRA      2448       1   17556   14745   14747     318   15102   15108+
+          15107    3251    4998    4999
CTETRA      2449       1   11997   12002   12000     469   12266   12269+
+          12252    3371    4347    4869
CTETRA      2450       1   17521   17522   13178     555   17540   13290+
+          13294    3927    6887    3928
CTETRA      2451       1   13177     318     440     861    3252    5720+
+           6934    6933    6932    6935
CTETRA      2452       1   15550     170   15558      50    6936    4736+
+          15701    6937    5018    1396
CTETRA      2453       1   16309     267   16374     170    4907    2242+
+          16617    6938    6939    5016
CTETRA      2454       1   12005     102     469     646    6940    5684+
+           6941    6942    5686    4874
CTETRA      2455       1   14724     321     309     310    2508    2510+
+           2439    2438    4141    2434
CTETRA      2456       1   16371   16374   16372     268   16607   16606+
+          16608    6943    2245    6944
CTETRA      2457       1   16374     170     267      50    5016    6939+
+           2242    5019    5018    6633
CTETRA      2458       1   16007     862     268     863    6945    6946+
+           6947    6948    6949    6950
CTETRA      2459       1   12424     241     657     864    2138    6951+
+           6952    6953    6954    6955
CTETRA      2460       1   13421   13436     130     129   13828    6956+
+           5416    5417    5955    1672
CTETRA      2461       1   18088   11669   17256     865   11716   11717+
+          17265    6957    6958    6959
CTETRA      2462       1   14643   14698   14700     197   14949   14952+
+          14951    3816    3815    1934
CTETRA      2463       1   11972   11973     242     661   12177    4266+
+           6960    6961    6962    6963
CTETRA      2464       1   18029   11664     866     867   11746    6964+
+           6965    6966    6967    6968
CTETRA      2465       1   12712   12736   12734     465   12893   12892+
+          12878    4104    5791    4089
CTETRA      2466       1   11976   11977     243     232   12199    2142+
+           2167    2963    2143    2145
CTETRA      2467       1   14661   14708   14705     355   14979   14981+
+          14959    2685    2684    6969
CTETRA      2468       1   13564     551     520     380    4749    6970+
+           6971    6972    3912    6973
CTETRA      2469       1   17281     232   13164     399    2961    2965+
+          13200    5069    2967    2959
CTETRA      2470       1   11965   11966   11973     596   12154   12176+
+          12175    6780    6807    4263
CTETRA      2471       1   12717     242     391     232    2918    2917+
+           2915    6370    2144    2920
CTETRA      2472       1   12015   12029   12026     152   12382   12383+
+          12371    1749    1751    4280
CTETRA      2473       1   12734     243     242     232    2169    2141+
+           4091    2170    2145    2144
CTETRA      2474       1   13605     285     281     282    2315    2317+
+           2319    2305    2316    2300
CTETRA      2475       1   11998   12000   12001     100   12251   12255+
+          12254    6974    4868    1584
CTETRA      2476       1   12431     461   12432     868    6975    6976+
+          12482    6977    6978    6979
CTETRA      2477       1   13594   13595   13606      80   14385   14414+
+          14418    2861    1494    2862
CTETRA      2478       1   13596     435      79      66    6770    6762+
+           3111    3628    3196    1496
CTETRA      2479       1   13583   13584   13595      66   14350   14379+
+          14383    1459    1461    1495
CTETRA      2480       1   13442   13449   13447     635   13882   13879+
+          13881    5584    4575    5574
CTETRA      2481       1   14760   14764      79      66   15186    4055+
+           4054    3195    1454    1496
CTETRA      2482       1   17415     869   12432     870    6980    6981+
+          12546    6982    6983    6984
CTETRA      2483       1   15537   15538   15635     157   15789   16000+
+          16001    3893    1766    3894
CTETRA      2484       1   14762     482   14768      67    6985    3467+
+          15194    3483    3466    3465
CTETRA      2485       1   13593     285   13605     221    2852    2315+
+          14422    2853    2314    2302
CTETRA      2486       1   14767   14768   14769     483   15195   15202+
+          15203    3484    3468    3609
CTETRA      2487       1   17416   12433     871     872   12548    6986+
+           6987    6988    6989    6990
CTETRA      2488       1   17504   13462   13661     836   13949   14641+
+          14619    6736    6991    6992
CTETRA      2489       1   13562     482     381      67    6346    6993+
+           3825    6994    3466    6995
CTETRA      2490       1   17591     483   13582     873    3613    3615+
+          14346    6996    6997    6998
CTETRA      2491       1   12714   12728   12715     780   12864   12872+
+          12874    6999    6356    6814
CTETRA      2492       1   15550   15551   15558     170   15675   15702+
+          15701    6936    1827    4736
CTETRA      2493       1   16960   16961     422     350   17019    7000+
+           3121    3124    7001    3125
CTETRA      2494       1   16961   16962     165     350   17020    7002+
+           1807    7001    7003    3486
CTETRA      2495       1   16965   16967   16966     165   17031   17034+
+          17032    1808    7004    7005
CTETRA      2496       1   18002     165     326     874    7006    7007+
+           2532    7008    7009    7010
CTETRA      2497       1   13397     161     165     485    1813    1809+
+           1815    3488    7011    3489
CTETRA      2498       1   13401   13408   13407     350   13739   13741+
+          13740    5638    3496    7012
CTETRA      2499       1   17977     772     639     773    6171    7013+
+           7014    6172    6174    7015
CTETRA      2500       1   13406     326   13407     165    2542    2541+
+          13735    2553    7007    2554
CTETRA      2501       1   11991   11992   11993     147   12233   12243+
+          12242    5661    7016    6699
CTETRA      2502       1   16962     326     165     350    7017    7007+
+           7002    7003    5622    3486
CTETRA      2503       1   17992   11582   11573      97   11641   11615+
+          11642    2991    1576    1571
CTETRA      2504       1   17333   11762   11766     129   11828   11826+
+          11824    5953    5954    6266
CTETRA      2505       1   18109   15321   15322     352   15395   15387+
+          15394    4603    7018    7019
CTETRA      2506       1   16962     326   16967     165    7017    7020+
+          17028    7002    7007    7004
CTETRA      2507       1   17680   17681   16032     810   17698   16142+
+          16143    7021    7022    6540
CTETRA      2508       1   17352   12024   12023     458   12361   12360+
+          12363    6091    3719    7023
CTETRA      2509       1   17337     768     859     875    6130    7024+
+           7025    7026    7027    7028
CTETRA      2510       1   13447   13449     610     635   13879    4565+
+           6124    5574    4575    4577
CTETRA      2511       1     251     859     559     655    7029    7030+
+           4958    4956    7031    4957
CTETRA      2512       1   18033      32   11668     201    1337    1336+
+          11738    7032    1964    1963
CTETRA      2513       1   17957   16959   16970     426   17009   17052+
+          17050    3497    3126    3118
CTETRA      2514       1   12418   12438   12437     127   12509   12508+
+          12506    2463    4704    3560
CTETRA      2515       1   17453     655     559     822    4719    4957+
+           4964    6636    7033    7034
CTETRA      2516       1   17796     809   16012     876    7035    6534+
+          16195    7036    7037    7038
CTETRA      2517       1   16866   16867   16876     877   16909   16908+
+          16907    7039    7040    7041
CTETRA      2518       1   17671   16042     878     879   16162    7042+
+           7043    7044    7045    7046
CTETRA      2519       1   13426     251   13460     674    5266    4961+
+          13939    5280    4959    4963
CTETRA      2520       1   12417     127     500     880    3554    3557+
+           3556    7047    7048    7049
CTETRA      2521       1   17337     859     251     655    7025    7029+
+           7050    5731    7031    4956
CTETRA      2522       1   17524   13169   13161     559   13235   13237+
+          13236    6640    3953    3952
CTETRA      2523       1   17524   13169     559     881   13235    3953+
+           6640    7051    7052    7053
CTETRA      2524       1   17335     250   17336      95    4491    2203+
+          17344    7054    7055    1562
CTETRA      2525       1   16350   16351     302     512   16529    3537+
+           2393    5835    7056    4452
CTETRA      2526       1   15619     497     302     512    3605    3544+
+           7057    3606    3608    4452
CTETRA      2527       1   15632   15635     512     211   15998    4900+
+           5830    6521    3896    4176
CTETRA      2528       1   12783     126   12784     311    6721    7058+
+          13080    6710    2442    2724
CTETRA      2529       1   11975     242     465     243    7059    4090+
+           3673    7060    2141    4092
CTETRA      2530       1   11957     344     330     346    6664    5107+
+           4016    5078    6662    2643
CTETRA      2531       1   17937     882   17130     883    7061    7062+
+          17151    7063    7064    7065
CTETRA      2532       1   11929   11988     276     558   12214    7066+
+           2283    7067    7068    3950
CTETRA      2533       1   15619     302   15620     512    7057    3600+
+          15950    3606    4452    5798
CTETRA      2534       1   17389     884     462     885    7069    7070+
+           4093    7071    7072    7073
CTETRA      2535       1   11960   11963   11961     342   12129   12131+
+          12130    3396    2816    3665
CTETRA      2536       1   15568   15571   15569     164   15750   15751+
+          15752    3087    4262    3088
CTETRA      2537       1   13595   13607   13606      80   14413   14415+
+          14414    1494    3133    2862
CTETRA      2538       1   15620     512     302     510    5798    4452+
+           3600    3598    7074    3599
CTETRA      2539       1   17977   17784   18108     773   16172   17805+
+          17978    6172    7075    6173
CTETRA      2540       1   15620     512     510     747    5798    7074+
+           3598    5801    7076    5802
CTETRA      2541       1   16212     776     512     886    6193    7077+
+           7078    7079    7080    7081
CTETRA      2542       1   12014   12015     335     433   12343    3344+
+           3343    3726    7082    3339
CTETRA      2543       1   11990     547     364     147    6059    5653+
+           5700    5662    6698    5602
CTETRA      2544       1   17420   12437   17421     729   12556   12557+
+          17441    5580    5582    7083
CTETRA      2545       1   11964   11969     340     661   12160    2615+
+           7084    7085    4793    4795
CTETRA      2546       1   11969   11972     341     661   12170    6818+
+           2617    4793    6961    4794
CTETRA      2547       1   11964     340   11965     661    7084    6718+
+          12148    7085    4795    6781
CTETRA      2548       1   12715     780   12728     340    6814    6356+
+          12872    6815    6359    3065
CTETRA      2549       1   11965     596   11973     661    6780    4263+
+          12175    6781    6783    6962
CTETRA      2550       1   12743   12750   12749     459   12929   12935+
+          12934    3737    6410    7086
CTETRA      2551       1   14649   14733   14742     617   15088   15090+
+          15089    6125    7087    4866
CTETRA      2552       1   12716   12729     341     661   12875    3409+
+           6715    7088    7089    4794
CTETRA      2553       1   18092   17363   11992     148   17364   12230+
+          12228    7090    7091    7092
CTETRA      2554       1   12716     341     242     661    6715    6308+
+           2916    7088    4794    6963
CTETRA      2555       1   13599   13600   13610     309   14392   14426+
+          14429    2433    2424    7093
CTETRA      2556       1   13610      28   13611     320    7094    5723+
+          14427    7095    5722    5725
CTETRA      2557       1   13601      25      30      26    1299    1331+
+           1317    1302    1301    1320
CTETRA      2558       1   14722   14723      28      26   15140    1310+
+           7096    1333    1311    1312
CTETRA      2559       1   14755      30   14756     320    2502    4980+
+          15179    2497    2503    4644
CTETRA      2560       1   15621     153   15627     203    3616    6147+
+          15959    6062    4157    1974
CTETRA      2561       1   15622   15626     153     519   15954    6148+
+           3618    3648    6236    3649
CTETRA      2562       1   16347     153   16353     519    6549    1752+
+          16538    6233    3649    6234
CTETRA      2563       1   12607     146     412     154    1755    7097+
+           5673    1758    1757    7098
CTETRA      2564       1   12745     459     339     458    6409    7099+
+           7100    3704    3317    5148
CTETRA      2565       1   12017     339   12019     459    5146    6398+
+          12332    7101    7099    7102
CTETRA      2566       1   14675   14676   14692     385   14845   14906+
+          14905    5009    2912    2901
CTETRA      2567       1   17447   12703   12765     331   12804   13018+
+          13016    5073    5075    5074
CTETRA      2568       1   13396   13397     422     485   13693    4063+
+           4360    7103    3488    7104
CTETRA      2569       1   17447     330     108     331    4009    5924+
+           4836    5073    2564    6179
CTETRA      2570       1   13532     109   13547     108    1615    7105+
+          14209    1611    4921    5394
CTETRA      2571       1   14744     523     366     370    3690    3689+
+           3692    2759    4450    3805
CTETRA      2572       1   17915   16875   17916     488   16930   16931+
+          17925    7106    7107    7108
CTETRA      2573       1   17447     331     108     136    5073    6179+
+           4836    4946    2572    1688
CTETRA      2574       1   17600   13514   13507     887   14094   14096+
+          14073    7109    7110    7111
CTETRA      2575       1   17448   12723   12703     329   12806   12805+
+          12803    6593    6039    2566
CTETRA      2576       1   13588   13599   13598     310   14394   14396+
+          14395    3667    2435    5040
CTETRA      2577       1   13543   13547   13546     108   14211   14215+
+          14214    5927    5394    7112
CTETRA      2578       1   17957   16959     426     733   17009    3126+
+           3497    7113    5635    5637
CTETRA      2579       1   17447     137     108     195    1917    5926+
+           4836    1918    1920    4838
CTETRA      2580       1   17958     350   16959     733    2664    3123+
+          17008    7114    5636    5635
CTETRA      2581       1   11761   11762   11770     610   11820   11849+
+          11850    4580    5715    4554
CTETRA      2582       1   17410   12427   17411     688   12536   12537+
+          17431    5548    5143    6248
CTETRA      2583       1   13545   13549   13548     131   14223   14220+
+          14221    4904    4915    5008
CTETRA      2584       1   13543   13548     137     131   14212    7115+
+           5925    5007    5008    1697
CTETRA      2585       1   17468   12617   12616     888   12680   12679+
+          12676    7116    7117    7118
CTETRA      2586       1   13546     108     129     131    7112    4920+
+           1671    1674    1692    1675
CTETRA      2587       1   15580   15582     314     287   15804    7119+
+           5863    7120    6466    4684
CTETRA      2588       1   14658   14674   14690     183   14840   14894+
+          14893    5591    5590    6009
CTETRA      2589       1   13545     130     305     131    2948    2833+
+           2950    4904    1676    2940
CTETRA      2590       1   13545     305   13549     131    2950    4913+
+          14223    4904    2940    4915
CTETRA      2591       1   13543     108   13546     131    5927    7112+
+          14214    5007    1692    1674
CTETRA      2592       1   12750   12752   12753     458   12946   12951+
+          12950    7121    3706    7122
CTETRA      2593       1   13542   13543     137     185   14204    5925+
+           4413    4412    7123    1916
CTETRA      2594       1   11666   11667   11676     280   11706   11705+
+          11704    2293    2292    3472
CTETRA      2595       1   13540     237   13549     670    5484    5461+
+          14217    5485    5474    4888
CTETRA      2596       1   17448   14685   14684     137   14878   14876+
+          14875    1695    4942    4943
CTETRA      2597       1   14688     236   14691     237    7124    7125+
+          14912    2127    2139    5475
CTETRA      2598       1   13542   13543   13548     137   14204   14212+
+          14213    4413    5925    7115
CTETRA      2599       1   13506   13507   13513     187   14079   14100+
+          14099    7126    1945    1888
CTETRA      2600       1   13553      60     617      64    4384    6127+
+           4401    4385    1451    4403
CTETRA      2601       1   13553      60     570     617    4384    4026+
+           6120    4401    6127    6126
CTETRA      2602       1   13554     580   13572     617    7127    7128+
+          14294    7129    6138    4858
CTETRA      2603       1   12618     889     458     890    7130    7131+
+           6092    7132    7133    7134
CTETRA      2604       1   13572     580     551     617    7128    4756+
+           5789    4858    6138    4867
CTETRA      2605       1   14649      60   14650      64    6118    7135+
+          14971    7136    1451    6113
CTETRA      2606       1   17600     891   13507     892    7137    7138+
+          14073    7139    7140    7141
CTETRA      2607       1   14648   14742     580     617   15091    7142+
+           6134    6137    4866    6138
CTETRA      2608       1   14644   14717   14645     620   15023   15026+
+          15028    6417    5556    6418
CTETRA      2609       1   13471       7       6       5    4551    1231+
+           4552    7143    1233    1226
CTETRA      2610       1   13481   13485   13484     557   13992   13994+
+          13993    4072    4081    3943
CTETRA      2611       1   14789   14792   14791     660   15281   15283+
+          15282    7144    5932    4767
CTETRA      2612       1   13576     579       4     581    4155    4154+
+           4152    4747    4181    4180
CTETRA      2613       1   14644     620       2     370    6417    4437+
+           6419    6416    4441    4440
CTETRA      2614       1   13474   13559   13558     197   14238   14237+
+          14235    1939    3834    6420
CTETRA      2615       1   13471       8       7       5    4784    4783+
+           4551    7143    1237    1233
CTETRA      2616       1   14681     566     235     431    7145    7146+
+           4846    7147    7148    7149
CTETRA      2617       1   12617     459     530     888    3318    7150+
+           7151    7117    7152    7153
CTETRA      2618       1   14644       2   14749     370    6419    4447+
+          15123    6416    4440    4449
CTETRA      2619       1   14646       4   14731       3    7154    4177+
+          15126    1220    1211    7155
CTETRA      2620       1   16315     162   16340     158    4183    6503+
+          16498    3863    1781    5852
CTETRA      2621       1   16338     158   16340     159    5677    5852+
+          16496    5678    1784    7156
CTETRA      2622       1   16316     158   16338     166    5851    5677+
+          16482    4842    4862    4472
CTETRA      2623       1   15538   15578     156     158   15778    4225+
+           1764    1767    4226    1768
CTETRA      2624       1   13559   13560   13580     367   14241   14336+
+          14334    4172    2750    6405
CTETRA      2625       1   12014   12021   12015     433   12341   12344+
+          12343    3726    3716    7082
CTETRA      2626       1   15534   15548   15547     272   15648   15653+
+          15651    6592    2268    5337
CTETRA      2627       1   15537   15579     158     166   15791    5367+
+           3901    2236    1810    4862
CTETRA      2628       1   16315   16363     157     158   16602    2026+
+           3861    3863    6926    1769
CTETRA      2629       1   17829   16328   16327     125   16413   16412+
+          16411    1660    1659    5983
CTETRA      2630       1   13397   13407   13408     350   13745   13741+
+          13751    3487    7012    3496
CTETRA      2631       1   16363     157     158     211    2026    1769+
+           6926    2003    3895    3902
CTETRA      2632       1   17769     211   16212     776    2309    7157+
+          16232    6192    7158    6193
CTETRA      2633       1   13591   13592   13602      25   14372   14406+
+          14404    1298    5717    2472
CTETRA      2634       1   17511   13177     440     861   13275    6934+
+           7159    7160    6933    6935
CTETRA      2635       1   13502     183     377     566    1872    5595+
+           5597    6013    6001    5692
CTETRA      2636       1   17511   13177   13175     440   13275   13274+
+          13273    7159    6934    7161
CTETRA      2637       1   17555   13175   13177     440   13265   13274+
+          13276    7162    7161    6934
CTETRA      2638       1   13510   13511   13518     186   14089   14113+
+          14109    3147    3158    7163
CTETRA      2639       1   13603     316     440     619    4435    4428+
+           5879    4434    4421    4431
CTETRA      2640       1   17555     440   13177     893    7162    6934+
+          13276    7164    7165    7166
CTETRA      2641       1   11761   11765   11763     635   11815   11822+
+          11819    4581    5578    5561
CTETRA      2642       1   11766     588     129     636    5222    5613+
+           6266    6267    5617    5616
CTETRA      2643       1   11929   11930   11943     276   12048   12047+
+          12043    2283    2285    5368
CTETRA      2644       1   14708     666     355     356    4811    6923+
+           2684    2687    5388    2688
CTETRA      2645       1   12607     154     412     567    1758    7098+
+           5673    4003    6566    7167
CTETRA      2646       1   13436   13447     610     636   13874    6124+
+           7168    6268    5575    4583
CTETRA      2647       1   15318     217     750     894    2052    5842+
+           7169    7170    7171    7172
CTETRA      2648       1   11761   11763   11762     636   11819   11821+
+          11820    4582    5583    5716
CTETRA      2649       1   11763     588   11766     636    5945    5222+
+          11827    5583    5617    6267
CTETRA      2650       1   13580     317     366     367    3400    2735+
+           5110    6405    2739    2738
CTETRA      2651       1   11960   11961   11969     342   12130   12159+
+          12161    3396    3665    2618
CTETRA      2652       1   13610     721     447     309    6838    5524+
+           6839    7093    7173    4143
CTETRA      2653       1   17592   15334   15329     482   15446   15449+
+          15448    7174    7175    7176
CTETRA      2654       1   16343   16350   16352     497   16528   16516+
+          16526    5828    5834    6810
CTETRA      2655       1   15588   15622     410     519   15931    3647+
+           3032    6677    3648    3650
CTETRA      2656       1   11971   11972   11977     341   12172   12194+
+          12195    2622    6818    2944
CTETRA      2657       1   17584   17585   13413     640   17608   13764+
+          13763    6880    4600    4602
CTETRA      2658       1   13389   13395   13390      34   13670   13669+
+          13671    5940    7177    7178
CTETRA      2659       1   13626     546   13649     659    5101    6325+
+          14562    5103    5102    5812
CTETRA      2660       1   12717   12733   12731     391   12866   12869+
+          12860    2915    5068    6372
CTETRA      2661       1   11968   11971   11970     395   12169   12168+
+          12167    5571    5572    2933
CTETRA      2662       1   12413     596     895     781    5025    7179+
+           7180    6217    6779    7181
CTETRA      2663       1   17957   17958   16959     733   17966   17008+
+          17009    7113    7114    5635
CTETRA      2664       1   12731     394     391     395    5114    2928+
+           6372    5116    2935    2934
CTETRA      2665       1   11960   11969   11968     341   12161   12162+
+          12157    5404    2617    2621
CTETRA      2666       1     188     283      47     125    5988    5949+
+           1903    6822    6821    5984
CTETRA      2667       1   13608   13609   13615     427   14425   14449+
+          14443    3286    3268    3259
CTETRA      2668       1   17713     188      47     125    1904    1903+
+           1902    6823    6822    5984
CTETRA      2669       1   16022      14     896     779    5328    7182+
+           7183    6212    7184    7185
CTETRA      2670       1   17763   15314   15316     897   15356   15354+
+          15352    7186    7187    7188
CTETRA      2671       1   17828     423   16972     614    3306    7189+
+          17057    5278    5938    5279
CTETRA      2672       1   14759   14770   14774     427   15205   15219+
+          15217    4132    5161    3165
CTETRA      2673       1   13587   13588   13598     578   14361   14395+
+          14389    5043    5041    4136
CTETRA      2674       1   17715     546     163     119    5930    5806+
+           6575    5931    5810    5809
CTETRA      2675       1   12721   12729   12728     340   12846   12845+
+          12844    3064    4791    3065
CTETRA      2676       1   15604      59     216      56    1534    2039+
+           4499    2030    2029    5327
CTETRA      2677       1   16039     898      58     899    7190    7191+
+           3624    7192    7193    7194
CTETRA      2678       1   13652   13655   13653     163   14584   14579+
+          14585    3870    5804    1895
CTETRA      2679       1   12715   12728   12729     340   12872   12845+
+          12873    6815    3065    4791
CTETRA      2680       1   17470   12757   12744     103   12975   12976+
+          12931    7195    7196    3747
CTETRA      2681       1   13652     546     163     188    5836    5806+
+           3870    5928    5817    5816
CTETRA      2682       1   12725   12726     494     417   12835    7197+
+           7198    5410    6277    7199
CTETRA      2683       1   17636   14768     482     513   15193    3467+
+           7200    7201    3610    3612
CTETRA      2684       1   17258     694   11671     696    7202    5192+
+          11721    7203    5196    5195
CTETRA      2685       1   17636     482   14763     900    7200    7204+
+          15182    7205    7206    7207
CTETRA      2686       1   17592     482   13561     901    7174    6344+
+          14292    7208    7209    7210
CTETRA      2687       1   17729   15632   15620     747   15984   15985+
+          15942    5800    7211    5801
CTETRA      2688       1   16211   16212     512     621   16230    7078+
+           4451    4454    6515    4455
CTETRA      2689       1   14762     381   14763     482    4033    7212+
+          15152    6985    6993    7204
CTETRA      2690       1   16345   16346      83      88   16512    7213+
+           7214    7215    4522    7216
CTETRA      2691       1   17592   13575   13561     482   14312   14314+
+          14292    7174    6345    6344
CTETRA      2692       1   13562   13575     381     482   14316    7217+
+           3825    6346    6345    6993
CTETRA      2693       1   13558   13559   13579     370   14237   14332+
+          14329    4439    6421    5856
CTETRA      2694       1   13533     278     109     280    6262    4196+
+           4005    6263    6252    6385
CTETRA      2695       1   11675     278     280     484    3476    6252+
+           3471    3477    3479    7218
CTETRA      2696       1   11572      94     859     820    6627    7219+
+           7220    6629    6628    7221
CTETRA      2697       1   17448   12723     329     677   12806    6039+
+           6593    5004    7222    6598
CTETRA      2698       1   12767     126     437     128    2448    5608+
+           6427    2449    1668    5135
CTETRA      2699       1   17294   12406   12405     472   12595   12461+
+          12598    3394    6403    3395
CTETRA      2700       1   13420   13547   13533     278   14231   14210+
+          14232    6259    5396    6262
CTETRA      2701       1   13547     109     278     108    7105    4196+
+           5396    5394    4921    5395
CTETRA      2702       1   13188     577     264     600    4127    4131+
+           4130    4292    4881    4293
CTETRA      2703       1   17554   13174   13175     619   13260   13262+
+          13264    7223    7224    7225
CTETRA      2704       1   13610     721      28     320    6838    7226+
+           7094    7095    5432    5722
CTETRA      2705       1   13624     660     721     659    5444    5507+
+           5441    5442    4766    5428
CTETRA      2706       1   17331     109     280     346    2641    6385+
+           4013    2642    2644    4015
CTETRA      2707       1   11670   11671      29     255   11683    1315+
+           1314    2185    7227    7228
CTETRA      2708       1   17258   11672   17259     796   11722   11723+
+          17268    7229    6443    7230
CTETRA      2709       1   13533     109   13534     280    4005    1614+
+          14162    6263    6385    6349
CTETRA      2710       1   17446   17447     330     108   17461    4009+
+           4006    1607    4836    5924
CTETRA      2711       1   15554   15561     630     436   15713    6028+
+           7231    6649    3203    7232
CTETRA      2712       1   17762     630   15315     693    7233    7234+
+          15358    7235    7236    5190
CTETRA      2713       1   16381     630   16382     632    5214    7237+
+          16659    4558    5205    4559
CTETRA      2714       1   17795   16013   16012     809   16193   16075+
+          16196    7238    7239    6534
CTETRA      2715       1   16380     271   16387     632    5315    5344+
+          16681    5316    5313    5343
CTETRA      2716       1   15586   15587   15623     410   15869   15932+
+          15927    6678    3033    5768
CTETRA      2717       1   15586   15603   15587      57   15868   15864+
+          15869    6679    3016    3019
CTETRA      2718       1   15554   15559   15561     436   15705   15715+
+          15713    6649    3201    3203
CTETRA      2719       1   17352   17353   12617     826   17378   12677+
+          12678    7240    7241    6682
CTETRA      2720       1   13606   13607   13622     428   14415   14465+
+          14466    3175    3129    3179
CTETRA      2721       1   17849   16216   16210     519   16255   16254+
+          16250    5774    5773    7242
CTETRA      2722       1   16385     436     630      46    3216    7232+
+           6020    3217    3218    6016
CTETRA      2723       1   15622     153   15623     410    3618    3617+
+          15933    3647    3646    5768
CTETRA      2724       1   16382     630   16385     436    7237    6020+
+          16666    6646    7232    3216
CTETRA      2725       1   16023   16024       9     902   16119    4640+
+           5319    7243    7244    7245
CTETRA      2726       1   15543   15554     630     632   15689    7231+
+           5206    5204    6648    5205
CTETRA      2727       1   17392     558     147     830    6705    3951+
+           1723    6706    6708    7246
CTETRA      2728       1   11938     495   11967     417    7247    7248+
+          12141    4899    7249    4788
CTETRA      2729       1   11985   11986   12009     471   12237   12307+
+          12306    7250    5173    3390
CTETRA      2730       1   11961   11963   11962     417   12131   12139+
+          12140    3663    3876    4787
CTETRA      2731       1   11937   11962   11963     417   12137   12139+
+          12136    4898    4787    3876
CTETRA      2732       1   17471   12757     794     903   12977    7251+
+           7252    7253    7254    7255
CTETRA      2733       1   12796   12799   12797     146   13133   13132+
+          13134    1731    7256    1732
CTETRA      2734       1   11936     329   11947     378    2557    2558+
+          12062    7257    6041    5414
CTETRA      2735       1   12721   12724     342     378   12821    3078+
+           3077    3413    2806    3414
CTETRA      2736       1   11929   11988   11991     276   12214   12223+
+          12222    2283    7066    2284
CTETRA      2737       1   12438     127     126     653    4704    1665+
+           6430    4705    4707    7258
CTETRA      2738       1   11967     417     495     340    4788    7249+
+           7248    4790    3066    6360
CTETRA      2739       1   12720   12728     495     417   12843    6358+
+           7259    6278    3062    7249
CTETRA      2740       1   17330     105      86     584    4200    6895+
+           5893    4202    4201    7260
CTETRA      2741       1   17602     105   13522     202    4170    1600+
+          14120    7261    4038    1968
CTETRA      2742       1   17350   12016   12020     528   12337   12340+
+          12339    7262    7263    3722
CTETRA      2743       1   18089   17330     584     585   17339    4202+
+           7264    4465    4203    4205
CTETRA      2744       1   13534     105     109     106    1601    6384+
+           1614    1604    1603    1616
CTETRA      2745       1   12712     243   12758     462    4105    7265+
+          12988    4106    4107    7266
CTETRA      2746       1   17445     200     105     549    1956    1972+
+           1971    3890    3892    6853
CTETRA      2747       1   17935     837      69     834    7267    7268+
+           6727    6730    7269    6731
CTETRA      2748       1   17602     105   15340     904    4170    4110+
+          15474    7270    7271    7272
CTETRA      2749       1   16371     272   16387     271    6161    5967+
+          16683    7273    5338    5344
CTETRA      2750       1   13535   13537     105      86   14172    5885+
+           4929    5421    7274    6895
CTETRA      2751       1   17911     905   16871     906    7275    7276+
+          16922    7277    7278    7279
CTETRA      2752       1   18109     352   15322     538    4603    7019+
+          15394    3784    7280    3785
CTETRA      2753       1   13534     105   13537     280    1601    5885+
+          14171    6349    6386    6350
CTETRA      2754       1   16376     272     639     749    5962    6585+
+           6175    5964    5963    6048
CTETRA      2755       1   17878   15316   15314     907   15355   15354+
+          15350    7281    7282    7283
CTETRA      2756       1   13521   13522   13534     106   14126   14164+
+          14163    1952    1602    1604
CTETRA      2757       1   16211     302   16213     304    4453    2402+
+          16238    3539    2406    2405
CTETRA      2758       1   16011   16031     173     172   16068    4247+
+           6763    7284    4248    1832
CTETRA      2759       1   15619     497   15625     302    3605    7285+
+          15948    7057    3544    6065
CTETRA      2760       1   16349     497   16350     302    3541    5834+
+          16515    3542    3544    2393
CTETRA      2761       1   18100   13411     785     908   13759    7286+
+           6279    7287    7288    7289
CTETRA      2762       1   16350     302     497     512    2393    3544+
+           5834    5835    4452    3608
CTETRA      2763       1   12704   12725     499     378   12819    6696+
+           5088    6040    4156    5415
CTETRA      2764       1   17846     302   16214     303    2403    3623+
+          16241    7290    6063    2399
CTETRA      2765       1   11764     189     635     742    5559    5563+
+           5562    5750    7291    7292
CTETRA      2766       1   12704   12705   12770     499   12834   13013+
+          13014    5088    4502    6038
CTETRA      2767       1   13637     332   13648     354    2582    7293+
+          14551    6307    7294    4776
CTETRA      2768       1   17212   11510   11513     189   11559   11560+
+          11557    7295    7296    7297
CTETRA      2769       1   17282   13165     243     909   13213    4099+
+           2166    7298    7299    7300
CTETRA      2770       1   11762     129     610     636    5954    7301+
+           5715    5716    5616    4583
CTETRA      2771       1   11568     227     229     910    2075    2079+
+           2078    7302    7303    7304
CTETRA      2772       1   13636   13646     353     354   14558    6295+
+           6289    6291    6296    2675
CTETRA      2773       1   18011   11570      36      38   11649    1344+
+           7305    7306    1348    1350
CTETRA      2774       1   13650   13653   13655     163   14577   14579+
+          14575    5803    1895    5804
CTETRA      2775       1   17559   13184     175     382   13315    1930+
+           1927    7307    2847    2849
CTETRA      2776       1   17876   15317     262     751   15366    4571+
+           5211    7308    5868    7309
CTETRA      2777       1   14788     721     660     659    5446    5507+
+           5449    5448    5428    4766
CTETRA      2778       1   17713     188   17714     353    1904    5815+
+          17724    6885    5833    5826
CTETRA      2779       1   12738   12747   12739     152   12918   12921+
+          12920    3754    3753    4990
CTETRA      2780       1   17713   14793     225     353   15287    2574+
+           7310    6885    2672    2671
CTETRA      2781       1   12420     364     365     689    2726    2729+
+           2728    5166    7311    5167
CTETRA      2782       1   13636     353   13651     192    6289    7312+
+          14568    7313    6886    7314
CTETRA      2783       1   13535   13538   13537      86   14184   14186+
+          14172    5421    1525    7274
CTETRA      2784       1   17194   13443   17195     663   13854   13859+
+          17200    7315    4798    7316
CTETRA      2785       1   15606     144     216      23    2754    6288+
+           6300    2755    2757    6302
CTETRA      2786       1   16402   16405   16404      24   16751   16752+
+          16744    1294    2747    2746
CTETRA      2787       1   17936   13657     911     882   14599    7317+
+           7318    7319    7320    7321
CTETRA      2788       1   16402   16404      13      24   16744    6485+
+           1296    1294    2746    1295
CTETRA      2789       1   11763   11768   11766     588   11829   11832+
+          11827    5945    5223    5222
CTETRA      2790       1   15600   15606     216      23   15871    6300+
+           7322    1289    2755    6302
CTETRA      2791       1   16390     144   16392      23    2109    2111+
+          16694    6301    2757    7323
CTETRA      2792       1   15600      23      14      10    1289    6355+
+           1256    1258    1291    1259
CTETRA      2793       1   17935     833     839     834    6729    6751+
+           7324    6730    6732    7325
CTETRA      2794       1   15600     216      14      23    7322    7326+
+           1256    1289    6302    6355
CTETRA      2795       1   13391   13400   13406     326   13719   13734+
+          13732    7327    2540    2542
CTETRA      2796       1   16963   16968   16967     326   17041   17042+
+          17029    5621    4396    7020
CTETRA      2797       1   17198   13431   13658     723   13802   14603+
+          14604    7328    5469    7329
CTETRA      2798       1   13550      62   13551     393    6156    1436+
+          14259    3590    2938    3573
CTETRA      2799       1   16771   16780     800     912   16809    6454+
+           7330    7331    7332    7333
CTETRA      2800       1   14704     703   14710      62    5378    5380+
+          14987    7334    5390    4814
CTETRA      2801       1   14649   14733     617      64   15088    7087+
+           6125    7136    4391    4403
CTETRA      2802       1   12020     433     458     528    3715    3705+
+           3717    3722    3724    7335
CTETRA      2803       1   17337   11780     768     875   11894    6131+
+           6130    7026    7336    7027
CTETRA      2804       1   16972   16976   16974     423   17075   17077+
+          17063    7189    7337    6486
CTETRA      2805       1   17525   17526   13170     913   17530   13230+
+          13232    7338    7339    7340
CTETRA      2806       1   13468     565      60      61    4011    3996+
+           1431    1433    5385    1434
CTETRA      2807       1   13551      62      63     393    1436    1442+
+           1446    3573    2938    2937
CTETRA      2808       1   17961   17962   16956     914   17964   16996+
+          16995    7341    7342    7343
CTETRA      2809       1   18090   13166   17283     575   13220   13219+
+          17288    7344    4097    7345
CTETRA      2810       1   14735     532   14738     508    3795    3797+
+          15063    5307    5290    5500
CTETRA      2811       1   17337   17338   11778     859   17347   11884+
+          11892    7025    6913    6912
CTETRA      2812       1   14652      62   14710     667    6855    4814+
+          14998    6846    4818    4817
CTETRA      2813       1   13552   13568   13570      64   14280   14284+
+          14277    1447    4404    6115
CTETRA      2814       1   17337   11778   11780     875   11892   11897+
+          11894    7026    7346    7336
CTETRA      2815       1   14650      63      64      61    6114    1448+
+           6113    7347    1445    1450
CTETRA      2816       1   17242   17243   11778     915   17252   11890+
+          11891    7348    7349    7350
CTETRA      2817       1   14651      62   14652     393    1441    6855+
+          14999    2936    2938    4591
CTETRA      2818       1   13509     183     235     182    1873    7351+
+           6005    6006    6010    5998
CTETRA      2819       1   17962      71   16956     914    1470    7352+
+          16996    7342    7353    7343
CTETRA      2820       1   17241   11579   17242     915   11631   11632+
+          17251    7354    7355    7348
CTETRA      2821       1   17717     142   17718     111    6573    7356+
+          17722    6342    7357    1619
CTETRA      2822       1   17716   17717     119     288   17721    5909+
+           5908    5978    2328    5980
CTETRA      2823       1   17243   11778     915     916   11890    7350+
+           7349    7358    7359    7360
CTETRA      2824       1   11664     588     866     867    6446    7361+
+           6964    6967    7362    6968
CTETRA      2825       1   15574     314     286     288    7363    6470+
+           2323    2329    6472    2330
CTETRA      2826       1   13520   13532   13543     108   14166   14202+
+          14201    4945    1611    5927
CTETRA      2827       1   12738     152   12739     455    3754    4990+
+          12920    4986    6408    3298
CTETRA      2828       1   15572     420   15575     314    5968    4677+
+          15773    7364    4673    4679
CTETRA      2829       1   16335     286   16336     287    6469    7365+
+          16461    4685    2326    7366
CTETRA      2830       1   15580     917     314     918    7367    7368+
+           5863    7369    7370    7371
CTETRA      2831       1   17563     324   13181     325    3933    2525+
+          13297    6859    2528    2527
CTETRA      2832       1   17211   11769   17212     795   11840   11841+
+          17226    7372    7373    7374
CTETRA      2833       1   17337     251     395     655    7050    3422+
+           5730    5731    4956    4716
CTETRA      2834       1   11763     635     189     636    5561    5563+
+           5560    5583    4584    5589
CTETRA      2835       1   17563   13182   13181     324   13301   13303+
+          13297    3933    7375    2525
CTETRA      2836       1   18025     919   11660     920    7376    7377+
+          11713    7378    7379    7380
CTETRA      2837       1   17332   11766   11758     278   11825   11831+
+          11802    4193    7381    7382
CTETRA      2838       1   17519   13181     324     323   13304    2525+
+           5455    6856    2524    6315
CTETRA      2839       1   14665     263   14669     324    5439    7383+
+          14818    2843    2837    3934
CTETRA      2840       1   17519     324   13182     921    5455    7375+
+          13305    7384    7385    7386
CTETRA      2841       1   12774   12777   12775     442   13046   13048+
+          13047    5361    3249    3248
CTETRA      2842       1   17212   11764   17213     742   11817   11816+
+          17227    7387    5750    5749
CTETRA      2843       1   18030   18031   11666     279   18038   11742+
+          11745    6007    7388    2289
CTETRA      2844       1   13533   13537   13536     280   14173   14175+
+          14174    6263    6350    6264
CTETRA      2845       1   13482     263   13487     324    5014    2218+
+          14018    5436    2837    2836
CTETRA      2846       1   11665   11666     278     279   11702    2288+
+           4229    6008    2289    2291
CTETRA      2847       1   17642     477   14709     479    7389    3438+
+          14984    7390    7391    3455
CTETRA      2848       1   17641   15346   15348     667   15513   15520+
+          15522    7392    7393    7394
CTETRA      2849       1   11665   11675   11674     278   11700   11699+
+          11697    4229    3476    4220
CTETRA      2850       1   18031   11667   11666     277   11743   11706+
+          11742    7395    2294    2286
CTETRA      2851       1   14662     356     184     187    7396    2690+
+           7397    3457    7398    4030
CTETRA      2852       1   11947   11948   11954     329   12063   12103+
+          12098    2558    2556    5506
CTETRA      2853       1   17642   14711     477     544   14992    4812+
+           7389    3845    3844    6911
CTETRA      2854       1   17598   15346   15344     477   15511   15510+
+          15509    7399    7400    7401
CTETRA      2855       1   17598     477   13465     851    7399    4822+
+          14041    7402    7403    6851
CTETRA      2856       1   11764   11769   11768     189   11842   11843+
+          11830    5559    7404    7405
CTETRA      2857       1   12016     152   12020     528    1750    3720+
+          12340    7263    3723    3722
CTETRA      2858       1   11664   11665     588     591   11698    5038+
+           6446    7406    4232    5039
CTETRA      2859       1   13440   13441   13448     189   13851   13877+
+          13876    7407    5565    5588
CTETRA      2860       1   16340     159     162     421    7156    1783+
+           6503    6504    3086    3085
CTETRA      2861       1   11937   11947   11946     499   12069   12071+
+          12070    5412    5411    3551
CTETRA      2862       1   17448     130     136     131    4493    1694+
+           1687    1690    1676    1691
CTETRA      2863       1   13420     278   13438     129    6259    6258+
+          13835    5943    5398    6247
CTETRA      2864       1   13446   13449   13450      96   13880   13886+
+          13885    6133    4564    2982
CTETRA      2865       1   17335     254     250      95    4492    2183+
+           4491    7054    2381    7055
CTETRA      2866       1   17238   11575   17239     295   11624   11625+
+          17248    2367    2348    7408
CTETRA      2867       1   12018   12022   12023     459   12350   12354+
+          12353    7409    7410    7411
CTETRA      2868       1   17337   11970   17338     655   12165   12166+
+          17347    5731    4715    4725
CTETRA      2869       1   17243   11581   17244     922   11635   11636+
+          17253    7412    7413    7414
CTETRA      2870       1   15573   15576     420     421   15774    7415+
+           3107    3094    4246    3083
CTETRA      2871       1   17337      94     251     859    7416    2202+
+           7050    7025    7219    7029
CTETRA      2872       1   15565     164   15573     116    7417    3093+
+          15763    7418    1795    3841
CTETRA      2873       1   16324      93   16325     164    5783    6796+
+          16436    7419    1791    5785
CTETRA      2874       1   16325   16333     164     116   16450    3838+
+           5785    3707    3839    1795
CTETRA      2875       1   17242   11579   11580     915   11632   11606+
+          11633    7348    7355    7420
CTETRA      2876       1   11571     859     923     924    7421    7422+
+           7423    7424    7425    7426
CTETRA      2877       1   13442   13443     319     663   13860    2485+
+           2484    7427    4798    4800
CTETRA      2878       1   17731   15624   15628     208   15952   15961+
+          15962    1986    7428    1987
CTETRA      2879       1   13434     610      96     254    7429    4555+
+           2387    2388    4359    2378
CTETRA      2880       1   12715   12716   12736     661   12876   12890+
+          12891    6816    7088    7430
CTETRA      2881       1   16319     172   16332     164    4210    1831+
+          16476    6505    1835    1834
CTETRA      2882       1   13492   13503   13502     566   14066   14068+
+          14067    3997    6014    6013
CTETRA      2883       1   16318   16319   16341     172   16478   16502+
+          16503    7431    4210    4841
CTETRA      2884       1   16012   16032   16031     172   16073   16072+
+          16070    6533    6539    4248
CTETRA      2885       1   16318   16331   16332     173   16467   16446+
+          16468    7432    6551    1833
CTETRA      2886       1   11761   11770   11772     610   11850   11855+
+          11854    4580    4554    4556
CTETRA      2887       1   13434   13446      96     610   13865    6133+
+           2387    7429    6123    4555
CTETRA      2888       1   13428   13434   13433     254   13818   13820+
+          13819    2412    2388    2377
CTETRA      2889       1   17335      96     254      95    6121    2378+
+           4492    7054    1569    2381
CTETRA      2890       1   17337     859   11778     875    7025    6912+
+          11892    7026    7028    7346
CTETRA      2891       1   13428     250     254      95    2411    2183+
+           2412    7433    7055    2381
CTETRA      2892       1   14699     196     175     176    6322    1932+
+           7434    1858    6324    1845
CTETRA      2893       1   17559   14699   14698     175   14939   14941+
+          14940    1927    7434    7435
CTETRA      2894       1   13474     175   13475     197    1938    7436+
+          13969    1939    1935    3835
CTETRA      2895       1   13474   13558     620     197   14235    4438+
+           5544    1939    6420    5549
CTETRA      2896       1   17449   17450   12724     300   17457   12812+
+          12809    2835    5883    2809
CTETRA      2897       1   14653   14701     176     537   14946    6323+
+           1857    7437    5646    7438
CTETRA      2898       1   11942   11953   11952     126   12081   12083+
+          12082    4365    6070    1664
CTETRA      2899       1   12407     339      99     925    5137    6399+
+           5152    7439    7440    7441
CTETRA      2900       1   12406   12407   12427      99   12465   12464+
+          12463    5153    5152    5141
CTETRA      2901       1   14702     377     566     372    5689    5692+
+           5691    7442    2789    3998
CTETRA      2902       1   17305   12417     500     880   12573    3556+
+           7443    7444    7047    7049
CTETRA      2903       1   12405      99     100     472    3027    1583+
+           3026    3395    6404    4320
CTETRA      2904       1   13526   13530   13531     169   14156   14158+
+          14150    1823    2373    1824
CTETRA      2905       1   12407      99     926     925    5152    7445+
+           7446    7439    7441    7447
CTETRA      2906       1   12406     603      99     927    4310    5155+
+           5153    7448    7449    7450
CTETRA      2907       1   13467     565   13468      61    6108    4011+
+          14031    1438    5385    1433
CTETRA      2908       1   13493   13494     431     703   14032    7451+
+           7452    7453    6919    5248
CTETRA      2909       1   17216   11771   11759     401   11852   11862+
+          11806    6865    6204    6866
CTETRA      2910       1   11945   11946   11953     127   12075   12096+
+          12095    6703    3548    6069
CTETRA      2911       1   13494     431     703     355    7451    5248+
+           6919    6921    7454    6922
CTETRA      2912       1   12721   12722   12729     342   12822   12848+
+          12846    3077    2627    4792
CTETRA      2913       1   17298   12410   12409     928   12587   12477+
+          12590    7455    7456    7457
CTETRA      2914       1   14651   14704   14710      62   14988   14987+
+          14990    1441    7334    4814
CTETRA      2915       1   12760     454     461     455    3297    3367+
+           3322    3300    3299    3325
CTETRA      2916       1   14705   14706     431     703   14958    5245+
+           7458    5379    5246    5248
CTETRA      2917       1   17389   13166     462     884   13218    4094+
+           4093    7069    7459    7070
CTETRA      2918       1   17832     296     286     142    5738    2352+
+           7460    1713    5735    7461
CTETRA      2919       1   13639   13641     142     111   14523    5734+
+           6828    6341    7462    7357
CTETRA      2920       1   12410     929     454     928    7463    7464+
+           6668    7456    7465    7466
CTETRA      2921       1   12765   12781     330     439   13064    4029+
+           4007    5079    5081    5109
CTETRA      2922       1   17299   12411   12410     774   12585   12481+
+          12588    7467    6182    7468
CTETRA      2923       1   13160     111     296     818    2099    7469+
+           6337    6605    7470    7471
CTETRA      2924       1   17299   17300   12411     930   17316   12586+
+          12585    7472    7473    7474
CTETRA      2925       1   17300     679   12412     931    7475    5027+
+          12583    7476    7477    7478
CTETRA      2926       1   13628   13629   13641     111   14489   14527+
+          14526    6335    6334    7462
CTETRA      2927       1   13580     317     367     369    3400    2739+
+           6405    3401    2764    2745
CTETRA      2928       1   13475     197     175     368    3835    1935+
+           7436    3836    3819    2846
CTETRA      2929       1   13590      27     366      26    1304    3688+
+           4031    1305    1307    7479
CTETRA      2930       1   14744   14749   14752     523   15125   15145+
+          15144    3690    3695    3691
CTETRA      2931       1   11959   11974   11966     461   12173   12178+
+          12150    7480    5790    6806
CTETRA      2932       1   12410   12431   12430     454   12479   12478+
+          12476    6668    7481    6669
CTETRA      2933       1   14645       1   14646       3    1221    1217+
+          15020    1215    1205    1220
CTETRA      2934       1   17962   16954      71     831   16987    7482+
+           1470    6712    7483    6713
CTETRA      2935       1   13558   13578       2     370   14327    4445+
+           4436    4439    5855    4440
CTETRA      2936       1   13559     370     197     367    6421    6230+
+           3834    4172    2761    6231
CTETRA      2937       1   14644   14700   14717     620   15022   15024+
+          15023    6417    5553    5556
CTETRA      2938       1   13500   13501     654     260   14049    4728+
+           5611    2213    4729    4711
CTETRA      2939       1   12739     152     454     455    4990    4281+
+           3296    3298    6408    3299
CTETRA      2940       1   11934   11959   11935     461   12125   12124+
+          12126    5786    7480    3366
CTETRA      2941       1   17301   12413     895     781   12581    7180+
+           7484    7485    6217    7181
CTETRA      2942       1   17210   11757   17211     932   11797   11796+
+          17228    7486    7487    7488
CTETRA      2943       1   15601      59      14     216    1533    6208+
+           3403    4498    2039    7326
CTETRA      2944       1   15600   15601      14     216   15872    3403+
+           1256    7322    4498    7326
CTETRA      2945       1   15607     144      23     505    2753    2757+
+           2756    3579    5298    5301
CTETRA      2946       1   17304   17305   12416     933   17314   12576+
+          12575    7489    7490    7491
CTETRA      2947       1   17496   12777   12774     442   13044   13046+
+          13037    5693    3249    5361
CTETRA      2948       1   15604     216   15609      56    4499    6299+
+          15886    2030    5327    1738
CTETRA      2949       1   15603   15604   15609      56   15867   15886+
+          15887    2028    2030    1738
CTETRA      2950       1   11982   12019      99     104   12323    6400+
+           3730    1596    6401    3361
CTETRA      2951       1   16313   16393      56     144   16698    5326+
+           7492    7493    2110    1739
CTETRA      2952       1   17472     934   12606     935    7494    7495+
+          12656    7496    7497    7498
CTETRA      2953       1   15601      59   15612      14    1533    7499+
+          15903    3403    6208    3404
CTETRA      2954       1   13565   13572     580     551   14296    7128+
+           4757    4750    5789    4756
CTETRA      2955       1   17422   12440   17423     734   12561   12562+
+          17443    7500    5654    6685
CTETRA      2956       1   12418   12438     127     126   12509    4704+
+           2463    2462    6430    1665
CTETRA      2957       1   11949   11950   11957     344   12086   12109+
+          12110    7501    6759    6664
CTETRA      2958       1   12000   12002   12005     469   12269   12284+
+          12282    4869    4347    6941
CTETRA      2959       1   13641     296     142     111    4985    5735+
+           5734    7462    7469    7357
CTETRA      2960       1   13554   13555     580       8   14261    6600+
+           7127    6142    7502    7503
CTETRA      2961       1   11981   11982   12011      99   12257   12324+
+          12400    4676    3730    7504
CTETRA      2962       1   17909   16870   17910     664   16919   16920+
+          17919    7505    4802    4801
CTETRA      2963       1   13565     580       4     579    4757    4165+
+           4151    4153    4168    4154
CTETRA      2964       1   14647   14648     580       8   15007    6134+
+           4169    1235    6155    7503
CTETRA      2965       1   11997   12000   11998     100   12252   12251+
+          12253    3368    4868    6974
CTETRA      2966       1   14741     580   14742     551    4166    7142+
+          15092    7506    4756    4860
CTETRA      2967       1   16321   16337   16335     314   16470   16473+
+          16464    2458    4674    4682
CTETRA      2968       1   16334     314     420     288    4675    4673+
+           3850    5974    6472    5969
CTETRA      2969       1   12002     646     469     425    4632    4874+
+           4347    4350    4886    4351
CTETRA      2970       1   15606   15608   15609     144   15885   15889+
+          15888    2754    5296    1740
CTETRA      2971       1   17472   12606   17473     935   12656   12652+
+          17485    7496    7498    7507
CTETRA      2972       1   17832     142     286     288    1713    7461+
+           7460    7508    6574    2330
CTETRA      2973       1   12613     530     103     936    7509    3744+
+           1926    7510    7511    7512
CTETRA      2974       1   15564   15573   15572     420   15765   15766+
+          15761    3842    3107    5968
CTETRA      2975       1   13425   13426   13531     134   13941   14151+
+          14152    7513    2355    2372
CTETRA      2976       1   13424   13428   13458     250   13927   13929+
+          13924    2180    2411    2200
CTETRA      2977       1   13425     251     134     252    2173    3961+
+           7513    2174    2176    2602
CTETRA      2978       1   13459      94   13460     251    7514    7515+
+          13944    5463    2202    4961
CTETRA      2979       1   13169     859   13170     937    7516    7517+
+          13234    7518    7519    7520
CTETRA      2980       1   18086   17338     560     858   17346    3956+
+           3955    7521    6905    6907
CTETRA      2981       1   17452   17453     655     674   17460    4719+
+           4718    4968    4965    4960
CTETRA      2982       1   13460     251      94     859    4961    2202+
+           7515    7522    7029    7219
CTETRA      2983       1   17336   17337      94     251   17345    7416+
+           1560    2201    7050    2202
CTETRA      2984       1   12795     471   12798     412    5634    6389+
+          13129    7523    5175    6375
CTETRA      2985       1   12788   12789   12790     646   13101   13099+
+          13100    6387    4875    6657
CTETRA      2986       1   11983   12018   12019     104   12326   12329+
+          12328    1595    7524    6401
CTETRA      2987       1   12745     339     335     433    7100    3725+
+           3337    3171    3727    3339
CTETRA      2988       1   12011   12019   12013      99   12325   12330+
+          12331    7504    6400    7525
CTETRA      2989       1   12026   12029   12030     454   12383   12387+
+          12386    4279    4278    3363
CTETRA      2990       1   12746   12747   12751     528   12925   12939+
+          12940    7526    3756    7527
CTETRA      2991       1   12741   12745   12742     339   12907   12909+
+          12908    5149    7100    5150
CTETRA      2992       1   12802     547     471     412    3882    5607+
+           5606    3885    3884    5175
CTETRA      2993       1   15596     638     217     220    6491    4670+
+           4541    2050    4656    4671
CTETRA      2994       1   18104   15318     217     938   15370    2052+
+           4540    7528    7529    7530
CTETRA      2995       1   15318     750     217     938    7169    5842+
+           2052    7529    7531    7530
CTETRA      2996       1   15317     262     750     634    4571    5859+
+           5847    4574    4573    5850
CTETRA      2997       1   17469   12616     530     939   12675    7532+
+           7533    7534    7535    7536
CTETRA      2998       1   11982   11999   11983     101   12264   12260+
+          12265    1597    1589    1598
CTETRA      2999       1   15547     749     272     633    7537    5963+
+           5337    5340    5966    5341
CTETRA      3000       1   16859     352   16868     854    4487    7538+
+          16877    6882    7539    7540
CTETRA      3001       1   16387     271     272     633    5344    5338+
+           5967    5345    5342    5341
CTETRA      3002       1   16378     262   16379     633    4560    4562+
+          16651    5857    4569    4568
CTETRA      3003       1   16377     633     749     750    5861    5966+
+           6260    5862    5860    5841
CTETRA      3004       1   18082   13168   17188     940   13226   13227+
+          17190    7541    7542    7543
CTETRA      3005       1   11933   11934   12031     455   12185   12396+
+          12397    3326    4083    3327
CTETRA      3006       1   11993     412     147     146    6700    6701+
+           6699    7544    7097    1724
CTETRA      3007       1   11930   11990     364     147   12221    5700+
+           5648    5660    5662    5602
CTETRA      3008       1   11930     276   11991     147    2285    2284+
+          12224    5660    3947    5661
CTETRA      3009       1   13559     367     197     368    4172    6231+
+           3834    3837    2741    3819
CTETRA      3010       1   12783     437     311     444    5119    6429+
+           6710    6709    3244    5374
CTETRA      3011       1   17825     352   16977      35    2669    4604+
+          17083    1357    2670    4808
CTETRA      3012       1   11930     311   11943     276    5708    5373+
+          12047    2285    5372    5368
CTETRA      3013       1   14722      28      30      26    7096    1318+
+           1330    1333    1312    1320
CTETRA      3014       1   16859   16860   16868     352   16879   16878+
+          16877    4487    4486    7538
CTETRA      3015       1   14781      28     721     320    7545    7226+
+           6834    6835    5722    5432
CTETRA      3016       1   16860   16869   16868     352   16881   16880+
+          16878    4486    6872    7538
CTETRA      3017       1   17908   16868   16869     941   16916   16880+
+          16917    7546    7547    7548
CTETRA      3018       1   13610   13617     721     320   14447    7549+
+           6838    7095    7550    5432
CTETRA      3019       1   12619     528     458     942    7551    7335+
+           6085    7552    7553    7554
CTETRA      3020       1   14756      28   14781     320    5721    7545+
+          15235    4644    5722    6835
CTETRA      3021       1   13560   13580     367     369   14336    6405+
+           2750    2752    3401    2745
CTETRA      3022       1   12618   12619     458     942   12689    6085+
+           6092    7555    7552    7554
CTETRA      3023       1   12728     495     417     340    6358    7249+
+           3062    3065    6360    3066
CTETRA      3024       1   17283     575   13166     576    7345    4097+
+          13219    7556    7557    4101
CTETRA      3025       1   12430     943     454     944    7558    7559+
+           6669    7560    7561    7562
CTETRA      3026       1   12417   12437   12436     494   12505   12504+
+          12502    3555    3559    6692
CTETRA      3027       1   17476   12610     411     945   12640    3975+
+           3047    7563    7564    7565
CTETRA      3028       1   11981   11998   12001     100   12259   12254+
+          12256    6616    6974    1584
CTETRA      3029       1   17332   11956   11948     331   12105   12107+
+          12060    2563    2565    2569
CTETRA      3030       1   12414     780     946     947    6215    7566+
+           7567    7568    7569    7570
CTETRA      3031       1   17412   12429   17413     464   12540   12541+
+          17433    6045    3334    7571
CTETRA      3032       1   17562     491   14668     816    5450    5021+
+          14816    7572    7573    7574
CTETRA      3033       1   12739   12748   12740     454   12922   12914+
+          12923    3296    4989    4993
CTETRA      3034       1   13612     320      30     174    4628    2503+
+           2493    2495    2500    2496
CTETRA      3035       1   14780   14782   14781     721   15238   15237+
+          15239    5445    5433    6834
CTETRA      3036       1   13600   13611   13610      28   14428   14427+
+          14426    1316    5723    7094
CTETRA      3037       1   17295   12407   12406     603   12593   12465+
+          12596    4309    5154    4310
CTETRA      3038       1   13599   13600     309      27   14392    2424+
+           2433    2436    1303    2425
CTETRA      3039       1   17982   17289   12401     606   12518   12520+
+          12519    4326    5159    4327
CTETRA      3040       1   14755   14782   14783     174   15234   15246+
+          15244    2499    2501    2505
CTETRA      3041       1   12707   12756   12708     101   12968   12970+
+          12969    5679    3351    5688
CTETRA      3042       1   13618     320     174     168    4627    2500+
+           4629    7575    5435    1843
CTETRA      3043       1   11999   12000   12005     102   12263   12282+
+          12283    1590    7576    6940
CTETRA      3044       1   14784     659     546     168    6326    5102+
+           3871    1820    5105    5104
CTETRA      3045       1   12013   12019   12017     339   12330   12332+
+          12334    2612    6398    5146
CTETRA      3046       1   14780   14782     721     168   15238    5433+
+           5445    5440    5434    5431
CTETRA      3047       1   12426      99   12427     586    4697    5141+
+          12462    4663    5144    4664
CTETRA      3048       1   17828   16969   17829     283   17047   17046+
+          17835    5948    3101    3100
CTETRA      3049       1   17305   17306   12417     880   17313   12574+
+          12573    7444    7577    7047
CTETRA      3050       1   13388   13394   13393     283   13681   13683+
+          13682    2308    2307    3105
CTETRA      3051       1   17829   16969   16961     422   17046   17048+
+          17045    3099    3098    7000
CTETRA      3052       1   16959     422   16971     426    3122    3491+
+          17055    3126    5276    3119
CTETRA      3053       1   17305   12417   12416     500   12573   12503+
+          12576    7443    3556    7578
CTETRA      3054       1   13394   13409     614     422   13746    4378+
+           7579    7580    4381    4380
CTETRA      3055       1   13394     422     614     283    7580    4380+
+           7579    2307    3102    5939
CTETRA      3056       1   11930     364   11944     311    5648    5650+
+          12044    5708    2725    5709
CTETRA      3057       1     305     300     130     254    2821    2829+
+           2833    2410    2822    2831
CTETRA      3058       1   11762     129     130     610    5954    1672+
+           5952    5715    7301    4358
CTETRA      3059       1   13421   13546   13547     129   14229   14215+
+          14230    5417    1671    5397
CTETRA      3060       1   13546     108   13547     129    7112    5394+
+          14215    1671    4920    5397
CTETRA      3061       1   13422     130   13436     254    2947    6956+
+          13826    4516    2831    4518
CTETRA      3062       1   11937   11946   11945     494   12070   12075+
+          12073    5418    3550    6702
CTETRA      3063       1   17334   11762     130     610   11846    5952+
+           2828    4357    5715    4358
CTETRA      3064       1   12750   12753     459     458   12950    7581+
+           6410    7121    7122    3317
CTETRA      3065       1   17354   12022   11984     530   12351   12349+
+          12250    7582    7583    3740
CTETRA      3066       1   12616     530   12617     826    7532    7151+
+          12679    7584    7585    6682
CTETRA      3067       1   11983   11984     104     103   12248    3742+
+           1595    7586    3743    3349
CTETRA      3068       1   12617     530     459     826    7151    7150+
+           3318    6682    7585    6683
CTETRA      3069       1   17636   14763   17637     900   15182   15149+
+          17652    7205    7207    7587
CTETRA      3070       1   12742      99     339     104    3358    6399+
+           5150    3359    3361    6402
CTETRA      3071       1   12017     459   12023     458    7101    7411+
+          12355    5147    3317    7023
CTETRA      3072       1   12742     339     459     104    5150    7099+
+           3736    3359    6402    3738
CTETRA      3073       1   17212   11769   11764     189   11841   11842+
+          11817    7295    7404    5559
CTETRA      3074       1   12404     100   12424     241    3058    3374+
+          12452    5987    3369    2138
CTETRA      3075       1   17212   11769     189     795   11841    7404+
+           7295    7374    7373    6442
CTETRA      3076       1   13468   13553   13552      60   14265   14264+
+          14263    1431    4384    1432
CTETRA      3077       1   13441     635     571     743    5564    5566+
+           4048    5761    7588    5762
CTETRA      3078       1   11673     189     588     702    5234    5944+
+           5225    5237    5236    7589
CTETRA      3079       1   17477   12607   17478     564   12623   12622+
+          17479    7590    3988    7591
CTETRA      3080       1   11763   11768     588     189   11829    5223+
+           5945    5560    7405    5944
CTETRA      3081       1   11672     189     797     796    5233    7592+
+           6448    6443    6445    7593
CTETRA      3082       1   11983   11999   11994     103   12260   12261+
+          12247    7586    1592    5683
CTETRA      3083       1   13445   13448     588     189   13869    7594+
+           7595    7596    5588    5944
CTETRA      3084       1   11667     280     275     673    2292    7597+
+           2282    4939    4941    7598
CTETRA      3085       1   11983   11984   12018     104   12248   12327+
+          12326    1595    3742    7524
CTETRA      3086       1   13537     280     105      86    6350    6386+
+           5885    7274    4938    6895
CTETRA      3087       1   17353   17354   12616     948   17376   12672+
+          12673    7599    7600    7601
CTETRA      3088       1   17349   12620     949     950   12693    7602+
+           7603    7604    7605    7606
CTETRA      3089       1   12617     459     458     765    3318    3317+
+           3316    6097    6681    6098
CTETRA      3090       1   17330   17331   11782     280   17348   11905+
+          11906    3459    4013    6253
CTETRA      3091       1   14724   14725   14758     321   15133   15155+
+          15168    2508    4139    2509
CTETRA      3092       1   14788     721   14790     432    5446    6836+
+          15275    7607    5509    5519
CTETRA      3093       1   14789     660     432     434    7144    5510+
+           5527    5528    5514    5359
CTETRA      3094       1   15598   15603   15610      56   15865   15890+
+          15892    2468    2028    4529
CTETRA      3095       1   14781     309     721      28    7608    7173+
+           6834    7545    2426    7226
CTETRA      3096       1   14758     321     447     309    2509    3282+
+           3281    2511    2510    4143
CTETRA      3097       1   14764   14770      79      80   15206    4056+
+           4055    4046    4052    1493
CTETRA      3098       1   12719     495     494     417    7609    3532+
+           7610    6276    7249    7199
CTETRA      3099       1   14758   14759   14774     427   15156   15217+
+          15218    3283    4132    3165
CTETRA      3100       1   14770   14775   14774     428   15221   15220+
+          15219    4051    3198    3166
CTETRA      3101       1   14774   14789   14790     432   15270   15272+
+          15267    3163    5527    5519
CTETRA      3102       1   12736     242     596     661    5792    4267+
+           7611    7430    6963    6783
CTETRA      3103       1   13545   13548   13546     131   14221   14216+
+          14222    4904    5008    1674
CTETRA      3104       1   12416   12417     494     500   12503    3555+
+           7612    7578    3556    3558
CTETRA      3105       1   11761     610     319     635    4580    4566+
+           5577    4581    4577    4576
CTETRA      3106       1   17302   17303   12414     947   17317   12580+
+          12579    7613    7614    7568
CTETRA      3107       1   13609     321     447     427    3289    3282+
+           3266    3268    3284    3269
CTETRA      3108       1   13530     134     169     670    2371    2361+
+           2373    7615    6099    6578
CTETRA      3109       1   17331     330   17332     109    2639    2561+
+          17340    2641    2640    4195
CTETRA      3110       1   12729     340     341     661    4791    2616+
+           3409    7089    4795    4794
CTETRA      3111       1   14689   14692   14691     236   14909   14911+
+          14910    4995    2899    7125
CTETRA      3112       1   14688     235     236     237    2125    2118+
+           7124    2127    2122    2139
CTETRA      3113       1   13518   13542     237     186   14198    5459+
+           2123    7163    4414    7616
CTETRA      3114       1   11936   11937   11963     378   12072   12136+
+          12135    7257    5413    2812
CTETRA      3115       1   17332   17333     129     136   17341    5953+
+           4924    4926    6314    1693
CTETRA      3116       1   17448     300     379     624    4494    2804+
+           7617    4495    4497    7618
CTETRA      3117       1   14680   14688   14691     237   14902   14912+
+          14907    2126    2127    5475
CTETRA      3118       1   12412   12413   12433     596   12489   12488+
+          12487    5026    5025    7619
CTETRA      3119       1   14674     183     654     182    5590    5594+
+           5593    1869    6010    5538
CTETRA      3120       1   13424     252     305     254    2181    2820+
+           2407    2182    2184    2410
CTETRA      3121       1   12435     494   12436     828    3530    6692+
+          12500    7620    6691    6690
CTETRA      3122       1   12713   12734   12735     243   12877   12881+
+          12880    7621    2169    2146
CTETRA      3123       1   13529     134   13530     670    2598    2371+
+          14159    7622    6099    7615
CTETRA      3124       1   13503     235     431     430    5997    7149+
+           3149    3151    3145    3152
CTETRA      3125       1   17282   17283   13165     909   17287   13214+
+          13213    7298    7623    7299
CTETRA      3126       1   13544   13549   13545     305   14224   14223+
+          14225    4515    4913    2950
CTETRA      3127       1   13516   13517   13541     236   14112   14190+
+          14189    2117    2119    2877
CTETRA      3128       1   17450   14693   17451     134   14915   14916+
+          17456    2623    2358    6581
CTETRA      3129       1   11973   11974   11975     465   12179   12186+
+          12191    4265    3674    3673
CTETRA      3130       1   12722     341   12729     342    2626    3409+
+          12848    2627    2620    4792
CTETRA      3131       1   14680   14684   14682     186   14864   14867+
+          14862    3139    6310    3140
CTETRA      3132       1   12738     152     455     951    3754    6408+
+           4986    7624    7625    7626
CTETRA      3133       1   13529   13531   13530     134   14154   14158+
+          14159    2598    2372    2371
CTETRA      3134       1   17338     859     559     858    6913    7030+
+           6903    6905    6915    6906
CTETRA      3135       1   12746     152   12747     528    7627    3753+
+          12925    7526    3723    3756
CTETRA      3136       1   11935   12025   12030     454   12389   12388+
+          12390    3362    7628    3363
CTETRA      3137       1   12748     335     454     152    3338    4994+
+           4989    4991    6082    4281
CTETRA      3138       1   12018   12022     459     530   12350    7410+
+           7409    7629    7583    7150
CTETRA      3139       1   12015   12020   12016     152   12345   12340+
+          12346    1749    3720    1750
CTETRA      3140       1   12015   12026     335     152   12371    2595+
+           3344    1749    4280    6082
CTETRA      3141       1   17469   12744   12749     530   12930   12933+
+          12932    7533    3746    7630
CTETRA      3142       1   16039      58   16040     214    3624    2019+
+          16104    7631    2022    2021
CTETRA      3143       1   12743   12749   12744     530   12934   12933+
+          12936    7632    7630    3746
CTETRA      3144       1   12738     528     152     951    3755    3723+
+           3754    7624    7633    7625
CTETRA      3145       1   13577   13588   13587     527   14359   14361+
+          14360    4443    5065    6460
CTETRA      3146       1   12026     454     335     152    4279    4994+
+           2595    4280    4281    6082
CTETRA      3147       1   12745     339     433     458    7100    3727+
+           3171    3704    5148    3705
CTETRA      3148       1   12029   12031   12030     455   12392   12393+
+          12387    6407    3327    3365
CTETRA      3149       1   17769     211     952     953    2309    7634+
+           7635    7636    7637    7638
CTETRA      3150       1   17353   12616   12617     826   12673   12679+
+          12677    7241    7584    6682
CTETRA      3151       1   17354   12613     530     954   12662    7509+
+           7582    7639    7640    7641
CTETRA      3152       1   13487   13499   13498     322   14059   14060+
+          14057    2838    6369    2518
CTETRA      3153       1   12745   12750     459     458   12927    6410+
+           6409    3704    7121    3317
CTETRA      3154       1   12741     335   12745     339    7642    3337+
+          12907    5149    3725    7100
CTETRA      3155       1   12708   12756   12757     101   12970   12982+
+          12979    5688    3351    7643
CTETRA      3156       1   18105   17769     952     953   17770    7635+
+           7644    7645    7636    7638
CTETRA      3157       1   13392   13404   13405     361   13724   13726+
+          13728    6492    4066    4065
CTETRA      3158       1   17468     460   12617     888    7646    3319+
+          12680    7116    7647    7117
CTETRA      3159       1   12743     459   12749     530    3737    7086+
+          12934    7632    7150    7630
CTETRA      3160       1   16038      58   16039      85    1517    3624+
+          16100    1518    1520    7648
CTETRA      3161       1   16863   16864     361     681   16897    7649+
+           6493    7650    5054    7651
CTETRA      3162       1   12014     335   12027     339    3343    2594+
+          12372    2613    3725    2614
CTETRA      3163       1   17736   15610     748     955   15893    5819+
+           5818    7652    7653    7654
CTETRA      3164       1   16862   16863     423     572   16891    6494+
+           4067    4069    7655    4070
CTETRA      3165       1   12743   12744   12756     104   12936   12981+
+          12972    3360    3745    3348
CTETRA      3166       1   17355   11984   11994     103   12249   12246+
+          12244    1924    3743    5683
CTETRA      3167       1   14703     373     372     570    2771    2773+
+           2770    6117    7656    4023
CTETRA      3168       1   13469   13470   13554     570   14028   14260+
+          14262    4024    6141    6140
CTETRA      3169       1   14646   14713   14647       5   15003   15000+
+          15004    1219    1229    1236
CTETRA      3170       1   14648   14714   14703     570   15005   15006+
+          14966    6136    6154    6117
CTETRA      3171       1   14719       7       6     553    4523    1231+
+           4060    4058    4459    4059
CTETRA      3172       1   13555       4       8       5    6599    1238+
+           7502    7657    1208    1237
CTETRA      3173       1   14647   14648   14741     580   15007   15082+
+          15081    4169    6134    4166
CTETRA      3174       1   12614   12615     402     794   12670    2986+
+           2985    6433    7658    7659
CTETRA      3175       1   12019     459     339     104    7102    7099+
+           6398    6401    3738    6402
CTETRA      3176       1   13448     588     189     636    7594    5944+
+           5588    5576    5617    5589
CTETRA      3177       1   17331     109     278     280    2641    4196+
+           4194    4013    6385    6252
CTETRA      3178       1   11664   11665   11674     588   11698   11697+
+          11696    6446    5038    4218
CTETRA      3179       1   12744   12757   12756     103   12976   12982+
+          12981    3747    7196    3350
CTETRA      3180       1   12742      99   12755     339    3358    7660+
+          12959    5150    6399    5151
CTETRA      3181       1   12742   12754   12755      99   12954   12965+
+          12959    3358    4699    7660
CTETRA      3182       1   12743   12756   12754      99   12972   12971+
+          12955    3357    3757    4699
CTETRA      3183       1   13438   13445   13448     588   13867   13869+
+          13868    6246    7595    7594
CTETRA      3184       1   17392   12608   18092     148   12628   12627+
+          17393    1726    7661    7090
CTETRA      3185       1   16323      93   16324     173    5781    5783+
+          16433    6198    4304    6550
CTETRA      3186       1   13467   13493   13468     565   14030   14024+
+          14031    6108    7662    4011
CTETRA      3187       1   14704   14707   14706     565   14970   14973+
+          14975    6101    3993    5243
CTETRA      3188       1   12762   12763   12796     147   13035   13155+
+          13156    5601    5603    1730
CTETRA      3189       1   17363   12608   12607     146   12624   12626+
+          12625    1720    1763    1755
CTETRA      3190       1   12773   12775   12783     444   13075   13076+
+          13073    3967    4856    6709
CTETRA      3191       1   11664   11674   11673     588   11696   11695+
+          11693    6446    4218    5225
CTETRA      3192       1   12708   12791     100     469   13114    3965+
+           5687    6612    4884    3372
CTETRA      3193       1   16390      14     216      23    7663    7326+
+           6287    6301    6355    6302
CTETRA      3194       1   12725     417     494     378    5410    7199+
+           7198    4156    3415    5419
CTETRA      3195       1   16042      14     878     879    3878    7664+
+           7042    7045    7665    7046
CTETRA      3196       1   12751   12752     433     458   12944    3703+
+           7666    7667    3706    3705
CTETRA      3197       1   11941   11943   11944     311   12040   12049+
+          12050    6428    5373    5709
CTETRA      3198       1   12620     528   12621     687    7668    7669+
+          12698    7670    7671    5129
CTETRA      3199       1   17981   17982   12401     547   17984   12519+
+          12521    7672    4325    4324
CTETRA      3200       1   13505   13506   13512     184   14075   14097+
+          14093    2704    2706    1875
CTETRA      3201       1   12436     494   12437     503    6692    3559+
+          12504    7673    3570    3569
CTETRA      3202       1   17333     329   11936     378    2555    2557+
+          12064    7674    6041    7257
CTETRA      3203       1   12763     364     547     147    5600    5653+
+           5651    5603    5602    6698
CTETRA      3204       1   12705   12726   12706     494   12826   12825+
+          12827    4500    7197    7675
CTETRA      3205       1   17465   12620     528     956   12695    7668+
+           7676    7677    7678    7679
CTETRA      3206       1   17350   12619     528     763   12688    7551+
+           7262    7680    6086    7681
CTETRA      3207       1   12420     364   12440     311    2726    5656+
+          12517    2727    2725    6068
CTETRA      3208       1   12775   12776   12783     438   13053   13077+
+          13076    3247    3222    5120
CTETRA      3209       1   12619     458     528     763    6085    7335+
+           7551    6086    6088    7681
CTETRA      3210       1   12775     438   12783     444    3247    5120+
+          13076    4856    3245    6709
CTETRA      3211       1   17465   12620   12619     528   12695   12694+
+          12691    7676    7668    7551
CTETRA      3212       1   12705   12706   12769     127   12827   13009+
+          13012    4501    7682    4701
CTETRA      3213       1   17350   12619   12620     528   12688   12694+
+          12692    7262    7551    7668
CTETRA      3214       1   16863   16864   16873     361   16897   16896+
+          16895    6493    7649    5059
CTETRA      3215       1   14672   14677   14676     209   14849   14848+
+          14847    2515    1997    2597
CTETRA      3216       1   17306   12418     315     611   12571    2464+
+           7683    7684    4361    4363
CTETRA      3217       1   17981     364     547     736    4337    5653+
+           7672    5665    5667    7685
CTETRA      3218       1   17957   17133   17132     426   17170   17169+
+          17166    3497    7686    7687
CTETRA      3219       1   17478   12797   12799     146   13125   13132+
+          13135    1762    1732    7256
CTETRA      3220       1   17478   12607     146     564   12622    1755+
+           1762    7591    3988    7688
CTETRA      3221       1   12708   12789   12791     469   13095   13106+
+          13114    6612    4872    4884
CTETRA      3222       1   17564   13181     213     325   13296    2521+
+           7689    6860    2527    2529
CTETRA      3223       1   17681   16031   16032     957   16141   16072+
+          16142    7690    7691    7692
CTETRA      3224       1   11988   11991     276     147   12223    2284+
+           7066    7693    5661    3947
CTETRA      3225       1   13503     235   13509     183    5997    6005+
+          14082    6012    7351    1873
CTETRA      3226       1   12761   12773   12762     276   13040   13034+
+          13041    3946    3974    5706
CTETRA      3227       1   17637   14730   17638     542   15147   15049+
+          17651    3822    3824    5299
CTETRA      3228       1   12795   12802     471     412   13151    5606+
+           5634    7523    3885    5175
CTETRA      3229       1   16012   16013   16032     162   16075   16074+
+          16073    6532    6531    5845
CTETRA      3230       1   13499     261     259     333    3859    2208+
+           3858    6081    7694    5013
CTETRA      3231       1   13515   13527   13528     385   14147   14145+
+          14141    3866    2913    2881
CTETRA      3232       1   11985   12009   12007     471   12306   12308+
+          12305    7250    3390    3389
CTETRA      3233       1   17362   17363   12607     154   17372   12625+
+          12633    6565    1756    1758
CTETRA      3234       1   14673     209     213     210    1998    2014+
+           7695    1999    2001    2010
CTETRA      3235       1   13486   13498   13497     213   14056   14058+
+          14051    2539    2517    2013
CTETRA      3236       1   17392     147     148     830    1723    1727+
+           1726    6706    7246    7696
CTETRA      3237       1   13498     322     333     209    2518    2585+
+           7697    2519    2516    2586
CTETRA      3238       1   13498   13528   13524     209   14138   14139+
+          14128    2519    7698    2017
CTETRA      3239       1   14649   14707   14650      60   14964   14968+
+          14971    6118    3994    7135
CTETRA      3240       1   11992   11993     147     146   12243    6699+
+           7016    1722    7544    1724
CTETRA      3241       1   14658     377     183     566    5596    5595+
+           5591    5690    5692    6001
CTETRA      3242       1   17349   12621   18090     687   12697   12699+
+          17379    7699    5129    5128
CTETRA      3243       1   14702   14706   14707     565   14962   14973+
+          14972    7700    5243    3993
CTETRA      3244       1   14703     372   14707      60    2770    3991+
+          14965    6119    3995    3994
CTETRA      3245       1   13492     566     377     372    3997    5692+
+           4012    3999    3998    2789
CTETRA      3246       1   14743   14748   14746     317   15113   15112+
+          15111    5113    2476    2736
CTETRA      3247       1   18090   17389     958     959   17390    7701+
+           7702    7703    7704    7705
CTETRA      3248       1   14659   14706     566     431   14960    7706+
+           6002    7707    5245    7148
CTETRA      3249       1   12711     596   12736     465    4610    7611+
+          12894    4307    4264    5791
CTETRA      3250       1   12713     243   12735     244    7621    2146+
+          12880    2964    2149    2148
CTETRA      3251       1   14681     431     235     430    7147    7149+
+           4846    4847    3152    3145
CTETRA      3252       1   13493   13503     566     431   14063    6014+
+           7708    7452    3149    7148
CTETRA      3253       1   11941     126   11952     128    4364    1664+
+          12084    5133    1668    1667
CTETRA      3254       1   17241   11578   11579     960   11630   11600+
+          11631    7709    7710    7711
CTETRA      3255       1   12704     128   12766     329    2559    2560+
+          13023    2567    5091    2568
CTETRA      3256       1   12704     499   12770     128    5088    6038+
+          13014    2559    5089    2450
CTETRA      3257       1   12766     128     439     329    2560    5366+
+           5080    2568    5091    6168
CTETRA      3258       1   11946     127     499     128    3548    3552+
+           3551    7712    1669    5089
CTETRA      3259       1   17282   13165   13163     243   13213   13212+
+          13205    2166    4099    7713
CTETRA      3260       1   17414   12431     868     961   12544    6977+
+           7714    7715    7716    7717
CTETRA      3261       1   12410   12411   12431     454   12481   12480+
+          12479    6668    6181    7481
CTETRA      3262       1   11934   11974   11959     461   12174   12173+
+          12125    5786    5790    7480
CTETRA      3263       1   12768   12770     127     126   13002    2456+
+           4700    7718    2447    1665
CTETRA      3264       1   11946   11952     127     128   12099    1666+
+           3548    7712    1667    1669
CTETRA      3265       1   17518   17519   13182     921   17543   13305+
+          13309    7719    7384    7386
CTETRA      3266       1   17398     962   12758     963    7720    7721+
+          12984    7722    7723    7724
CTETRA      3267       1   16349   16352     497      88   16514    6810+
+           3541    1990    7725    3540
CTETRA      3268       1   15630   15633   15634     266   15987   15991+
+          15990    4897    3854    2787
CTETRA      3269       1   16344   16352      83     266   16518    6808+
+           7726    7727    6809    4896
CTETRA      3270       1   15618   15630      83     497   15974    4895+
+           1541    5346    5347    6811
CTETRA      3271       1   15626     153     519     964    6148    3649+
+           6236    7728    7729    7730
CTETRA      3272       1   15625     497      88     302    7285    3540+
+           6067    6065    3544    3543
CTETRA      3273       1   16352      83     497      88    6808    6811+
+           6810    7725    7216    3540
CTETRA      3274       1   16346     410      58      82    6676    3156+
+           6545    6547    6761    1516
CTETRA      3275       1   16018     308      82     524    2421    4150+
+           2815    3678    3677    7731
CTETRA      3276       1   16345   16346   16359      83   16512   16563+
+          16562    7214    7213    7732
CTETRA      3277       1   15618      88      83      82    1537    7216+
+           1541    1538    1540    1510
CTETRA      3278       1   16345   16352   16349      88   16517   16514+
+          16511    7215    7725    1990
CTETRA      3279       1   12774     442     558     738    5361    5363+
+           3969    5696    5695    7733
CTETRA      3280       1   14756   14757   14781      28   15173   15236+
+          15235    5721    2430    7545
CTETRA      3281       1   12414     495     780     947    7734    6357+
+           6215    7568    7735    7569
CTETRA      3282       1   12719   12720   12727     495   12829   12841+
+          12837    7609    7259    7736
CTETRA      3283       1   15589   15613   15611      10   15910   15912+
+          15909    1243    1290    1244
CTETRA      3284       1   16022   16023      14     712   16115    5320+
+           5328    7737    5321    5323
CTETRA      3285       1   16767   16776   16775      20   16794   16793+
+          16791    7738    7739    1502
CTETRA      3286       1   15580   15583   15582     287   15807   15808+
+          15804    7120    7740    6466
CTETRA      3287       1   16024     647       9     902    4641    4643+
+           4640    7244    7741    7245
CTETRA      3288       1   13579   13580     366     367   14333    5110+
+           6840    6406    6405    2738
CTETRA      3289       1   17738   15608   17739     965   15883   15882+
+          17749    7742    7743    7744
CTETRA      3290       1   13529   13539     336     670   14195    4191+
+           2600    7622    4887    4889
CTETRA      3291       1   16397   16398   16399       9   16727   16732+
+          16753    7745    1285    4624
CTETRA      3292       1   16024   16044   16043       9   16121   16120+
+          16118    4640    6791    7746
CTETRA      3293       1   14667     491   14669     263    3509    7747+
+          14823    3510    3512    7383
CTETRA      3294       1   14648   14742   14741     580   15091   15092+
+          15082    6134    7142    4166
CTETRA      3295       1   14702   14707   14703     372   14972   14965+
+          14974    7442    3991    2770
CTETRA      3296       1   16320   16337   16321     314   16471   16470+
+          16472    2457    4674    2458
CTETRA      3297       1   13554   13565   13572     580   14290   14296+
+          14294    7127    4757    7128
CTETRA      3298       1   17562   13183   13182     491   13306   13308+
+          13302    5450    5456    5451
CTETRA      3299       1   14728   14739   14734     380   15074   15077+
+          15045    3828    7748    3809
CTETRA      3300       1   14734   14739     551     380   15077    7749+
+           3910    3809    7748    3912
CTETRA      3301       1   14728     520   14739     380    4035    7750+
+          15074    3828    6973    7748
CTETRA      3302       1   14733   14734   14742     539   15062   15093+
+          15090    4389    3812    4859
CTETRA      3303       1   16320     420     314     159    3080    4673+
+           2457    2459    3092    2460
CTETRA      3304       1   13564     551     579     520    4749    4752+
+           4751    6971    6970    6833
CTETRA      3305       1   11569   11570   11579      37   11603   11602+
+          11601    7751    1346    7752
CTETRA      3306       1   14739     579     551     520    7753    4752+
+           7749    7750    6833    6970
CTETRA      3307       1   14739   14740   14741     579   15080   15087+
+          15095    7753    4744    4167
CTETRA      3308       1   15575   15581   15582     314   15799   15802+
+          15800    4679    4680    7119
CTETRA      3309       1   16765      20     141     389    3889    3906+
+           2908    2906    7754    2907
CTETRA      3310       1   12433     596     780     872    7619    6778+
+           7755    6989    7756    7757
CTETRA      3311       1   12002   12004   12005     646   12281   12285+
+          12284    4632    4634    6942
CTETRA      3312       1   12714   12727   12728     495   12863   12842+
+          12864    7758    7736    6358
CTETRA      3313       1   12714   12715   12737     780   12874   12898+
+          12899    6999    6814    7759
CTETRA      3314       1   18065   16865   18066     966   16941   16944+
+          18074    7760    7761    7762
CTETRA      3315       1   16028      92   16029     775    5780    5779+
+          16058    6186    6188    7763
CTETRA      3316       1   17884     967   13192     968    7764    7765+
+          13356    7766    7767    7768
CTETRA      3317       1   12413   12434   12433     780   12491   12490+
+          12488    6216    7769    7755
CTETRA      3318       1   17506   13195   13194     969   13365   13366+
+          13363    7770    7771    7772
CTETRA      3319       1   12765     439     330     331    5079    5109+
+           4007    5074    6169    2564
CTETRA      3320       1   17333   12723     329     378    7773    6039+
+           2555    7674    2807    6041
CTETRA      3321       1   17684   17685   16028     775   17694   16134+
+          16135    7774    6797    6186
CTETRA      3322       1   12705     127   12770     499    4501    2456+
+          13013    4502    3552    6038
CTETRA      3323       1   11946     499   11954     128    3551    6034+
+          12097    7712    5089    6033
CTETRA      3324       1   11936   11947   11937     378   12062   12069+
+          12072    7257    5414    5413
CTETRA      3325       1   17334   11936   11963     378   12134   12135+
+          12133    2799    7257    2812
CTETRA      3326       1   14703   14714     373     570   15006    2794+
+           2771    6117    6154    7656
CTETRA      3327       1   13467   13494   13493     703   14033   14032+
+          14030    6107    6919    7453
CTETRA      3328       1   14660     431   14681     430    7775    7147+
+          14858    7776    3152    4847
CTETRA      3329       1   16008   16009   16029      92   16061   16060+
+          16059    5778    4482    5779
CTETRA      3330       1   13493     431     566     565    7452    7148+
+           7708    7662    5244    4001
CTETRA      3331       1   13510   13518     235     186   14109    2120+
+           3144    3147    7163    3141
CTETRA      3332       1   14660   14705     431     355   14956    7458+
+           7775    7777    6969    7454
CTETRA      3333       1   14779   14791   14794     354   15280   15291+
+          15293    4763    4765    4778
CTETRA      3334       1   13393   13409   13404     614   13748   13749+
+          13725    5765    4378    4377
CTETRA      3335       1   16774     141      20     139    6829    3906+
+           1501    1703    6830    7778
CTETRA      3336       1   14660     355     431     430    7777    7454+
+           7775    7776    4849    3152
CTETRA      3337       1   13494   13504     431     355   14069    3150+
+           7451    6921    4848    7454
CTETRA      3338       1   15585   15605   15586      58   15860   15862+
+          15861    7779    7780    3739
CTETRA      3339       1   13380   13397   13381     161   13695   13694+
+          13696    1802    1813    6567
CTETRA      3340       1   13394   13396   13409     422   13690   13747+
+          13746    7580    4360    4381
CTETRA      3341       1   15585   15586   15615      58   15861   15928+
+          16004    7779    3739    1529
CTETRA      3342       1   12432     596   12433     870    7781    7619+
+          12486    6984    7782    7783
CTETRA      3343       1   13381   13396   13382     163   13691   13689+
+          13692    1893    3874    1894
CTETRA      3344       1   12715     596     780     661    7784    6778+
+           6814    6816    6783    6782
CTETRA      3345       1   17830   17831   16326     117   17836   16415+
+          16414    1642    5975    1656
CTETRA      3346       1   12432     869     596     870    6981    7785+
+           7781    6984    6983    7782
CTETRA      3347       1   16873     361     299     683    5059    7786+
+           7787    5061    5060    7788
CTETRA      3348       1   12411     461     774     930    6180    6183+
+           6182    7474    7789    7790
CTETRA      3349       1   12412     679     461     931    5027    6777+
+           6776    7478    7477    7791
CTETRA      3350       1   17710      40      41     970    6024    1355+
+           5918    7792    7793    7794
CTETRA      3351       1   16314   16315   16364     156   16509   16605+
+          16604    7795    3862    7796
CTETRA      3352       1   16764     141   16773     165    7797    7798+
+          16782    7799    7800    7801
CTETRA      3353       1   16013     156     971     972    6537    7802+
+           7803    7804    7805    7806
CTETRA      3354       1   13617   13625     721     168   14472    5429+
+           7549    7807    5430    5431
CTETRA      3355       1   16961   16962   16965     165   17020   17026+
+          17025    1807    7002    1808
CTETRA      3356       1   16034     156     752     753    5874    7808+
+           5871    5881    7809    5882
CTETRA      3357       1   15563   15578   15570     156   15777   15782+
+          15754    5875    4225    4239
CTETRA      3358       1   17849     519   16210     973    5774    7242+
+          16250    7810    7811    7812
CTETRA      3359       1   13646   13656   13651     353   14581   14587+
+          14569    6295    5832    7312
CTETRA      3360       1   15587   15598   15588      55   15851   15850+
+          15852    3018    2469    3020
CTETRA      3361       1   17849   16348   16353     519   16534   16537+
+          16536    5774    6227    6234
CTETRA      3362       1   17827      44   17828      47    3307    3309+
+          17834    1386    5947    5946
CTETRA      3363       1   17734     519   15588     409    6237    6677+
+          15854    7813    7814    3022
CTETRA      3364       1   15627     203     153     204    1974    4157+
+           6147    1977    1976    6150
CTETRA      3365       1   13381     163   13653     161    1893    1895+
+          14592    6567    6317    6568
CTETRA      3366       1   13388   13393   13389     423   13682   13685+
+          13686    3104    3103    5272
CTETRA      3367       1   17826      34      44      35    7815    5942+
+           1374    1373    1342    1369
CTETRA      3368       1   16325   16326   16333     116   16426   16452+
+          16450    3707    1657    3839
CTETRA      3369       1   17713     353     225     192    6885    2671+
+           7310    1905    6886    2552
CTETRA      3370       1   16215     153     519     744    4158    3649+
+           7816    5771    7817    7818
CTETRA      3371       1   17827      34     423      44    3301    3304+
+           3303    3307    5942    3308
CTETRA      3372       1   18109     641   17825     974    7819    4605+
+          17842    7820    7821    7822
CTETRA      3373       1   16347   16354   16353     153   16533   16539+
+          16538    6549    1753    1752
CTETRA      3374       1   16215     519   16216     745    7816    5773+
+          16259    7823    5777    5776
CTETRA      3375       1   17734   15626   15588     519   15955   15953+
+          15854    6237    6236    6677
CTETRA      3376       1   13447     635     610     636    5574    4577+
+           6124    5575    4584    4583
CTETRA      3377       1   11566     975     976     615    7824    7825+
+           7826    4388    7827    7828
CTETRA      3378       1   17193   17194   11505     445   17203   11520+
+          11532    3254    3262    7829
CTETRA      3379       1   15586   15623      58     410   15927    1530+
+           3739    6678    5768    3156
CTETRA      3380       1   17336     301   11968     395    3420    5898+
+          12156    3421    3423    5571
CTETRA      3381       1   17215   11760     977     978   11810    7830+
+           7831    7832    7833    7834
CTETRA      3382       1   12758     462     243     962    7266    4107+
+           7265    7721    7835    7836
CTETRA      3383       1   11762   11763   11766     636   11821   11827+
+          11826    5716    5583    6267
CTETRA      3384       1   11978     394     391     232    3398    2928+
+           3397    6371    2930    2920
CTETRA      3385       1   11976   11978   11977     232   12200   12198+
+          12199    2963    6371    2143
CTETRA      3386       1   17332   11766     278     129   11825    7381+
+           4193    4924    6266    5398
CTETRA      3387       1   17281   13163   13164     232   13204   13207+
+          13200    2961    7837    2965
CTETRA      3388       1   17396   13164   13163     232   13206   13207+
+          13208    2100    2965    7837
CTETRA      3389       1   13437   13438   13448     588   13834   13868+
+          13870    5614    6246    7594
CTETRA      3390       1   17194     662   13443     663    7838    4796+
+          13854    7315    4799    4798
CTETRA      3391       1   13164     394     398     399    2966    5570+
+           2956    2959    2968    2960
CTETRA      3392       1   17396   12735     232     244   12883    2147+
+           2100    2748    2148    2150
CTETRA      3393       1   13163     243     232     545    7713    2145+
+           7837    3849    7839    7840
CTETRA      3394       1   16864   16874   16873     979   16899   16898+
+          16896    7841    7842    7843
CTETRA      3395       1   17281   13163     232     545   13204    7837+
+           2961    3847    3849    7840
CTETRA      3396       1   13504     431     355     430    3150    7454+
+           4848    3153    3152    4849
CTETRA      3397       1   11773   11777      97      95   11876    4366+
+           2978    7844    7845    1570
CTETRA      3398       1     250     300     252     254    2382    2385+
+           2175    2183    2822    2184
CTETRA      3399       1   14709     477     356     363    3438    3441+
+           3440    3453    3449    2720
CTETRA      3400       1   17241     960   11579     915    7709    7711+
+          11631    7354    7846    7355
CTETRA      3401       1   13506     184     356     187    2706    2690+
+           2705    7126    4030    7398
CTETRA      3402       1   11568     229     980     981    2078    7847+
+           7848    7849    7850    7851
CTETRA      3403       1   13598     321   13608     424    4134    3285+
+          14409    4135    3287    3110
CTETRA      3404       1   13425   13458   13460     251   13926   13942+
+          13940    2173    5462    4961
CTETRA      3405       1   14706     566     431     565    7706    7148+
+           5245    5243    4001    5244
CTETRA      3406       1   13505   13511     430     184   14091    3157+
+           4850    2704    4416    4407
CTETRA      3407       1   14680     235     237     186    2124    2122+
+           2126    3139    3141    7616
CTETRA      3408       1   17683     778   16030     982    7852    6199+
+          16138    7853    7854    7855
CTETRA      3409       1   13523     135     384     343    2357    5258+
+           2872    2631    2633    2874
CTETRA      3410       1   17361   12609   12610     411   12632   12639+
+          12637    3037    3986    3975
CTETRA      3411       1   13495     666     477     356    6924    4813+
+           3446    3448    5388    3441
CTETRA      3412       1   18013   11572     820     821   11645    6629+
+           7856    7857    6630    6632
CTETRA      3413       1   11765     635     319     740    5578    4576+
+           4372    5713    6297    6202
CTETRA      3414       1   14705     703     431     355    5379    5248+
+           7458    6969    6922    7454
CTETRA      3415       1   17683   17684   16029     847   17692   16136+
+          16137    7858    6803    6805
CTETRA      3416       1   18086   11778   17338     858   11882   11884+
+          17346    7521    6914    6905
CTETRA      3417       1   13466     666   13494     703    4829    6920+
+          14036    5389    5387    6919
CTETRA      3418       1   14705   14708   14710     666   14981   14986+
+          14985    5386    4811    4816
CTETRA      3419       1   14661   14662   14708     356   14869   14980+
+          14979    2686    7396    2687
CTETRA      3420       1   15532   15533     633     750   15646    7859+
+           7860    7861    6255    5860
CTETRA      3421       1   15315     262     630     699    5188    5207+
+           7234    5217    5216    7862
CTETRA      3422       1   15544     271     632     633    5311    5313+
+           5312    5784    5342    4570
CTETRA      3423       1   16328     116     171     118    1670    3710+
+           3709    1662    1638    3714
CTETRA      3424       1   16325   16329   16328     171   16428   16427+
+          16425    3708    4973    3709
CTETRA      3425       1   15554     630     632     436    7231    5205+
+           6648    6649    7232    5318
CTETRA      3426       1   18094   17495   12761     563   17503   13038+
+          13157    7863    3980    3982
CTETRA      3427       1   14642   14643     367     368   14950    2760+
+           2742    2740    3817    2741
CTETRA      3428       1   15561     630     436      46    6028    7232+
+           3203    3209    6016    3218
CTETRA      3429       1   15545     272     268     271    2267    2269+
+           2260    2258    5338    2259
CTETRA      3430       1   16036      83     429     714    3134    7864+
+           3136    5334    5336    7865
CTETRA      3431       1   16016   16017   16036      83   16091   16090+
+          16089    3657    1511    3134
CTETRA      3432       1   16037      89      82     306    1544    1546+
+           1522    2417    4521    7866
CTETRA      3433       1   13388   13389   13416      44   13686   13787+
+          13786    5273    5274    1366
CTETRA      3434       1   11999     100   12000     102    1588    4868+
+          12263    1590    5681    7576
CTETRA      3435       1   12742     339   12745     459    5150    7100+
+          12909    3736    7099    6409
CTETRA      3436       1   17355   12615     103     983   12663    1925+
+           1924    7867    7868    7869
CTETRA      3437       1   17470   12613     103     936   12666    1926+
+           7195    7870    7510    7512
CTETRA      3438       1   11994   11999   12006     102   12261   12286+
+          12288    5682    1590    7871
CTETRA      3439       1   12743   12756      99     104   12972    3757+
+           3357    3360    3348    3361
CTETRA      3440       1   14650   14738   14733      64   15065   15061+
+          15067    6113    6112    4391
CTETRA      3441       1   13612   13619   13618     174   14456   14455+
+          14454    2495    1841    4629
CTETRA      3442       1   17513   17514   13172     676   17544   13311+
+          13272    5000    7872    5001
CTETRA      3443       1   17514   17515   13184     543   17546   13321+
+          13313    3831    7873    3832
CTETRA      3444       1   12018     459   12019     104    7409    7102+
+          12329    7524    3738    6401
CTETRA      3445       1   17380   11988   11928     558   12211   12213+
+          12215    3971    7068    7874
CTETRA      3446       1   12743   12744     104     530   12936    3745+
+           3360    7632    3746    3741
CTETRA      3447       1   12613     103     530     954    1926    3744+
+           7509    7640    7875    7641
CTETRA      3448       1   17355     103   12613     954    1924    1926+
+          12661    7876    7875    7640
CTETRA      3449       1   18092   17380   15328     984   17387   15420+
+          15422    7877    7878    7879
CTETRA      3450       1   13575     541     482     985    4126    7880+
+           6345    7881    7882    7883
CTETRA      3451       1   14728   14734   14729     380   15045   15042+
+          15046    3828    3809    3808
CTETRA      3452       1   14762      78     381      67    3481    4034+
+           4033    3483    1489    6995
CTETRA      3453       1   13553   13554   13572     617   14267   14294+
+          14295    4401    7129    4858
CTETRA      3454       1   14728   14762   14761      78   15160   15162+
+          15161    4032    3481    3480
CTETRA      3455       1   14761   14762   14767      67   15162   15188+
+          15187    3482    3483    1498
CTETRA      3456       1   14729   14730   14763     541   15052   15148+
+          15150    4118    3821    7884
CTETRA      3457       1   14683     185     184     186    4966    1876+
+           4410    4411    1880    1879
CTETRA      3458       1   13468   13492   13469     372   14022   14026+
+          14025    4010    3999    4022
CTETRA      3459       1   13562      78   13584      67    4037    1490+
+          14348    6994    1489    1458
CTETRA      3460       1   14762   14768   14767      67   15194   15195+
+          15188    3483    3465    1498
CTETRA      3461       1   14763     381     541     482    7212    4119+
+           7884    7204    6993    7880
CTETRA      3462       1   13468     565     372      60    4011    3992+
+           4010    1431    3996    3995
CTETRA      3463       1   13494     666   13495     355    6920    6924+
+          14038    6921    6923    4834
CTETRA      3464       1   14671     333     261     322    2841    7694+
+           6077    2842    2585    6368
CTETRA      3465       1   13492   13493   13503     566   14023   14063+
+          14066    3997    7708    6014
CTETRA      3466       1   14671   14672   14676     333   14831   14847+
+          14846    2841    2584    2596
CTETRA      3467       1   13468   13493   13492     565   14024   14023+
+          14022    4011    7662    4000
CTETRA      3468       1   14669     263     491     324    7383    3512+
+           7747    3934    2837    5437
CTETRA      3469       1   14660   14705   14706     431   14956   14958+
+          14957    7775    7458    5245
CTETRA      3470       1   14650   14707   14704      61   14968   14970+
+          14969    7347    5384    6102
CTETRA      3471       1   14792   14795   14793     332   15296   15297+
+          15286    5934    5922    2575
CTETRA      3472       1   13479   13483   13482     491   14001   14002+
+          14000    3517    3513    3518
CTETRA      3473       1   14664   14665   14671     261   14809   14830+
+          14829    2241    5438    6077
CTETRA      3474       1   13498   13499     333     322   14060    6081+
+           7697    2518    6369    2585
CTETRA      3475       1   13487   13488   13499     261   14016   14054+
+          14059    2217    2216    3859
CTETRA      3476       1   14667   14668   14669     491   14814   14822+
+          14823    3509    5021    7747
CTETRA      3477       1   14664     261     181     263    2241    2226+
+           2240    4690    2220    2227
CTETRA      3478       1   14665   14669   14666     324   14818   14817+
+          14819    2843    3934    2545
CTETRA      3479       1   11572   11581   11580     859   11611   11610+
+          11608    7220    7885    7886
CTETRA      3480       1   13523   13524   13526     209   14137   14142+
+          14143    2588    2017    7887
CTETRA      3481       1   13503   13510   13509     235   14084   14083+
+          14082    5997    3144    6005
CTETRA      3482       1   14665   14666   14672     322   14819   14836+
+          14832    2844    2543    2512
CTETRA      3483       1   13482   13487   13486     324   14018   14019+
+          14017    5436    2836    2840
CTETRA      3484       1   14682   14684   14683     186   14867   14872+
+          14871    3140    6310    4411
CTETRA      3485       1   13493   13504   13503     431   14065   14064+
+          14063    7452    3150    3149
CTETRA      3486       1   14676     385     333     169    2912    2885+
+           2596    2886    2903    6577
CTETRA      3487       1   17518   13182     491     921   13309    5451+
+           3516    7719    7386    7888
CTETRA      3488       1   17475     986   12611     987    7889    7890+
+          12645    7891    7892    7893
CTETRA      3489       1   14692     169   14693     670    2902    2359+
+          14914    7894    6578    4905
CTETRA      3490       1   13526   13528   13527     385   14144   14145+
+          14146    2882    2881    2913
CTETRA      3491       1   17833      20      22     988    1274    1278+
+           1277    7895    7896    7897
CTETRA      3492       1   16775      20   16776     138    1502    7739+
+          16793    1702    7898    7899
CTETRA      3493       1   13380   13654   13640     141   14589   14573+
+          14591    1801    1796    3905
CTETRA      3494       1   17717     286   17718     142    2327    2341+
+          17722    6573    7461    7356
CTETRA      3495       1   17831   16957   17832     141   17001   17000+
+          17838    1709    1786    1710
CTETRA      3496       1   17452   12732   12731     655   12859   12857+
+          12850    4718    4720    5115
CTETRA      3497       1   13630   13633     332     282   14506    3187+
+           2578    7900    3190    3162
CTETRA      3498       1   13486     324     322     213    2840    2544+
+           2538    2539    2526    2513
CTETRA      3499       1   17717     142     111     811    6573    7357+
+           6342    6556    7901    7902
CTETRA      3500       1   13639   13654     119     142   14572    1798+
+           7903    6828    1799    1800
CTETRA      3501       1   17453     674     719     989    4965    7904+
+           5402    7905    7906    7907
CTETRA      3502       1   17717     119     142     811    5909    1800+
+           6573    6556    6558    7901
CTETRA      3503       1   17452   14696   14697     135   14929   14931+
+          14934    1684    1686    5393
CTETRA      3504       1   12607     411   12609     567    3987    3986+
+          12634    4003    7908    4004
CTETRA      3505       1   17642   14709   17643     479   14984   14978+
+          17646    7390    3455    3454
CTETRA      3506       1   12796     147     412     146    1730    6701+
+           3883    1731    1724    7097
CTETRA      3507       1   18095   17566   13179     718   17573   13282+
+          13281    5400    7909    7910
CTETRA      3508       1   17522   17523   13179     857   17539   13285+
+          13289    7911    6900    6902
CTETRA      3509       1   11986     547   11993     412    6666    6697+
+          12239    5174    3884    6700
CTETRA      3510       1   11666   11675     278     280   11701    3476+
+           2288    2293    3471    6252
CTETRA      3511       1   17718     111     296     112    1619    7469+
+           2351    1620    1622    7912
CTETRA      3512       1   12793   12795   12802     471   13149   13151+
+          13150    5632    5634    5606
CTETRA      3513       1   18032   11667     673     680   11740    4939+
+           7913    7914    5035    5037
CTETRA      3514       1   12762   12772   12763     364   13032   13030+
+          13035    5599    2722    5600
CTETRA      3515       1   12763   12802   12796     547   13153   13154+
+          13155    5651    3882    3881
CTETRA      3516       1   18032   11667     275     673   11740    2282+
+           2281    7913    4939    7598
CTETRA      3517       1   12401   12402   12422     471   12445   12444+
+          12443    5184    5183    4330
CTETRA      3518       1   17330     346     105     585    4014    5753+
+           4200    4203    4228    4204
CTETRA      3519       1   12796     147     547     412    1730    6698+
+           3881    3883    6701    3884
CTETRA      3520       1   12402     990     471     991    7915    7916+
+           5183    7917    7918    7919
CTETRA      3521       1   17211   11781   11769     695   11900   11901+
+          11840    7920    7921    7922
CTETRA      3522       1   17514   13560   13475     368   14233   14239+
+          13964    3811    2751    3836
CTETRA      3523       1   17513   13172   13176     369   13272   13267+
+          13270    3405    3427    3230
CTETRA      3524       1   12798     471     425     412    6389    4733+
+           6391    6375    5175    6382
CTETRA      3525       1   12798     425   12801     411    6391    7923+
+          13147    6376    3116    3049
CTETRA      3526       1   12607     412     411     567    5673    3043+
+           3987    4003    7167    7908
CTETRA      3527       1   14761     435      78      66    3194    3655+
+           3480    3197    3196    1491
CTETRA      3528       1   14762   14763   14768     482   15152   15192+
+          15194    6985    7204    3467
CTETRA      3529       1   11986   11993   11987     412   12239   12238+
+          12240    5174    6700    7924
CTETRA      3530       1   15542   15571   15566      93   15745   15747+
+          15742    1559    4261    1790
CTETRA      3531       1   16329      93     170     171    7925    4981+
+           4971    4973    4982    1830
CTETRA      3532       1   16308   16329   16309     170   16423   16437+
+          16438    4972    4971    6938
CTETRA      3533       1   13582     483     383     873    3615    7926+
+           3061    6998    6997    7927
CTETRA      3534       1   15541   15566   15567     171   15741   15743+
+          15740    4979    7928    3711
CTETRA      3535       1   17594     531   13566     992    5302    3793+
+          14282    7929    7930    7931
CTETRA      3536       1   13567   13569   13570     532   14288   14273+
+          14285    3750    3752    5502
CTETRA      3537       1   13634     660   13648     332    5512    5443+
+          14550    5937    5935    7293
CTETRA      3538       1   13582     483      65     383    3615    3485+
+           3059    3061    7926    2869
CTETRA      3539       1   17635   14769   14768     483   15201   15202+
+          15196    7932    3609    3468
CTETRA      3540       1   12740   12748   12741     335   12914   12913+
+          12915    4992    3338    7642
CTETRA      3541       1   13569     508     531     529    3732    5291+
+           3749    3735    3734    6820
CTETRA      3542       1   13556       1   13557       3    6764    1201+
+          14250    1210    1205    1204
CTETRA      3543       1   13466   13495   13494     666   14039   14038+
+          14036    4829    6924    6920
CTETRA      3544       1   13557   13578   13577       2   14323   14322+
+          14321    1203    4445    4444
CTETRA      3545       1   13557       2   13577       3    1203    4444+
+          14321    1204    1206    6412
CTETRA      3546       1   13578     523       2     370    5854    4448+
+           4445    5855    4450    4440
CTETRA      3547       1   14651   14704      62      61   14988    7334+
+           1441    1444    6102    1440
CTETRA      3548       1   13579   13589     523     366   14362    3669+
+           5853    6840    3687    3689
CTETRA      3549       1   13598     310     321     578    5040    4141+
+           4134    4136    5042    4137
CTETRA      3550       1   14750     581     527       3    6511    5053+
+           6611    1216    6414    6413
CTETRA      3551       1   14749   14751   14752     523   15146   15142+
+          15145    3695    3694    3691
CTETRA      3552       1   14749   14750     527       2   15130    6611+
+           3696    4447    1213    4446
CTETRA      3553       1   14705   14708     666     355   14981    4811+
+           5386    6969    2684    6923
CTETRA      3554       1   15579     159     158     166    1771    1784+
+           5367    1810    5364    4862
CTETRA      3555       1   13564   13565   13586     579   14298   14338+
+          14340    4751    4153    4746
CTETRA      3556       1   16319     172     164     421    4210    1835+
+           6505    4211    4212    3090
CTETRA      3557       1   14783     167     174     168    1818    1842+
+           2505    1819    1821    1843
CTETRA      3558       1   16320   16338   16340     159   16493   16496+
+          16494    2459    5678    7156
CTETRA      3559       1   13191     166     211     618    4902    2237+
+           2310    4419    4903    7933
CTETRA      3560       1   16321   16338     159     166   16490    5678+
+           2461    4470    4472    5364
CTETRA      3561       1   13190   13191     166     626   13348    4902+
+           4901    4511    4510    5797
CTETRA      3562       1   17662   13190   13188     166   13345   13344+
+          13337    7934    4901    4878
CTETRA      3563       1   13594   13606   13605     285   14418   14420+
+          14419    2863    2864    2315
CTETRA      3564       1   13566   13569   13567     531   14287   14288+
+          14289    3793    3749    3748
CTETRA      3565       1   15580     314     166     918    5863    5864+
+           1811    7369    7371    7935
CTETRA      3566       1   13188     577     166     601    4127    4879+
+           4878    4298    4297    7936
CTETRA      3567       1   17588   15331   15332     223   15439   15438+
+          15440    2061    7937    7938
CTETRA      3568       1   14662   14709     356     363   14982    3440+
+           7396    4853    3453    2720
CTETRA      3569       1   17662   13190     166     993   13345    4901+
+           7934    7939    7940    7941
CTETRA      3570       1   13651     353     188     192    7312    5833+
+           7942    7314    6886    1907
CTETRA      3571       1   15597     637     638      13    4585    4589+
+           4588    4594    4593    4638
CTETRA      3572       1   17718     286     296     142    2341    2352+
+           2351    7356    7461    5735
CTETRA      3573       1   13383   13651   13652     188   14571   14588+
+          14595    1892    7942    5928
CTETRA      3574       1   15628     302     207     208    6064    7943+
+           1984    1987    7944    1988
CTETRA      3575       1   13383   13388   13384     283   13684   13784+
+          13785    2306    2308    6861
CTETRA      3576       1   17711   17712     225      43   17725    5992+
+           2071    1377    7945    2066
CTETRA      3577       1   13470   13555   13554       8   14243   14261+
+          14260    4785    7502    6142
CTETRA      3578       1   17713   14794   14793     353   15290   15289+
+          15287    6885    4777    2672
CTETRA      3579       1   13560   13581   13580     369   14335   14337+
+          14336    2752    3402    3401
CTETRA      3580       1   13384   13416   13385      44   13781   13783+
+          13782    5995    1366    2547
CTETRA      3581       1   13384   13385   13636     192   13782   14516+
+          14518    5996    2550    7313
CTETRA      3582       1   17712   17713   14793     225   17723   15287+
+          15288    5992    7310    2574
CTETRA      3583       1   12014   12017   12021     339   12336   12342+
+          12341    2613    5146    3728
CTETRA      3584       1   12018     459     104     530    7409    3738+
+           7524    7629    7150    3741
CTETRA      3585       1   12017     339     459     458    5146    7099+
+           7101    5147    5148    3317
CTETRA      3586       1   12746   12751   12752     433   12940   12944+
+          12943    3173    7666    3703
CTETRA      3587       1   12015   12021   12020     433   12344   12347+
+          12345    7082    3716    3715
CTETRA      3588       1   12017   12018   12023     459   12333   12353+
+          12355    7101    7409    7411
CTETRA      3589       1   13439   13451   13444     401   13894   13892+
+          13849    7946    2976    3258
CTETRA      3590       1   14757   14790   14781     447   15268   15269+
+          15236    4142    5518    6837
CTETRA      3591       1   11771   11772   11775     401   11857   11863+
+          11865    6204    2996    2997
CTETRA      3592       1   14722   14743   14723      26   15120   15137+
+          15140    1333    7947    1311
CTETRA      3593       1   17992   11565   11574     401   11616   11583+
+          11620    2990    6056    7948
CTETRA      3594       1   11759   11771   11774     401   11862   11866+
+          11867    6866    6204    7949
CTETRA      3595       1   13598   13609   13608     321   14424   14425+
+          14409    4134    3289    3285
CTETRA      3596       1   11771   11775   11774     401   11865   11868+
+          11866    6204    2997    7949
CTETRA      3597       1   17453     822     559     989    6636    7034+
+           4964    7905    7950    7951
CTETRA      3598       1   17453     656     655     822    4723    7952+
+           4719    6636    6635    7033
CTETRA      3599       1   14726   14740   14727     515   15070   15078+
+          15079    3638    6610    5136
CTETRA      3600       1   17453     674     135     719    4965    4970+
+           4969    5402    7904    6897
CTETRA      3601       1   14775   14776   14792     434   15223   15278+
+          15277    3182    3181    5933
CTETRA      3602       1   13426   13460   13457     674   13939   13935+
+          13937    5280    4963    5118
CTETRA      3603       1   13605   13635   13631     282   14501   14502+
+          14491    2305    2321    6030
CTETRA      3604       1   17290     990   12402     991    7953    7915+
+          12603    7954    7918    7917
CTETRA      3605       1   13460     559     251     859    4962    4958+
+           4961    7522    7030    7029
CTETRA      3606       1   13605   13606   13635     281   14420   14503+
+          14501    2319    3176    2320
CTETRA      3607       1   13593   13594   13605     285   14388   14419+
+          14422    2852    2863    2315
CTETRA      3608       1   13424   13425   13529     252   13925   14153+
+          14155    2181    2174    2601
CTETRA      3609       1   17592   17593   13575     985   17625   14313+
+          14312    7955    7956    7881
CTETRA      3610       1   14778     226     348     994    2653    2656+
+           2655    7957    7958    7959
CTETRA      3611       1   13454   13455   13460     859   13912   13936+
+          13943    7960    7961    7522
CTETRA      3612       1   13455     559   13460     859    7962    4962+
+          13936    7961    7030    7522
CTETRA      3613       1   15572   15573   15575     420   15766   15775+
+          15773    5968    3107    4677
CTETRA      3614       1   14788   14789     660     432   15276    7144+
+           5449    7607    5527    5510
CTETRA      3615       1   13623   13624     660     432   14475    5444+
+           5511    5529    5508    5510
CTETRA      3616       1   13615   13616   13623     432   14450   14474+
+          14469    3260    5526    5529
CTETRA      3617       1   15564   15565   15573     116   15734   15763+
+          15765    1634    7418    3841
CTETRA      3618       1   16308   16374   16370      50   16618   16625+
+          16627    5017    5019    1400
CTETRA      3619       1   16016   16017      83     522   16091    1511+
+           3657    3660    3672    3661
CTETRA      3620       1   17712      45      44      43    3212    6304+
+           5993    7945    1376    1365
CTETRA      3621       1   13631   13635   13633     282   14502   14507+
+          14505    6030    2321    3190
CTETRA      3622       1   17829     163   17830     118    1788    6318+
+          17837    1661    1789    1643
CTETRA      3623       1   13599   13610   13609     309   14429   14431+
+          14430    2433    7093    4144
CTETRA      3624       1   17676   17677   16036     429   17706   16150+
+          16151    3135    7963    3136
CTETRA      3625       1   17662   15580   15536     166   15784   15787+
+          15786    7934    1811    2235
CTETRA      3626       1   14780   14788   14791     659   15274   15284+
+          15279    5447    5448    4762
CTETRA      3627       1   17662   17663   13190     993   17666   13346+
+          13345    7939    7964    7940
CTETRA      3628       1   13630   13633   13638     332   14506   14513+
+          14512    2578    3187    2583
CTETRA      3629       1   13190     166     669     668    4901    7965+
+           4831    4826    7966    4833
CTETRA      3630       1   17960   16968   16963     326   17040   17041+
+          17016    4397    4396    5621
CTETRA      3631       1   16319   16332   16333     164   16476   16449+
+          16477    6505    1834    3838
CTETRA      3632       1   16307   16327   16308      49   16409   16421+
+          16422    1408    4741    4740
CTETRA      3633       1   13566   13574   13575     541   14311   14318+
+          14317    4125    4120    4126
CTETRA      3634       1   16365   16378   16377     750   16643   16646+
+          16644    5840    5858    5862
CTETRA      3635       1   16960   16964   16962     350   17014   17021+
+          17018    3124    2663    7003
CTETRA      3636       1   16859      42     352     854    1362    4489+
+           4487    6882    6884    7539
CTETRA      3637       1   16009   16010      92     595   16065    4257+
+           4482    7967    4258    4260
CTETRA      3638       1   16030     173   16031     594    4312    4247+
+          16066    7968    4250    4249
CTETRA      3639       1   16007   16028   16027     267   16055   16054+
+          16052    7969    6185    2248
CTETRA      3640       1   15550   15558   15556      50   15701   15697+
+          15703    6937    1396    2265
CTETRA      3641       1   16327   16328   16329     171   16412   16427+
+          16424    4743    3709    4973
CTETRA      3642       1   14770     428     427      79    4051    3128+
+           5161    4056    3132    3131
CTETRA      3643       1   13640     141   13654     142    3905    1796+
+          14573    5772    1712    1799
CTETRA      3644       1   13594      65      80     285    3060    2856+
+           2861    2863    2860    2859
CTETRA      3645       1   13582   13583   13594      65   14353   14384+
+          14387    3059    1500    3060
CTETRA      3646       1   14701   14718   14717     573   15031   15033+
+          15032    5645    4781    5557
CTETRA      3647       1   17232     995     996     997    7970    7971+
+           7972    7973    7974    7975
CTETRA      3648       1   13477     176   13478     537    7976    7977+
+          13977    3790    7438    5644
CTETRA      3649       1   14701     573     196     537    5645    6530+
+           6321    5646    4078    7978
CTETRA      3650       1   13478     176     196     537    7977    6324+
+           6529    5644    7438    7978
CTETRA      3651       1   11566   11567   11576     998   11591   11590+
+          11589    7979    7980    7981
CTETRA      3652       1   17338     559     859     655    6903    7030+
+           6913    4725    4957    7031
CTETRA      3653       1   11940   11941   11951     437   12039   12087+
+          12089    3241    5132    5131
CTETRA      3654       1   13494   13495   13505     355   14038   14074+
+          14071    6921    4834    2702
CTETRA      3655       1   16767      20     969     999    7738    7982+
+           7983    7984    7985    7986
CTETRA      3656       1   14683   14686     187     185   14883    1883+
+           7987    4966    1884    1886
CTETRA      3657       1   13513   13521   13520     107   14124   14123+
+          14122    1921    1949    1922
CTETRA      3658       1   17526   13167   13170    1000   13222   13231+
+          13230    7988    7989    7990
CTETRA      3659       1   14662   14709   14708     356   14982   14983+
+          14980    7396    3440    2687
CTETRA      3660       1   13465     477     667     851    4822    4823+
+           4821    6851    7403    6852
CTETRA      3661       1   17526   13170     913    1001   13230    7340+
+           7339    7991    7992    7993
CTETRA      3662       1   18011   18012   11571     923   18019   11647+
+          11650    7994    7995    7423
CTETRA      3663       1   18010   18011   11570      36   18020   11649+
+          11652    1343    7305    1344
CTETRA      3664       1   17446   14686   14685     107   14886   14884+
+          14885    1605    1881    4851
CTETRA      3665       1   13195      20    1002     819    7996    7997+
+           7998    6608    7999    8000
CTETRA      3666       1   17714     163     188     125    5813    5816+
+           5815    6813    1787    6822
CTETRA      3667       1   17713   17714   14794     353   17724   15292+
+          15290    6885    5826    4777
CTETRA      3668       1   14792     332   14793     354    5934    2575+
+          15286    8001    7294    2673
CTETRA      3669       1   13489     376     260     553    4730    4473+
+           3921    3919    4466    3920
CTETRA      3670       1   13527     385     236     169    2913    2900+
+           2876    2878    2903    2879
CTETRA      3671       1   13384   13636   13651     192   14518   14568+
+          14570    5996    7313    7314
CTETRA      3672       1   14702   14715     377     372   15010    2797+
+           5689    7442    2769    2789
CTETRA      3673       1   17713      49   15540     125    6812    4734+
+          15668    6823    8002    4975
CTETRA      3674       1   12767   12768   12784     126   13004   13083+
+          13082    2448    7718    7058
CTETRA      3675       1   14666   14672     322     213   14836    2512+
+           2543    2546    2514    2513
CTETRA      3676       1   13427   13525   13523     210   14134   14136+
+          14129    8003    6889    2589
CTETRA      3677       1   13416      44      34      35    1366    5942+
+           5941    1367    1369    1342
CTETRA      3678       1   17712      44      47     192    5993    5947+
+           5985    5994    2551    1906
CTETRA      3679       1   13384     283      44     192    6861    5950+
+           5995    5996    5989    2551
CTETRA      3680       1   17397   17398   12713    1003   17402   12983+
+          12884    8004    8005    8006
CTETRA      3681       1   13557     620   13558       2    8007    4438+
+          14247    1203    4437    4436
CTETRA      3682       1   13523   13525   13524     210   14136   14135+
+          14137    2589    6889    2018
CTETRA      3683       1   18086   13170   17232     995   13241   13239+
+          17234    8008    8009    7970
CTETRA      3684       1   13515     259     182     385    6080    5531+
+           3864    3866    5010    3867
CTETRA      3685       1   12412   12432     461     596   12484    6976+
+           6776    5026    7781    4611
CTETRA      3686       1   14657   14658   14715     377   14839   15009+
+          15011    5169    5596    2797
CTETRA      3687       1   13577   13578   13588     527   14322   14356+
+          14359    4443    4442    5065
CTETRA      3688       1   17597   15348   15346     667   15521   15520+
+          15519    6817    7394    7393
CTETRA      3689       1     393     392     534    1004    3595    8010+
+           4578    8011    8012    8013
CTETRA      3690       1   14671   14676   14675     333   14846   14845+
+          14844    2841    2596    5012
CTETRA      3691       1   13471       6   13472       5    4552    1222+
+          13991    7143    1226    1225
CTETRA      3692       1   13502   13503   13509     183   14068   14082+
+          14085    1872    6012    1873
CTETRA      3693       1   13488     181     260     261    1868    2239+
+           2228    2216    2226    2209
CTETRA      3694       1   14664   14670     260     261   14827    2206+
+           2238    2241    2207    2209
CTETRA      3695       1   13434   13436     610     254   13827    7168+
+           7429    2388    4518    4359
CTETRA      3696       1   13523   13526     169     209   14143    1823+
+           1822    2588    7887    6858
CTETRA      3697       1   13492   13493     566     565   14023    7708+
+           3997    4000    7662    4001
CTETRA      3698       1   17334   11770     610     254   11847    4554+
+           4357    2830    6122    4359
CTETRA      3699       1   17450     305     336     252    8014    2942+
+           2624    5897    2820    2603
CTETRA      3700       1   13425     134   13529     252    7513    2598+
+          14153    2174    2602    2601
CTETRA      3701       1   13425   13460   13426     251   13940   13939+
+          13941    2173    4961    5266
CTETRA      3702       1   13507     199     363     892    2871    4974+
+           3445    7141    8015    8016
CTETRA      3703       1   13424   13544     305     252   14207    4515+
+           2407    2181    2646    2820
CTETRA      3704       1   13532   13533   13547     109   14161   14210+
+          14209    1615    4005    7105
CTETRA      3705       1   14652   14710   14711     667   14998   14994+
+          14996    6846    4817    6909
CTETRA      3706       1   14693     169     134     670    2359    2361+
+           2358    4905    6578    6099
CTETRA      3707       1   17505   17506   13194     698   17551   13363+
+          13362    5208    8017    5209
CTETRA      3708       1   17450     300     305     252    5883    2821+
+           8014    5897    2385    2820
CTETRA      3709       1   18094   12608   17392     160   12630   12628+
+          17394    8018    8019    1773
CTETRA      3710       1   14660   14681   14682     430   14858   14861+
+          14855    7776    4847    4408
CTETRA      3711       1   13425   13458     251     250   13926    5462+
+           2173    2171    2200    2172
CTETRA      3712       1   17939   13402     350    1005   13714    3495+
+           5618    8020    8021    8022
CTETRA      3713       1   13401   13402   13408     350   13716   13737+
+          13739    5638    3495    3496
CTETRA      3714       1   14662     184   14683     187    7397    4410+
+          14870    3457    4030    7987
CTETRA      3715       1   13522     199     105     106    1966    1970+
+           1600    1602    1953    1603
CTETRA      3716       1   13407     165     326     350    2554    7007+
+           2541    7012    3486    5622
CTETRA      3717       1   13467   13552   13551      61   14254   14253+
+          14252    1438    1435    1439
CTETRA      3718       1   14711     667     666     477    6909    4819+
+           4810    4812    4823    4813
CTETRA      3719       1   13400   13401     326     133   13721    5551+
+           2540    4409    1681    5552
CTETRA      3720       1   17497   15325   15326     443   15413   15412+
+          15409    5092    4314    8023
CTETRA      3721       1   12766     128   12776     439    2560    5365+
+          13065    5080    5366    3223
CTETRA      3722       1   11667   11668      86     201   11710    1962+
+           4937    8024    1963    1965
CTETRA      3723       1   17478   12608   18094    1006   12629   12630+
+          17480    8025    8026    8027
CTETRA      3724       1   17445   12780   18097     347   13060   13059+
+          17462    2649    2651    6392
CTETRA      3725       1   13401   13407     326     350   13740    2541+
+           5551    5638    7012    5622
CTETRA      3726       1   17958   17132   17131     350   17165   17164+
+          17161    2664    5620    5619
CTETRA      3727       1   17939   13402   13401     350   13714   13716+
+          13715    5618    3495    5638
CTETRA      3728       1   12407   12408     339     457   12469    3312+
+           5137    5157    3313    3315
CTETRA      3729       1   17937   17130   17127     326   17151   17150+
+          17146    8028    8029    8030
CTETRA      3730       1   13526   13527   13530     169   14146   14157+
+          14156    1823    2878    2373
CTETRA      3731       1   12785   12791   12786     469   13103   13102+
+          13104    4883    4884    4871
CTETRA      3732       1   13556   13557   13577       3   14250   14321+
+          14324    1210    1204    6412
CTETRA      3733       1   14647   14741   14731       4   15081   15084+
+          15083    1239    4164    4177
CTETRA      3734       1   17962   16954   16956      71   16987   16997+
+          16996    1470    7482    7352
CTETRA      3735       1   14724   14752   14751     310   15141   15142+
+          15132    2438    3699    3701
CTETRA      3736       1   13527   13541   13530     169   14187   14188+
+          14157    2878    2880    2373
CTETRA      3737       1   11946   11952   11953     127   12099   12083+
+          12096    3548    1666    6069
CTETRA      3738       1   12618     458     889    1007    6092    7131+
+           7130    8031    8032    8033
CTETRA      3739       1   12029   12030     454     455   12387    3363+
+           4278    6407    3365    3299
CTETRA      3740       1   17465   12751   12747     528   12941   12939+
+          12937    7676    7527    3756
CTETRA      3741       1   17466   12619   12618     942   12690   12689+
+          12686    8034    7552    7555
CTETRA      3742       1   12614     794     102     903    6433    8035+
+           2086    8036    7255    8037
CTETRA      3743       1   14674   14689   14690     182   14898   14900+
+          14894    1869    1871    6004
CTETRA      3744       1   14715     377     373     376    2797    2792+
+           2772    5171    5170    2780
CTETRA      3745       1   12617     460     459     888    3319    3321+
+           3318    7117    7647    7152
CTETRA      3746       1   12017   12023   12021     458   12355   12356+
+          12342    5147    7023    3718
CTETRA      3747       1   12616   12617     530     888   12679    7151+
+           7532    7118    7117    7153
CTETRA      3748       1   17354   12613   12616     530   12662   12674+
+          12672    7582    7509    7532
CTETRA      3749       1   17354     530   12616     948    7582    7532+
+          12672    7600    8038    7601
CTETRA      3750       1   12786   12798   12794     241   13130   13127+
+          13117    6393    6390    8039
CTETRA      3751       1   11977   11978     391     232   12198    3397+
+           2919    2143    6371    2920
CTETRA      3752       1   12731     391   12733     395    6372    5068+
+          12869    5116    2934    3425
CTETRA      3753       1   11971     341     391     395    2622    2946+
+           2945    5572    3426    2934
CTETRA      3754       1   17594   13569   13566     531   14269   14287+
+          14282    5302    3749    3793
CTETRA      3755       1   14650   14651   14738      63   14989   15066+
+          15065    6114    1443    5499
CTETRA      3756       1   11575     293     295     297    2345    2349+
+           2348    2369    8040    2370
CTETRA      3757       1   17239   11577   17240    1008   11627   11628+
+          17249    8041    8042    8043
CTETRA      3758       1   17895    1009   16779    1010    8044    8045+
+          16833    8046    8047    8048
CTETRA      3759       1   14704     703      62      61    5378    5390+
+           7334    6102    6109    1440
CTETRA      3760       1   17218    1011     121     249    8049    8050+
+           2161    2163    8051    2164
CTETRA      3761       1   17256   11669   11670     257   11717   11681+
+          11718    8052    8053    2188
CTETRA      3762       1   18012   18013   11572     820   18018   11645+
+          11648    8054    7856    6629
CTETRA      3763       1   13458      94   13459     251    2197    7514+
+          13932    5462    2202    5463
CTETRA      3764       1   14751     578     310     527    6438    5042+
+           3701    3697    5049    3702
CTETRA      3765       1   17895   16780   17896     799   16834   16835+
+          17905    8055    6453    6468
CTETRA      3766       1   13636   13638   13637     225   14517   14521+
+          14522    6290    2581    2580
CTETRA      3767       1   14772   14777   14776     282   15227   15226+
+          15225    2298    3161    2299
CTETRA      3768       1   17642   15344   15346     477   15503   15510+
+          15512    7389    7401    7400
CTETRA      3769       1   14708   14709   14711     477   14983   14991+
+          14993    3439    3438    4812
CTETRA      3770       1   11573   11582   11581      94   11615   11614+
+          11612    2969    8056    8057
CTETRA      3771       1   14650   14704   14651      61   14969   14988+
+          14989    7347    6102    1444
CTETRA      3772       1   14735     531     532     508    3802    3751+
+           3795    5307    5291    5290
CTETRA      3773       1   11572   11573      94     821   11613    2969+
+           6627    6630    8058    6631
CTETRA      3774       1   18014   11573   11572     821   11643   11613+
+          11646    8059    8058    6630
CTETRA      3775       1   11569   11579   11578    1012   11601   11600+
+          11598    8060    8061    8062
CTETRA      3776       1   13555   13576   13565       4   14319   14320+
+          14291    6599    4152    4151
CTETRA      3777       1   13589   13590   13600      27   14363   14397+
+          14393    3685    1304    1303
CTETRA      3778       1   11568     705   11569    1012    6146    5256+
+          11599    8063    8064    8060
CTETRA      3779       1   13184     175     368     543    1930    2846+
+           2845    3832    8065    3833
CTETRA      3780       1   11568   11569   11578    1012   11599   11598+
+          11597    8063    8060    8062
CTETRA      3781       1   16958     361     299     362    2708    7786+
+           2375    2709    2711    8066
CTETRA      3782       1   15603      59      56      57    2027    2029+
+           2028    3016    1430    1420
CTETRA      3783       1   17955   17956   16958     299   17965   17005+
+          17004    2374    8067    2375
CTETRA      3784       1   17937   13400   13391     326   13717   13719+
+          13666    8028    2540    7327
CTETRA      3785       1   17510   13175   13174     619   13263   13262+
+          13261    4433    7225    7224
CTETRA      3786       1   18110   16954   17962      72   16985   16987+
+          17963    1473    8068    8069
CTETRA      3787       1   15576     159     420     421    4245    3092+
+           7415    4246    3086    3083
CTETRA      3788       1   15570   15578   15577     162   15782   15783+
+          15780    4236    4224    1780
CTETRA      3789       1   18070   16860     853     757   16951    6878+
+           8070    8071    5900    6879
CTETRA      3790       1   17558   13172     368     475   13269    3428+
+           3806    8072    3429    3431
CTETRA      3791       1   17558   13184   17559     382   13314   13315+
+          17579    3807    2847    7307
CTETRA      3792       1   13596   13597   13608     424   14377   14408+
+          14410    3109    3631    3110
CTETRA      3793       1   13471   13556   13555       5   14245   14244+
+          14242    7143    1209    7657
CTETRA      3794       1   17909   16869    1013     852   16918    8073+
+           8074    8075    6874    8076
CTETRA      3795       1   13586   13587   13597     515   14355   14374+
+          14373    6609    5045    3629
CTETRA      3796       1   16315   16341   16340     162   16500   16499+
+          16498    4183    4840    6503
CTETRA      3797       1   16861      34   16870      35    3292    5471+
+          16885    6474    1342    8077
CTETRA      3798       1   15576   15577   15581     159   15781   15796+
+          15798    4245    1770    1772
CTETRA      3799       1   18069   16861   18070     453   16949   16952+
+          18079    5480    3293    8078
CTETRA      3800       1   14722   14723   14756      28   15140   15172+
+          15177    7096    1310    5721
CTETRA      3801       1   14743   14752      27     366   15139    3700+
+           8079    5112    3693    3688
CTETRA      3802       1   13599   13609     321     309   14430    3289+
+           6450    2433    4144    2510
CTETRA      3803       1   13609   13610   13616     447   14431   14445+
+          14448    3266    6839    5523
CTETRA      3804       1   14757   14758   14790     447   15170   15266+
+          15268    4142    3281    5518
CTETRA      3805       1   14721   14755   14754     316   15180   15181+
+          15175    5726    5727    4422
CTETRA      3806       1   13610   13611   13617     320   14427   14451+
+          14447    7095    5725    7550
CTETRA      3807       1   14723   14752   14724      27   15138   15141+
+          15143    1308    3700    2440
CTETRA      3808       1   13618     174   13619     168    4629    1841+
+          14455    7575    1843    1839
CTETRA      3809       1   13617     320   13618     168    7550    4627+
+          14452    7807    5435    7575
CTETRA      3810       1   18070   16860   18071     853   16951   16953+
+          18078    8070    6878    8080
CTETRA      3811       1   15620   15632     512     747   15985    5830+
+           5798    5801    7211    7076
CTETRA      3812       1   13563   13585   13584      78   14343   14345+
+          14344    4036    4043    1490
CTETRA      3813       1   13563   13564   13585     520   14301   14341+
+          14343    4041    6971    4042
CTETRA      3814       1   17632   14778     223     348   15228    2092+
+           6036    8081    2655    2657
CTETRA      3815       1   17743   16225   16224     220   16305   16302+
+          16300    4658    4666    5293
CTETRA      3816       1   14771   14776   14775     281   15224   15223+
+          15222    5675    2296    3183
CTETRA      3817       1   17928    1014   15322    1015    8082    8083+
+          15392    8084    8085    8086
CTETRA      3818       1   15553   15561   15562      46   15714   15723+
+          15722    6029    3209    8087
CTETRA      3819       1   17826      34      35     450    7815    1342+
+           1373    3276    8088    3277
CTETRA      3820       1   16320   16321   16338     159   16472   16490+
+          16493    2459    2461    5678
CTETRA      3821       1   17996    1016   16859     854    8089    8090+
+          16913    8091    8092    6882
CTETRA      3822       1   17996   16868   18112    1017   16914   16915+
+          18000    8093    8094    8095
CTETRA      3823       1   17637   15345   15329     541   15505   15504+
+          15451    3820    8096    8097
CTETRA      3824       1   14758   14774     447     427   15218    5516+
+           3281    3283    3165    3269
CTETRA      3825       1   13615     427     447     432    3259    3269+
+           3267    3260    3164    5517
CTETRA      3826       1   14771   14772   14776     281   15210   15225+
+          15224    5675    2297    2296
CTETRA      3827       1   18002   16772   18052     327   16841   16842+
+          16843    8098    2533    8099
CTETRA      3828       1   16861   16862   16870      34   16887   16886+
+          16885    3292    3272    5471
CTETRA      3829       1   17830   16961     161     548   17027    1806+
+           1777    3888    3887    6319
CTETRA      3830       1   13563   13564     520     380   14301    6971+
+           4041    2824    6972    6973
CTETRA      3831       1   13604     221     282     223    2301    2304+
+           2303    2060    3382    6031
CTETRA      3832       1   14781   14790   14788     721   15269   15275+
+          15273    6834    6836    5446
CTETRA      3833       1   14756   14781   14782     320   15235   15237+
+          15233    4644    6835    2498
CTETRA      3834       1   18051   16771    1018    1019   16844    8100+
+           8101    8102    8103    8104
CTETRA      3835       1   17785   16023   16022     712   16173   16115+
+          16176    8105    5321    7737
CTETRA      3836       1   13648     660     659     354    5443    4766+
+           4773    4776    4768    4764
CTETRA      3837       1   14757     309   14781      28    2429    7608+
+          15236    2430    2426    7545
CTETRA      3838       1   13598   13599   13609     321   14396   14430+
+          14424    4134    6450    3289
CTETRA      3839       1   14725   14759   14758     321   15153   15156+
+          15155    4139    4133    2509
CTETRA      3840       1   15544   15545   15555     271   15643   15691+
+          15693    5311    2258    5030
CTETRA      3841       1   14757     447   14781     309    4142    6837+
+          15236    2429    4143    7608
CTETRA      3842       1   14780   14781   14788     721   15239   15273+
+          15274    5445    6834    5446
CTETRA      3843       1   13616   13617   13624     721   14446   14470+
+          14473    5525    7549    5441
CTETRA      3844       1   16005   16026   16025     272   16047   16046+
+          16045    8106    2270    6586
CTETRA      3845       1   16021   16041   16040      59   16109   16108+
+          16106    4503    6207    2020
CTETRA      3846       1   13623   13648   13634     660   14552   14550+
+          14511    5511    5443    5512
CTETRA      3847       1   17449   14694   17450     336   14920   14918+
+          17457    2941    4185    2624
CTETRA      3848       1   14776   14795   14792     332   15294   15296+
+          15278    3160    5922    5934
CTETRA      3849       1   13616   13624   13623     432   14473   14475+
+          14474    5526    5508    5529
CTETRA      3850       1   17799     622   16009     623    8107    4480+
+          16201    8108    4484    4483
CTETRA      3851       1   14788   14789   14791     660   15276   15282+
+          15284    5449    7144    4767
CTETRA      3852       1   17977   16005     639     771   16123    6177+
+           7014    8109    6167    6178
CTETRA      3853       1   17449     137   14679     336    1696    4917+
+          14874    2941    2943    4184
CTETRA      3854       1   13424     250   13425     252    2180    2171+
+          13925    2181    2175    2174
CTETRA      3855       1   15314      46   15316     897    8110    6015+
+          15354    7187    8111    7188
CTETRA      3856       1   13636   13637   13646     354   14522   14557+
+          14558    6291    6307    6296
CTETRA      3857       1   14728     520     380      78    4035    6973+
+           3828    4032    3656    4039
CTETRA      3858       1   13393   13394   13409     614   13683   13746+
+          13748    5765    7579    4378
CTETRA      3859       1   16376     749   16377     633    5964    6260+
+          16637    5965    5966    5861
CTETRA      3860       1   17710      46      40    1020    6023    1384+
+           6024    8112    8113    8114
CTETRA      3861       1   16366   16377   16376     749   16638   16637+
+          16636    6047    6260    5964
CTETRA      3862       1   15545   15548   15546     268   15654   15655+
+          15656    2260    2266    8115
CTETRA      3863       1   17825   17826   16386      40   17843   16673+
+          16672    1354    1372    1383
CTETRA      3864       1   16377   16379   16387     633   16679   16680+
+          16677    5861    4568    5345
CTETRA      3865       1   15532   15544     262     633   15640    8116+
+           2211    7860    5784    4569
CTETRA      3866       1   15534     272   15547     749    6592    5337+
+          15651    6244    5963    7537
CTETRA      3867       1   18101   15314   17763    1021   15393   15356+
+          17768    8117    8118    8119
CTETRA      3868       1   17911   16871   16872     804   16922   16892+
+          16923    8120    8121    6497
CTETRA      3869       1   16377   16378   16379     633   16646   16651+
+          16679    5861    5857    4568
CTETRA      3870       1   15543   15544   15554     632   15639   15694+
+          15689    5204    5312    6648
CTETRA      3871       1   16349     302   16356     203    3542    2395+
+          16549    1991    4524    2396
CTETRA      3872       1   17715   15567   15564     118   15736   15733+
+          15731    5977    3713    1637
CTETRA      3873       1   16327   16328     171     125   16412    3709+
+           4743    5983    1659    4976
CTETRA      3874       1   17714   15540   15567     125   15738   15739+
+          15737    6813    4975    4977
CTETRA      3875       1   13416      34   13417      35    5941    1338+
+          13789    1367    1342    1341
CTETRA      3876       1   16031     172   16032     957    4248    6539+
+          16072    7691    8122    7692
CTETRA      3877       1   17681   16032     810     957   16142    6540+
+           7022    7690    7692    8123
CTETRA      3878       1   16010   16031   16030     173   16067   16066+
+          16064    4255    4247    4312
CTETRA      3879       1   16031     594     172    1022    4249    4251+
+           4248    8124    8125    8126
CTETRA      3880       1   17588   17589   13604     224   17628   14416+
+          14417    2062    8127    2063
CTETRA      3881       1   13413      41   13418      35    4599    2676+
+          13793    8128    1359    5472
CTETRA      3882       1   16012     162   16032     172    6532    5845+
+          16073    6533    4209    6539
CTETRA      3883       1   13399    1023     361    1024    8129    8130+
+           8131    8132    8133    8134
CTETRA      3884       1   17585   17586   13415     593   17611   13776+
+          13779    5903    4242    4244
CTETRA      3885       1   17682   16030   16031     594   16139   16066+
+          16140    8135    7968    4249
CTETRA      3886       1   17682   17683   16030     982   17697   16138+
+          16139    8136    7853    7855
CTETRA      3887       1   16324   16332     173     164   16447    1833+
+           6550    7419    1834    1836
CTETRA      3888       1   18109     352   17825     536    4603    2669+
+          17842    8137    3773    3772
CTETRA      3889       1   13413   13415   13418      41   13780   13792+
+          13793    4599    2677    2676
CTETRA      3890       1   13385   13418   13386      43   13797   13796+
+          13798    2683    2678    2067
CTETRA      3891       1   17631   18101   14778     994   17659   15312+
+          15229    8138    8139    7957
CTETRA      3892       1   16032     172     810     957    6539    6541+
+           6540    7692    8122    8123
CTETRA      3893       1   15575   15576   15581     420   15776   15798+
+          15799    4677    7415    4678
CTETRA      3894       1   13387     226   13415     592    4274    2106+
+          13777    4612    8140    4241
CTETRA      3895       1   16868    1025     352     941    8141    8142+
+           7538    7547    8143    8144
CTETRA      3896       1   17710    1021      46    1020    8145    8146+
+           6023    8112    8147    8113
CTETRA      3897       1   17826   16369   16386      45   16621   16675+
+          16673    1385    3205    1380
CTETRA      3898       1   17710     226     592     758    2108    8140+
+           8148    5905    5907    8149
CTETRA      3899       1   13589      27     310     523    3685    2437+
+           3666    3669    3686    3670
CTETRA      3900       1   17710      41     642     970    5918    8150+
+           4614    7792    7794    8151
CTETRA      3901       1   17637   14763     541     900   15149    7884+
+           3820    7587    7207    8152
CTETRA      3902       1   17710   14797   14778     226   15307   15305+
+          15308    2108    2652    2653
CTETRA      3903       1   17593   17594   13566     992   17623   14282+
+          14283    8153    7929    7931
CTETRA      3904       1   13465   13466   13550     667   14043   14258+
+          14256    4821    4830    6157
CTETRA      3905       1   16360     410      55      57    3035    3034+
+           2467    1427    6680    1419
CTETRA      3906       1   17986   11677   11668      32   11735   11709+
+          11736    8154    4922    1336
CTETRA      3907       1   11660     919     813     920    7377    8155+
+           8156    7380    7379    8157
CTETRA      3908       1   11677      86      32     855    4923    1524+
+           4922    6892    6894    8158
CTETRA      3909       1   17958   17959   16964     351   17967   17011+
+          17010    2665    5425    2666
CTETRA      3910       1   11667   11677   11676      86   11708   11707+
+          11705    4937    4923    5392
CTETRA      3911       1   17604   17605   13662      31   17630   14625+
+          14623    8159    8160    8161
CTETRA      3912       1   16325     116      93     171    3707    1794+
+           6796    3708    3710    4982
CTETRA      3913       1   17715   17716   14785     546   17720   15254+
+          15253    5930    5929    3872
CTETRA      3914       1   14782   14784   14783     168   15243   15247+
+          15246    5434    1820    1819
CTETRA      3915       1   17636   15329   15334     482   15450   15449+
+          15452    7200    7176    7175
CTETRA      3916       1   13619   13627   13626     167   14481   14480+
+          14479    1837    8162    1838
CTETRA      3917       1   17715   14785   14784     546   15253   15251+
+          15250    5930    3872    3871
CTETRA      3918       1   17643   17644   15343     199   17645   15497+
+          15498    8163    5424    8164
CTETRA      3919       1   17937     326   13391     883    8028    7327+
+          13666    7063    8165    8166
CTETRA      3920       1   13625   13626   13649     659   14477   14562+
+          14561    5427    5103    5812
CTETRA      3921       1   13626   13650   13649     546   14566   14567+
+          14562    5101    5805    6325
CTETRA      3922       1   13479     178   13480     490    3525    3775+
+          13988    3527    3526    3778
CTETRA      3923       1   18089   15324   17383     568   15405   15404+
+          17386    5354    8167    8168
CTETRA      3924       1   13561     482      67     483    6344    3466+
+           6824    3614    3470    3469
CTETRA      3925       1   17199     206    1026    1027    8169    8170+
+           8171    8172    8173    8174
CTETRA      3926       1   13535     583     105     904    5423    8175+
+           4929    8176    8177    7271
CTETRA      3927       1   13402   13404     422     426   13723    4379+
+           3493    5275    8178    5276
CTETRA      3928       1   17644   15338   15343     199   15482   15495+
+          15497    5424    1960    8164
CTETRA      3929       1   14764   14765   14771      80   15190   15209+
+          15208    4046    2855    4053
CTETRA      3930       1   17600   17601   13514     887   17616   14095+
+          14094    7109    8179    7110
CTETRA      3931       1   14760      79     435      66    4054    6762+
+           3193    3195    1496    3196
CTETRA      3932       1   17987   18025      31      33   11711    8180+
+           1321    1324    8181    1325
CTETRA      3933       1   17636   14768   14763     482   15193   15192+
+          15182    7200    3467    7204
CTETRA      3934       1   13561   13583   13582     483   14352   14353+
+          14351    3614    3619    3615
CTETRA      3935       1   17635     483   14768     513    7932    3468+
+          15196    8182    3611    3610
CTETRA      3936       1   11661     205   11662    1028    1979    8183+
+          11686    8184    8185    8186
CTETRA      3937       1   17332     108     331     136    4925    6179+
+           2563    4926    1688    2572
CTETRA      3938       1   17561   14668   14653     178   14812   14811+
+          14798    3768    6333    6332
CTETRA      3939       1   13482     491   13483     263    3518    3513+
+          14002    5014    3512    3515
CTETRA      3940       1   14654     557   14718     537    8187    8188+
+          15029    3780    4075    5647
CTETRA      3941       1   13584      78     435      66    1490    3655+
+           8189    1461    1491    3196
CTETRA      3942       1   14727   14740   14739     520   15078   15080+
+          15075    3653    6774    7750
CTETRA      3943       1   13473   13481   13478     573   13978   13983+
+          13971    6426    4076    5643
CTETRA      3944       1   17896   16780   16781     802   16835   16811+
+          16836    8190    6463    8191
CTETRA      3945       1   13553     570   13554     617    6120    6140+
+          14267    4401    6126    7129
CTETRA      3946       1   14654   14668   14667     490   14813   14814+
+          14806    3782    5020    3507
CTETRA      3947       1   16040      59   16041     468    2020    6207+
+          16108    8192    6210    3355
CTETRA      3948       1   17562   13182   17563     722   13302   13301+
+          17577    5452    5454    8193
CTETRA      3949       1   15545   15556   15555      50   15688   15692+
+          15691    2261    2265    5031
CTETRA      3950       1   16370   16371   16380      50   16626   16682+
+          16669    1400    6645    8194
CTETRA      3951       1   17800   16008   16007     862   16203   16057+
+          16206    8195    8196    6945
CTETRA      3952       1   15533   15547   15544     633   15647   15642+
+          15645    7859    5340    5784
CTETRA      3953       1   13486   13487   13498     322   14019   14057+
+          14056    2538    2838    2518
CTETRA      3954       1   12607     412     146     564    5673    7097+
+           1755    3988    5674    7688
CTETRA      3955       1   13499     261     333     322    3859    7694+
+           6081    6369    6368    2585
CTETRA      3956       1   14671     259     261     333    6100    2208+
+           6077    2841    5013    7694
CTETRA      3957       1   15599   15600   15613      23   15880   15913+
+          15920    1280    1289    1281
CTETRA      3958       1   17992   18115   11565     404   17993   11617+
+          11616    2992    8197    6057
CTETRA      3959       1   17876   15315   17877     699   15362   15361+
+          17881    5215    5217    8198
CTETRA      3960       1   13432   13450   13451      97   13884   13889+
+          13890    1567    2974    2973
CTETRA      3961       1   16864     361     682    1029    7649    8199+
+           5057    8200    8201    8202
CTETRA      3962       1   18007     975   11566     615    8203    7824+
+          11657    4387    7827    4388
CTETRA      3963       1   16371     268   16388     272    6943    8204+
+          16686    6161    2269    6162
CTETRA      3964       1   11565     976     401    1030    8205    8206+
+           6056    8207    8208    8209
CTETRA      3965       1   15546   15557   15556     268   15685   15687+
+          15686    8115    5959    2264
CTETRA      3966       1   13584     435   13596      66    8189    6770+
+          14378    1461    3196    3628
CTETRA      3967       1   13584   13596   13595      66   14378   14380+
+          14379    1461    3628    1495
CTETRA      3968       1   17712   17713     225     192   17723    7310+
+           5992    5994    1905    2552
CTETRA      3969       1   14727   14761   14760     435   15163   15164+
+          15158    3651    3194    3193
CTETRA      3970       1   14759   14760   14770      79   15159   15204+
+          15205    5160    4054    4056
CTETRA      3971       1   15540      49     171     125    4734    1829+
+           4735    4975    8002    4976
CTETRA      3972       1   14760   14761   14764      66   15164   15185+
+          15186    3195    3197    1454
CTETRA      3973       1   16382     632     630     436    4559    5205+
+           7237    6646    5318    7232
CTETRA      3974       1   16971   16972   16974     614   17060   17063+
+          17062    4383    5279    6488
CTETRA      3975       1   13385   13416   13418      43   13783   13799+
+          13797    2683    1364    2678
CTETRA      3976       1   16340     158     162     159    5852    1781+
+           6503    7156    1784    1783
CTETRA      3977       1   14761   14767   14764      66   15187   15189+
+          15185    3197    1455    1454
CTETRA      3978       1   15581     314     159     166    4680    2460+
+           1772    1812    5864    5364
CTETRA      3979       1   17680     582   16033     746    8210    4188+
+          16144    8211    5843    5794
CTETRA      3980       1   13556   13576       4       3   14325    4152+
+           1207    1210    8212    1211
CTETRA      3981       1   13577       2     527       3    4444    4446+
+           4443    6412    1206    6413
CTETRA      3982       1   13557       1     620       2    1201    5555+
+           8007    1203    1202    4437
CTETRA      3983       1   14644   14749   14744     370   15123   15125+
+          15099    6416    4449    2759
CTETRA      3984       1   13513   13514   13521     107   14101   14125+
+          14124    1921    1994    1949
CTETRA      3985       1   17263   11675   11676     480   11730   11703+
+          11731    8213    3473    3474
CTETRA      3986       1   13424   13458   13425     250   13924   13926+
+          13925    2180    2200    2171
CTETRA      3987       1   15616   15635   15632     211   15999   15998+
+          15983    8214    3896    6521
CTETRA      3988       1   13169   13170     859     860   13234    7517+
+           7516    6918    6917    8215
CTETRA      3989       1   13426   13427   13523     135   13938   14129+
+          14130    2356    5287    2357
CTETRA      3990       1   13429   13459   13458      94   13931   13932+
+          13930    1579    7514    2197
CTETRA      3991       1   16315   16316   16363     158   16501   16601+
+          16602    3863    5851    6926
CTETRA      3992       1   13425     251   13426     134    2173    5266+
+          13941    7513    3961    2355
CTETRA      3993       1   13512   13520   13519     185   14118   14117+
+          14116    1877    1923    4844
CTETRA      3994       1   17445   17446     346     106   17463    4207+
+           2647    5752    1608    5754
CTETRA      3995       1   14721     440      25     316    3227    3229+
+           2482    5726    4428    2475
CTETRA      3996       1   13654     119     141     161    1798    1797+
+           1796    1803    1779    1804
CTETRA      3997       1   14712   14715     373     376   15013    2772+
+           2793    2798    5171    2780
CTETRA      3998       1   13479   13480   13483     490   13988   13998+
+          14001    3527    3778    3514
CTETRA      3999       1   16963     350   16964     351    5623    2663+
+          17017    5426    2667    2666
CTETRA      4000       1   14653   14654   14701     537   14815   14947+
+          14946    7437    3780    5646
CTETRA      4001       1   18102   17769    1031     783   17771    8216+
+           8217    6222    6224    8218
CTETRA      4002       1   15536   15580   15579     166   15787   15793+
+          15792    2235    1811    1810
CTETRA      4003       1   17661     600   13188     602    5960    4292+
+          13336    4299    8219    4300
CTETRA      4004       1   14653   14654     537     178   14815    3780+
+           7437    6332    3781    3776
CTETRA      4005       1   13422   13434   13423     254   13816   13815+
+          13817    4516    2388    2409
CTETRA      4006       1   13423   13544   13545     305   14208   14225+
+          14228    2408    4515    2950
CTETRA      4007       1   17832   17833   16336     286   17840   16460+
+          16463    7460    6328    7365
CTETRA      4008       1   17660   15584     287     290   15809    2325+
+           6478    8220    2337    2335
CTETRA      4009       1   17334     300   17335     254    2801    2818+
+          17343    2830    2822    4492
CTETRA      4010       1   17335     301     250     300    5381    2384+
+           4491    2818    2383    2382
CTETRA      4011       1   13424   13529   13544     252   14155   14205+
+          14207    2181    2601    2646
CTETRA      4012       1   12781     344     439     443    5106    5108+
+           5081    5083    5095    5084
CTETRA      4013       1   17740   15599     501     502   15874    3565+
+           8221    8222    3566    3568
CTETRA      4014       1   13564     579   13586     520    4751    4746+
+          14340    6971    6833    6766
CTETRA      4015       1   17497     443   12777     739    5092    3250+
+          13045    8223    8224    8225
CTETRA      4016       1   15326     344     443    1032    2635    5095+
+           8023    8226    8227    8228
CTETRA      4017       1   15602   15604   15605      59   15855   15859+
+          15858    1535    1534    3015
CTETRA      4018       1   14660   14661     355     430   14856    2685+
+           7777    7776    6309    4849
CTETRA      4019       1   13179     856     674     857    6899    8229+
+           6638    6902    6901    8230
CTETRA      4020       1   11982   12019   12011      99   12323   12325+
+          12324    3730    6400    7504
CTETRA      4021       1   17337   11968   11970     395   12158   12167+
+          12165    5730    5571    2933
CTETRA      4022       1   17451   17452   12730     395   17458   12840+
+          12839    5728    5729    3424
CTETRA      4023       1   18001   16781   16772     326   16839   16813+
+          16840    2530    8231    2531
CTETRA      4024       1   16311   16360   16312      57   16572   16574+
+          16573    1425    1427    1422
CTETRA      4025       1   12021   12023   12024     458   12356   12360+
+          12359    3718    7023    3719
CTETRA      4026       1   17336   11960   11968     301   12128   12157+
+          12156    3420    5382    5898
CTETRA      4027       1   14726   14732   14740     515   15069   15071+
+          15070    3638    6440    6610
CTETRA      4028       1   15586      58   15605      57    3739    7780+
+          15862    6679    1426    3017
CTETRA      4029       1   16392   16393   16394     144   16705   16703+
+          16704    2111    2110    6285
CTETRA      4030       1   15585   15602   15605      59   15863   15858+
+          15860    8232    1535    3015
CTETRA      4031       1   17336   11968   17337     395   12156   12158+
+          17345    3421    5571    5730
CTETRA      4032       1   15600   15611   15613      10   15898   15912+
+          15913    1258    1244    1290
CTETRA      4033       1   13426   13523   13531     134   14130   14149+
+          14151    2355    2354    2372
CTETRA      4034       1   15609      56     150     628    1738    1742+
+           1741    4527    4531    4528
CTETRA      4035       1   17670   17671   16042     878   17703   16162+
+          16163    8233    7043    7042
CTETRA      4036       1   11970   11971   11978     391   12168   12196+
+          12197    2931    2945    3397
CTETRA      4037       1   11972   11977     341     242   12194    2944+
+           6818    6960    2140    6308
CTETRA      4038       1   13584   13585   13596     435   14345   14376+
+          14378    8189    6769    6770
CTETRA      4039       1   17416   12432   12433     870   12547   12486+
+          12548    8234    6984    7783
CTETRA      4040       1   15591      13     220     648    6348    5292+
+           2048    4660    8235    4661
CTETRA      4041       1   13585     520     515     435    4042    6767+
+           6765    6769    3652    3633
CTETRA      4042       1   13583     483      67      65    3619    3469+
+           1457    1500    3485    1499
CTETRA      4043       1   17417    1033   12434    1034    8236    8237+
+          12550    8238    8239    8240
CTETRA      4044       1   17419   12435   12436     828   12553   12500+
+          12554    8241    7620    6690
CTETRA      4045       1   11937     494     417     378    5418    7199+
+           4898    5413    5419    3415
CTETRA      4046       1   12417   12418   12437     127   12507   12506+
+          12505    3554    2463    3560
CTETRA      4047       1   17670     516   16043    1035    3635    3637+
+          16164    8242    8243    8244
CTETRA      4048       1   12721   12729     340     342   12846    4791+
+           3064    3077    4792    2619
CTETRA      4049       1   17420   12436   12437     503   12555   12504+
+          12556    5579    7673    3569
CTETRA      4050       1   12404     100     241     608    3058    3369+
+           5987    4344    4346    8245
CTETRA      4051       1   12606     102     646     934    2087    5686+
+           6650    7495    8246    8247
CTETRA      4052       1   17293   12405     605     472   12597    4319+
+           8248    3393    3395    4321
CTETRA      4053       1   16343   16352   16344     266   16526   16518+
+          16527    2229    6809    7727
CTETRA      4054       1   15617   15621   15618      82   15938   15940+
+          15939    3640    1539    1538
CTETRA      4055       1   11568   11578     229     981   11597    8249+
+           2078    7849    8250    7850
CTETRA      4056       1   16390   16392   16391      23   16694   16693+
+          16695    6301    7323    4113
CTETRA      4057       1   17470   12613   12615     103   12666   12665+
+          12667    7195    1926    1925
CTETRA      4058       1   16781     616     326    1036    8251    4400+
+           8231    8252    8253    8254
CTETRA      4059       1   12708   12757     102     101   12979    8255+
+           6613    5688    7643    1593
CTETRA      4060       1   17232    1037    1038     997    8256    8257+
+           8258    7973    8259    8260
CTETRA      4061       1   11578   11579    1038    1037   11600    8261+
+           8262    8263    8264    8257
CTETRA      4062       1   17959   17960   16963    1039   17968   17016+
+          17015    8265    8266    8267
CTETRA      4063       1   16354   16357     153     203   16554    1754+
+           1753    1992    4519    4157
CTETRA      4064       1   11984   12022   12018     530   12349   12350+
+          12327    3740    7583    7629
CTETRA      4065       1   11578    1040     474    1041    8268    8269+
+           8270    8271    8272    8273
CTETRA      4066       1   17687   16025   16026     273   16129   16046+
+          16130    8274    8275    2272
CTETRA      4067       1   16312   16395   16396      59   16718   16714+
+          16719    2041    2037    2427
CTETRA      4068       1   16312   16361   16313      56   16583   16582+
+          16584    1421    1417    7492
CTETRA      4069       1   16393     216      56     144    5325    5327+
+           5326    2110    6288    1739
CTETRA      4070       1   16348   16361   16360      55   16580   16586+
+          16585    3024    1415    2467
CTETRA      4071       1   17192   13439   17193     976   13842   13843+
+          17202    8276    8277    8278
CTETRA      4072       1   17216   11508   11505     401   11534   11533+
+          11515    6865    8279    8280
CTETRA      4073       1   16398   16402   16399      10   16731   16733+
+          16732    1288    1293    8281
CTETRA      4074       1   11759     401   11774     298    6866    7949+
+          11867    2364    8282    2365
CTETRA      4075       1   17217   11783     294     293   11910    8283+
+           8284    2680    2682    2346
CTETRA      4076       1   13444     445     401    1042    3256    8285+
+           3258    8286    8287    8288
CTETRA      4077       1   14695   14697   14696     169   14930   14931+
+          14927    2888    2889    2360
CTETRA      4078       1   17674     898   16039     899    8289    7190+
+          16156    8290    7193    7192
CTETRA      4079       1   17928   15322   15319    1015   15392   15384+
+          15391    8084    8086    8291
CTETRA      4080       1   16876     122     124     814    1650    1654+
+           1653    6572    6571    8292
CTETRA      4081       1   16963     326     731    1039    5621    5625+
+           5624    8267    8293    8294
CTETRA      4082       1   15533     749     633     750    6242    5966+
+           7859    6255    5841    5860
CTETRA      4083       1   18002   18052   18117     874   16843   18056+
+          18003    7008    8295    8296
CTETRA      4084       1   13401     350     326     132    5638    5622+
+           5551    1678    5640    5550
CTETRA      4085       1   18002   16764     165    1043   16815    7799+
+           7006    8297    8298    8299
CTETRA      4086       1   17688   16025     815    1044   16128    6587+
+           8300    8301    8302    8303
CTETRA      4087       1   18046     387   16766     388    8304    2893+
+          16854    2905    2897    2896
CTETRA      4088       1   16397   16399   16406       9   16753   16755+
+          16754    7745    4624    4623
CTETRA      4089       1   15533     749   15547     633    6242    7537+
+          15647    7859    5966    5340
CTETRA      4090       1   13381   13397   13396     161   13694   13693+
+          13691    6567    1813    8305
CTETRA      4091       1   16767   16768   16776      76   16796   16795+
+          16794    8306    1484    1548
CTETRA      4092       1   16398   16399       9      10   16732    4624+
+           1285    1288    8281    1245
CTETRA      4093       1   17672   16040   16041     468   16159   16108+
+          16160    3354    8192    3355
CTETRA      4094       1   16042      14   16043     516    3878    6214+
+          16116    3636    8307    3637
CTETRA      4095       1   18046   16767   16766     550   16855   16792+
+          16854    8308    8309    3897
CTETRA      4096       1   16767     969      53     999    7983    8310+
+           1411    7984    7986    8311
CTETRA      4097       1   16776   16777      21      90   16797    1549+
+           8312    8313    1551    1550
CTETRA      4098       1   17784   16023   17785    1045   16174   16173+
+          17806    8314    8315    8316
CTETRA      4099       1   15538   15563   15539     156   15729   15728+
+          15730    1764    5875    3908
CTETRA      4100       1   17786   16022     896     779   16175    7183+
+           8317    6213    6212    7185
CTETRA      4101       1   15610      56     748     955    4529    8318+
+           5819    7653    8319    7654
CTETRA      4102       1   17977     639     637     773    7014    4598+
+           8320    6172    7015    8321
CTETRA      4103       1   17769     211    1031     783    2309    8322+
+           8216    6224    6517    8218
CTETRA      4104       1   16346     153     410      82    6232    3646+
+           6676    6547    6675    6761
CTETRA      4105       1   17673     214   16040    1046    8323    2021+
+          16158    8324    8325    8326
CTETRA      4106       1   17672   17673   16040    1046   17702   16158+
+          16159    8327    8324    8326
CTETRA      4107       1   16379   16380   16387     632   16657   16681+
+          16680    4557    5316    5343
CTETRA      4108       1   17674   16038   16039      85   16155   16100+
+          16156    2431    1518    7648
CTETRA      4109       1   16212     211     512     776    7157    4176+
+           7078    6193    7158    7077
CTETRA      4110       1   17673   17674   16039     899   17709   16156+
+          16157    8328    8290    7192
CTETRA      4111       1   16040     214      59    1046    2021    2023+
+           2020    8326    8325    8329
CTETRA      4112       1   15532   15544   15543     262   15640   15639+
+          15638    2211    8116    2212
CTETRA      4113       1   17729   15620   17730     510   15942   15941+
+          17754    5799    3598    8330
CTETRA      4114       1   16343   16351   16350     512   16525   16529+
+          16528    4865    7056    5835
CTETRA      4115       1   16342   16351   16343     512   16522   16525+
+          16524    4175    7056    4865
CTETRA      4116       1   18102   15632   17729     782   15982   15984+
+          17759    6220    6522    8331
CTETRA      4117       1   16019   16039   16038      58   16101   16100+
+          16098    2414    3624    1517
CTETRA      4118       1   17845   16211    1047     621   16237    8332+
+           8333    8334    4454    8335
CTETRA      4119       1   16030     778     173     982    6199    6201+
+           4312    7855    7854    8336
CTETRA      4120       1   17673   16039   16040     214   16157   16104+
+          16158    8323    7631    2021
CTETRA      4121       1   16036      83   16037     429    3134    1521+
+          16092    3136    7864    3137
CTETRA      4122       1   15609      56     216     144    1738    5327+
+           6299    1740    1739    6288
CTETRA      4123       1   17895   16779   16780     799   16833   16807+
+          16834    8055    8337    6453
CTETRA      4124       1   16772     328     326    1048    2535    2537+
+           2531    8338    8339    8340
CTETRA      4125       1   15569   15577   15576     421   15779   15781+
+          15768    3091    3084    4246
CTETRA      4126       1   15552   15560   15559      48   15711   15712+
+          15708    1393    3214    6647
CTETRA      4127       1   17796   16012   16011     876   16195   16071+
+          16198    7036    7038    8341
CTETRA      4128       1   17769   13191     211     618   13350    2310+
+           2309    5198    4419    7933
CTETRA      4129       1   16014   16034   16033     156   16081   16080+
+          16078    5873    5874    4187
CTETRA      4130       1   16371   16372   16388     268   16608   16687+
+          16686    6943    6944    8204
CTETRA      4131       1   16324   16332   16331     173   16447   16446+
+          16445    6550    1833    6551
CTETRA      4132       1   16309   16329   16330     170   16437   16439+
+          16430    6938    4971    8342
CTETRA      4133       1   17828     283   17829     125    5948    3100+
+          17835    5982    6821    1660
CTETRA      4134       1   17829     422    1049     708    3099    8343+
+           8344    5268    5267    8345
CTETRA      4135       1   17714     163   17715     546    5813    6575+
+          17719    5814    5806    5930
CTETRA      4136       1   15606   15607   15608     144   15879   15884+
+          15885    2754    2753    5296
CTETRA      4137       1   15603   15609   15610      56   15887   15891+
+          15890    2028    1738    4529
CTETRA      4138       1   16319   16333   16320     421   16477   16479+
+          16480    4211    3082    3081
CTETRA      4139       1   16320   16333   16337     420   16479   16475+
+          16471    3080    3079    4672
CTETRA      4140       1   15608     144     965     841    5296    8346+
+           7743    6772    8347    8348
CTETRA      4141       1   13404   13409   13408     422   13749   13750+
+          13738    4379    4381    3494
CTETRA      4142       1   16368   16397   16406       9   16723   16754+
+          16756    4648    7745    4623
CTETRA      4143       1   15618   15625   15619     497   15945   15948+
+          15947    5346    7285    3605
CTETRA      4144       1   15315     630     262     693    7234    5207+
+           5188    5190    7236    5191
CTETRA      4145       1   15604   15606   15609     216   15873   15888+
+          15886    4499    6300    6299
CTETRA      4146       1   17795   16012   17796     809   16196   16195+
+          17817    7238    6534    7035
CTETRA      4147       1   17852   16219   16217     143   16267   16269+
+          16265    1744    8349    1714
CTETRA      4148       1   15587   15588   15622     410   15852   15931+
+          15930    3033    3032    3647
CTETRA      4149       1   14745   14746     317     369   15104    2736+
+           6235    8350    2763    2764
CTETRA      4150       1   15620     302   15624     511    3600    8351+
+          15944    3601    3603    6513
CTETRA      4151       1   17731   15628   17732     207   15962   15965+
+          17757    1985    1984    3621
CTETRA      4152       1   16315   16340   16316     158   16498   16497+
+          16501    3863    5852    5851
CTETRA      4153       1   17850   16210   16218      55   16251   16263+
+          16261    3006    8352    3007
CTETRA      4154       1   16037      82   16038     307    1522    1515+
+          16096    2419    3142    2420
CTETRA      4155       1   17849   16210   17850     973   16250   16251+
+          17864    7810    7812    8353
CTETRA      4156       1   16344   16352   16345      83   16518   16517+
+          16519    7726    6808    7214
CTETRA      4157       1   17848   16215   16216     745   16247   16259+
+          16257    8354    7823    5776
CTETRA      4158       1   15621   15627   15625     203   15959   15960+
+          15946    6062    1974    6066
CTETRA      4159       1   17737   15609   15608     150   15896   15889+
+          15895    4525    1741    8355
CTETRA      4160       1   17937   17127   17938     133   17146   17147+
+          17948    8356    8357    1679
CTETRA      4161       1   16347   16348   16360     410   16540   16585+
+          16576    3155    3036    3035
CTETRA      4162       1   17738   15608     965     841   15883    7743+
+           7742    6773    6772    8348
CTETRA      4163       1   15600   15607   15606      23   15878   15879+
+          15871    1289    2756    2755
CTETRA      4164       1   18105   16212   17844     776   16231   16228+
+          17859    6191    6193    8358
CTETRA      4165       1   15623     410     153      82    5768    3646+
+           3617    1532    6761    6675
CTETRA      4166       1   17740   15607   15599     502   15876   15875+
+          15874    8222    3575    3566
CTETRA      4167       1   17875   15318     750     894   15372    7169+
+           5865    8359    7170    7172
CTETRA      4168       1   16390   16391   16402      23   16695   16735+
+          16734    6301    4113    4103
CTETRA      4169       1   16768   16769      77     848   16802    8360+
+           1486    8361    6827    8362
CTETRA      4170       1   16354     153      88     203    1753    6061+
+           1989    1992    4157    1993
CTETRA      4171       1   16022   16023   16042      14   16115   16114+
+          16113    5328    5320    3878
CTETRA      4172       1   15317     750     262     751    5847    5859+
+           4571    5868    5867    7309
CTETRA      4173       1   18085     253   15337    1050    2179    2178+
+          15466    8363    8364    8365
CTETRA      4174       1   18048   16768      54    1051   16850    1414+
+           1413    8366    8367    8368
CTETRA      4175       1   17762   15316   15315     630   15353   15360+
+          15358    7233    4547    7234
CTETRA      4176       1   16223     574      24    1052    4086    8369+
+           2196    8370    8371    8372
CTETRA      4177       1   11928   11929     444     558   12042    5369+
+           8373    7874    7067    3970
CTETRA      4178       1   17856   16223   17857     769   16291   16292+
+          17872    6158    6160    8374
CTETRA      4179       1   17857   16223   16224     506   16292   16298+
+          16296    8375    4085    3583
CTETRA      4180       1   17380   17381   15327    1053   17388   15415+
+          15416    8376    8377    8378
CTETRA      4181       1   17772   18106   16225     217   17774   16303+
+          16304    2051    2053    2042
CTETRA      4182       1   15327     442     558    1053    5699    5363+
+           3972    8378    8379    8380
CTETRA      4183       1   17496     442   15325    1054    5693    5698+
+          15414    8381    8382    8383
CTETRA      4184       1   17961   16979   16968     616   17094   17095+
+          17039    8384    8385    4399
CTETRA      4185       1   12778     439     438     443    5082    3225+
+           4340    4341    5084    3240
CTETRA      4186       1   17742   15591   17743     648   15914   15836+
+          17752    8386    4660    4659
CTETRA      4187       1   17495   12774   12761     558   13036   13039+
+          13038    3979    3969    3949
CTETRA      4188       1   18104   15318   17772     217   15370   15371+
+          17773    4540    2052    2051
CTETRA      4189       1   15590   15597   15591      13   15843   15842+
+          15844    1253    4594    6348
CTETRA      4190       1   17858   16224   16225     220   16297   16302+
+          16301    4651    5293    4666
CTETRA      4191       1   17760   15592   15532     750   15815   15817+
+          15819    5848    6256    7861
CTETRA      4192       1   16043      14       9     516    6214    1286+
+           7746    3637    8307    8387
CTETRA      4193       1   18106   15318   17875     894   15373   15372+
+          17883    8388    7170    8359
CTETRA      4194       1   17936   13391   13657     882   13665   14598+
+          14599    7319    8389    7320
CTETRA      4195       1   13585     520     435      78    4042    3652+
+           6769    4043    3656    3655
CTETRA      4196       1   14764      80      79      66    4046    1493+
+           4055    1454    1497    1496
CTETRA      4197       1   17939   17940   13402    1005   17947   13712+
+          13714    8020    8390    8021
CTETRA      4198       1   14762     381     482      67    4033    6993+
+           6985    3483    6995    3466
CTETRA      4199       1   14758   14774   14790     447   15218   15267+
+          15266    3281    5516    5518
CTETRA      4200       1   13595      80      65      66    1494    2856+
+           4057    1495    1497    1456
CTETRA      4201       1   13562     381      78      67    3825    4034+
+           4037    6994    6995    1489
CTETRA      4202       1   17961     801   16979    1055    6457    6459+
+          17094    8391    8392    8393
CTETRA      4203       1   15576   15581     420     159   15798    4678+
+           7415    4245    1772    3092
CTETRA      4204       1   17831   16334   16326     117   16443   16451+
+          16415    5975    3851    1656
CTETRA      4205       1   13583   13595      65      66   14383    4057+
+           1500    1459    1495    1456
CTETRA      4206       1   15558      50     170      49    1396    5018+
+           4736    1391    1397    1826
CTETRA      4207       1   13647   13649   13656     546   14563   14582+
+          14580    5821    6325    5822
CTETRA      4208       1   16326   16334   16333     420   16451   16453+
+          16452    3846    3850    3079
CTETRA      4209       1   16315   16364     156     157   16605    7796+
+           3862    3861    2232    1765
CTETRA      4210       1   13561     482   13562      67    6344    6346+
+          14315    6824    3466    6994
CTETRA      4211       1   14648   14649   14742     617   14967   15089+
+          15091    6137    6125    4866
CTETRA      4212       1   13555       4     580       8    6599    4165+
+           6600    7502    1238    7503
CTETRA      4213       1   14740     515     579     520    6610    6832+
+           4744    6774    6767    6833
CTETRA      4214       1   13613     316     619     113    2489    4421+
+           4424    2490    2492    4423
CTETRA      4215       1   16020   16040   16039      58   16105   16104+
+          16102    2032    2019    3624
CTETRA      4216       1   17828      44     423     283    3309    3308+
+           3306    5948    5950    3106
CTETRA      4217       1   14731       4   14741     579    4177    4164+
+          15084    4178    4154    4167
CTETRA      4218       1   14739   14741   14742     551   15095   15092+
+          15094    7749    7506    4860
CTETRA      4219       1   12722     301     342     300    2628    2630+
+           2627    5884    2383    2819
CTETRA      4220       1   17679   17680   16033     746   17696   16144+
+          16145    5793    8211    5794
CTETRA      4221       1   17794   16014   16013     972   16191   16079+
+          16194    8394    8395    7804
CTETRA      4222       1   13422     305     130     254    2949    2833+
+           2947    4516    2410    2831
CTETRA      4223       1   17448     108     137     131    1689    5926+
+           1695    1690    1692    1697
CTETRA      4224       1   17792   16016     521     522   16187    3659+
+           8396    8397    3660    3662
CTETRA      4225       1   13511   13519   13518     186   14115   14114+
+          14113    3158    4845    7163
CTETRA      4226       1   13518   13519   13542     186   14114   14199+
+          14198    7163    4845    4414
CTETRA      4227       1   17448   17449     130     131   17455    2832+
+           4493    1690    1698    1676
CTETRA      4228       1   13519     185   13542     186    4844    4412+
+          14199    4845    1880    4414
CTETRA      4229       1   18099   17718   15584     292   17727   15812+
+          15811    6374    2342    8398
CTETRA      4230       1   13511   13512   13519     186   14092   14116+
+          14115    3158    1878    4845
CTETRA      4231       1   13519   13543   13542     185   14203   14204+
+          14199    4844    7123    4412
CTETRA      4232       1   13478   13481   13480     537   13983   13985+
+          13984    5644    4074    3777
CTETRA      4233       1   14655   14719   14718     557   15037   15038+
+          15030    3940    4061    8188
CTETRA      4234       1   16321   16322   16339     314   16465   16491+
+          16489    2458    4681    8399
CTETRA      4235       1   13485       6       7     553    4080    1231+
+           4457    4458    4059    4459
CTETRA      4236       1   17857   16224   17858     506   16296   16297+
+          17873    8375    3583    5294
CTETRA      4237       1   15624   15625   15628     302   15951   15963+
+          15961    8351    6065    6064
CTETRA      4238       1   14655   14667   14664     181   14805   14808+
+          14802    3938    4689    2240
CTETRA      4239       1   17563   13182     324     722   13301    7375+
+           3933    8193    5454    8400
CTETRA      4240       1   18007   11567   11566     975   11658   11591+
+          11657    8203    8401    7824
CTETRA      4241       1   15621   15622   15627     153   15937   15957+
+          15959    3616    3618    6147
CTETRA      4242       1   17832     286   16335     288    7460    6469+
+          16454    7508    2330    6471
CTETRA      4243       1   11565     401     552    1030    6056    8402+
+           3915    8207    8209    8403
CTETRA      4244       1   18006   11565     552    1030   11618    3915+
+           3914    8404    8207    8403
CTETRA      4245       1   17775   13187     287     289   13331    2331+
+           6482    8405    2333    2332
CTETRA      4246       1   18007   18008   11567    1056   18023   11655+
+          11658    8406    8407    8408
CTETRA      4247       1   17191   13453    1056    1057   13903    8409+
+           8410    8411    8412    8413
CTETRA      4248       1   18008   11567    1056    1058   11655    8408+
+           8407    8414    8415    8416
CTETRA      4249       1   17976   16005   16025     639   16125   16045+
+          16126    8417    6177    6584
CTETRA      4250       1   11566     975   11567     998    7824    8401+
+          11591    7979    8418    7980
CTETRA      4251       1   15599   15607   15600      23   15875   15878+
+          15880    1280    2756    1289
CTETRA      4252       1   11566    1059     975     998    8419    8420+
+           7824    7979    8421    8418
CTETRA      4253       1   16307   16327      49      47   16409    4741+
+           1408    1387    5981    8422
CTETRA      4254       1   16780     798     800     912    6451    6455+
+           6454    7332    8423    7333
CTETRA      4255       1   17516   13185     176     179   13328    1852+
+           1859    8424    1853    1855
CTETRA      4256       1   13389   13417   13416      34   13788   13789+
+          13787    5940    1338    5941
CTETRA      4257       1   14725   14732   14726     578   15072   15069+
+          15073    5140    5048    6439
CTETRA      4258       1   15544     632     262     633    5312    4567+
+           8116    5784    4570    4569
CTETRA      4259       1   13186     176     175     180    1846    1845+
+           1844    1862    1861    1941
CTETRA      4260       1   16371   16387   16380     271   16683   16681+
+          16682    7273    5344    5315
CTETRA      4261       1   16006     268     274    1060    2275    2278+
+           2277    8425    8426    8427
CTETRA      4262       1   17976     637     639     843    6787    4598+
+           8417    6788    6790    8428
CTETRA      4263       1   16005   16006     272     274   16049    2276+
+           8106    8429    2277    2279
CTETRA      4264       1   16863   16872   16871     423   16893   16892+
+          16890    6494    6499    6476
CTETRA      4265       1   13597   13598   13608     424   14390   14409+
+          14408    3631    4135    3110
CTETRA      4266       1   15589     637   15590       9    8430    4592+
+          15841    1242    4631    1251
CTETRA      4267       1   17291   17292   12403     827   17324   12602+
+          12601    8431    8432    6686
CTETRA      4268       1   14726   14727   14760     435   15079   15158+
+          15157    3639    3651    3193
CTETRA      4269       1   13576   13577     581       3   14326    6411+
+           4747    8212    6412    6414
CTETRA      4270       1   17878   15314   18109     907   15350   15351+
+          17879    7281    7283    8433
CTETRA      4271       1   14646   14647   14731       4   15004   15083+
+          15126    7154    1239    4177
CTETRA      4272       1   14731     581   14750       3    4179    6511+
+          15128    7155    6414    1216
CTETRA      4273       1   17878     631   15316    1061    8434    4550+
+          15355    8435    8436    8437
CTETRA      4274       1   15558     436      50      48    6637    5034+
+           1396    1394    3207    1398
CTETRA      4275       1   17825     641      40     974    4605    4607+
+           1354    7822    7821    8438
CTETRA      4276       1   16369   16385      45     436   16668    3215+
+           3205    3204    3216    3202
CTETRA      4277       1   13576     581       4       3    4747    4180+
+           4152    8212    6414    1211
CTETRA      4278       1   17790   16017   17791      84   16186   16185+
+          17812    2810    1512    6249
CTETRA      4279       1   16024     637   16044       9    4639    6792+
+          16121    4640    4631    6791
CTETRA      4280       1   14733   14738   14736     532   15061   15060+
+          15059    4392    3797    3796
CTETRA      4281       1   15601   15606   15604     216   15870   15873+
+          15856    4498    6300    4499
CTETRA      4282       1   14733   14736   14734     539   15059   15044+
+          15062    4389    3813    3812
CTETRA      4283       1   12743     104     459     530    3360    3738+
+           3737    7632    3741    7150
CTETRA      4284       1   13567   13568     539     532   14286    3788+
+           3787    3750    4861    4393
CTETRA      4285       1   17451     134     251     252    6581    3961+
+           2389    2391    2602    2176
CTETRA      4286       1   16035     266   16036     525    3679    4149+
+          16088    3681    3680    4162
CTETRA      4287       1   13179     674     135     857    6638    4970+
+           5250    6902    8230    8439
CTETRA      4288       1   16220     144      23     149    1734    2757+
+           6152    1737    1736    6151
CTETRA      4289       1   12785   12786   12794     241   13104   13117+
+          13116    4882    6393    8039
CTETRA      4290       1   17517   13183   13185     178   13319   13318+
+          13320    3760    3519    1850
CTETRA      4291       1   15533   15534   15547     749   15652   15651+
+          15647    6242    6244    7537
CTETRA      4292       1   17518   13182   13183     491   13309   13308+
+          13310    3516    5451    5456
CTETRA      4293       1   13480   13481   13484     557   13985   13993+
+          13997    4073    4072    3943
CTETRA      4294       1   16367   16376   16375     639   16634   16635+
+          16631    6582    6175    8440
CTETRA      4295       1   16367   16368     637     639   16632    4647+
+           4645    6582    8441    4598
CTETRA      4296       1   15589   15590   15613      10   15841   15911+
+          15910    1243    1254    1290
CTETRA      4297       1   16044     844     637    1062    6793    6795+
+           6792    8442    8443    8444
CTETRA      4298       1   16399   16400   16406      13   16745   16758+
+          16755    4625    4637    4626
CTETRA      4299       1   16962   16963     326     350   17022    5621+
+           7017    7003    5623    5622
CTETRA      4300       1   16971     614     361     426    4383    6489+
+           3117    3119    8445    3120
CTETRA      4301       1   17508   17509   13173     115   17533   13256+
+          13251    2094    8446    1631
CTETRA      4302       1   17507   13160   13195     296   13252   13368+
+          13367    6336    6337    6339
CTETRA      4303       1   18106   17858   16225     218   17874   16301+
+          16303    8447    4667    2044
CTETRA      4304       1   16366   16367   16400     638   16639   16759+
+          16760    6050    4646    4635
CTETRA      4305       1   17996    1063    1064    1065    8448    8449+
+           8450    8451    8452    8453
CTETRA      4306       1   18001     326   18002     165    2530    2532+
+          18004    8454    7007    7006
CTETRA      4307       1   17833     788     296     988    6329    6331+
+           5739    7895    8455    8456
CTETRA      4308       1   16371     268     272     271    6943    2269+
+           6161    7273    2259    5338
CTETRA      4309       1   17506   13195    1002     819   13365    7998+
+           8457    6606    6608    8000
CTETRA      4310       1   14698     175     197     368    7435    1935+
+           3815    3818    2846    3819
CTETRA      4311       1   17932      73      72     835    1475    1477+
+           1474    6733    6735    8458
CTETRA      4312       1   17515     175   13184     543    1929    1930+
+          13321    7873    8065    3832
CTETRA      4313       1   17894   16779   17895    1009   16832   16833+
+          17904    8459    8045    8044
CTETRA      4314       1   12757     103     102     101    7196    1591+
+           8255    7643    1594    1593
CTETRA      4315       1   17471     231   12757     903    6305    8460+
+          12977    7253    8461    7254
CTETRA      4316       1   12606     646     102     823    6650    5686+
+           2087    6652    6651    8462
CTETRA      4317       1   16360      58     410      57    1424    3156+
+           3035    1427    1426    6680
CTETRA      4318       1   17932      74      75    1066    1479    1483+
+           1482    8463    8464    8465
CTETRA      4319       1   12709   12790   12789     646   13096   13099+
+          13094    8466    6657    4875
CTETRA      4320       1   16863   16873   16872     361   16895   16894+
+          16893    6493    5059    6506
CTETRA      4321       1   17472   12614   12606     231   12660   12659+
+          12656    6306    2089    2088
CTETRA      4322       1   16764     141    1043    1067    7797    8467+
+           8298    8468    8469    8470
CTETRA      4323       1   12606     934     646     935    7495    8247+
+           6650    7498    7497    8471
CTETRA      4324       1   17504   13192   13193     836   13353   13357+
+          13360    6736    8472    6737
CTETRA      4325       1   15551   15552   15558      49   15667   15707+
+          15702    1825    1392    1391
CTETRA      4326       1   17884   16983    1068     968   17117    8473+
+           8474    7766    8475    8476
CTETRA      4327       1   17356     402   12615     983    2984    2986+
+          12664    8477    8478    7868
CTETRA      4328       1   17357   17358   12606     824   17371   12646+
+          12647    8479    8480    6653
CTETRA      4329       1   13392   13404     361     614   13724    4066+
+           6492    5764    4377    6489
CTETRA      4330       1   17467   12617   17468     460   12681   12680+
+          17490    8481    3319    7646
CTETRA      4331       1   13404     361     614     426    4066    6489+
+           4377    8178    3120    8445
CTETRA      4332       1   16865   16875   16874    1069   16903   16902+
+          16900    8482    8483    8484
CTETRA      4333       1   12720   12728   12727     495   12843   12842+
+          12841    7259    6358    7736
CTETRA      4334       1   17418   12435    1070    1071   12552    8485+
+           8486    8487    8488    8489
CTETRA      4335       1   17389     462     959     885    4093    8490+
+           7704    7071    7073    8491
CTETRA      4336       1   17761   15315   15317     262   15359   15365+
+          15363    2210    5188    4571
CTETRA      4337       1   18090   17389   13166     575   17390   13218+
+          13220    7344    4095    4097
CTETRA      4338       1   12406   12427   12426      99   12463   12462+
+          12460    5153    5141    4697
CTETRA      4339       1   17711   15561   15560      45   15717   15716+
+          15710    1375    3200    3211
CTETRA      4340       1   11997   12008   12007     241   12299   12298+
+          12293    3370    6615    3388
CTETRA      4341       1   16872     361   16873     684    6506    5059+
+          16894    8492    5063    5062
CTETRA      4342       1   12000     469   12005     102    4869    6941+
+          12282    7576    5684    6940
CTETRA      4343       1   17912     804   16872     805    8493    6497+
+          16924    8494    6501    6500
CTETRA      4344       1   17292   12404   12403     608   12599   12453+
+          12602    8495    4344    8496
CTETRA      4345       1   12707   12708   12792     100   12969   13115+
+          13113    4305    5687    3964
CTETRA      4346       1   11999   12001   12000     100   12262   12255+
+          12263    1588    1584    4868
CTETRA      4347       1   13397     165   13407     350    1815    2554+
+          13745    3487    3486    7012
CTETRA      4348       1   12403   12424   12423     241   12451   12450+
+          12448    4343    2138    2137
CTETRA      4349       1   12716     341     391     242    6715    2946+
+           2914    2916    6308    2917
CTETRA      4350       1   11968     301     341     395    5898    2629+
+           2621    5571    3423    3426
CTETRA      4351       1   17282     243   13163     545    2166    7713+
+          13205    3848    7839    3849
CTETRA      4352       1   17395   12732   18095     658   12852   12855+
+          17399    6103    4758    8497
CTETRA      4353       1   17338     655     394     561    4725    4717+
+           5066    3959    4726    5464
CTETRA      4354       1   17996   16876     124     814   16934    1653+
+           8498    8499    6572    8292
CTETRA      4355       1   11937     494   11938     417    5418    8500+
+          12074    4898    7199    4899
CTETRA      4356       1   12415     498     495    1072    3545    3547+
+           3531    8501    8502    8503
CTETRA      4357       1   17304   12416   12415     498   12575   12499+
+          12578    8504    8505    3545
CTETRA      4358       1   12720   12725   12721     417   12831   12824+
+          12832    6278    5410    3063
CTETRA      4359       1   12434     495   12435    1034    5229    3533+
+          12496    8240    8506    8507
CTETRA      4360       1   16868     352   16869     941    7538    6872+
+          16880    7547    8144    7548
CTETRA      4361       1   17449   12724   12723     300   12809   12808+
+          12807    2835    2809    2808
CTETRA      4362       1   12415   12416   12435     494   12499   12498+
+          12497    3529    7612    3530
CTETRA      4363       1   17260   11672   11673     702   11724   11691+
+          11725    5240    5235    5237
CTETRA      4364       1   17212     189   11764     742    7295    5559+
+          11817    7387    7291    5750
CTETRA      4365       1   13397   13398   13407     165   13697   13744+
+          13745    1815    1816    2554
CTETRA      4366       1   17211   11781     695    1073   11900    7921+
+           7920    8508    8509    8510
CTETRA      4367       1   13402     426     350    1005    5275    5277+
+           3495    8021    8511    8022
CTETRA      4368       1   17258      29   11671     694    8512    1315+
+          11721    7202    5202    5192
CTETRA      4369       1   11662   11672   11671    1074   11688   11687+
+          11685    8513    8514    8515
CTETRA      4370       1   17788   16019   17789     518   16182   16181+
+          17810    8516    3643    8517
CTETRA      4371       1   17830     119     163     161    1640    5809+
+           6318    1777    1779    6317
CTETRA      4372       1   15586   15587     410      57   15869    3033+
+           6678    6679    3019    6680
CTETRA      4373       1   17211   11757   11781     932   11796   11898+
+          11900    7488    7487    8518
CTETRA      4374       1   17210   11755    1075    1076   11788    8519+
+           8520    8521    8522    8523
CTETRA      4375       1   11662   11663   11672     190   11690   11689+
+          11688    8524    1898    8525
CTETRA      4376       1   11660     206   11661    1026    8526    1982+
+          11680    8527    8170    8528
CTETRA      4377       1   18117   18044   16764    1043   18055   16817+
+          16816    8529    8530    8298
CTETRA      4378       1   16962   16964   16963     350   17021   17017+
+          17022    7003    2663    5623
CTETRA      4379       1   17960   17127   17130     326   17152   17150+
+          17148    4397    8030    8029
CTETRA      4380       1   16779    1077   16780     799    8531    8532+
+          16807    8337    8533    6453
CTETRA      4381       1   18025   11661   11660     206   11754   11680+
+          11713    8534    1982    8526
CTETRA      4382       1   17199    1026   11511    1027    8171    8535+
+          11548    8172    8174    8536
CTETRA      4383       1   13380   13398   13397     161   13698   13697+
+          13695    1802    1814    1813
CTETRA      4384       1   16860   16869     352      35   16881    6872+
+           4486    5899    6873    2670
CTETRA      4385       1   18026   11662   11661     205   11753   11686+
+          11752    1978    8183    1979
CTETRA      4386       1   17927   17928   15319    1078   17930   15391+
+          15378    8537    8538    8539
CTETRA      4387       1   18088   11669     865    1079   11716    6958+
+           6957    8540    8541    8542
CTETRA      4388       1   14791   14793   14794     354   15285   15289+
+          15291    4765    2673    4778
CTETRA      4389       1   17276    1050   15337    1080    8543    8365+
+          15463    8544    8545    8546
CTETRA      4390       1   17826      34   17827      44    7815    3301+
+          17841    1374    5942    3307
CTETRA      4391       1   17827   16972   17828     423   17058   17057+
+          17834    3303    7189    3306
CTETRA      4392       1   11567   11568   11577     910   11595   11594+
+          11593    8547    7302    8548
CTETRA      4393       1   16957   16965   16966     165   17030   17032+
+          17033    8549    1808    7005
CTETRA      4394       1   16860   16861      35     453   16883    6474+
+           5899    8550    3293    6475
CTETRA      4395       1   18009    1081   11568     706    8551    8552+
+          11653    5261    8553    5262
CTETRA      4396       1   16873     299   16874     359    7787    2715+
+          16898    2713    2714    2698
CTETRA      4397       1   18112   16868   17908     941   16915   16916+
+          17917    8554    7547    7546
CTETRA      4398       1   11569      36   11570      37    1345    1344+
+          11603    7751    1347    1346
CTETRA      4399       1   11568   11578   11577     229   11597   11596+
+          11594    2078    8249    8555
CTETRA      4400       1   16862   16863   16871     423   16891   16890+
+          16889    4067    6494    6476
CTETRA      4401       1   16768   16769   16778      77   16802   16801+
+          16800    1486    8360    8556
CTETRA      4402       1   17910   16871   17911     905   16921   16922+
+          17920    8557    7276    7275
CTETRA      4403       1   18100   13411   17943    1082   13759   13760+
+          17950    8558    8559    8560
CTETRA      4404       1   15543   15544     632     262   15639    5312+
+           5204    2212    8116    4567
CTETRA      4405       1   17996   17997   16859      16   17999   16910+
+          16913    8561    1264    1263
CTETRA      4406       1   17996   18112   16876     814   18000   16933+
+          16934    8499    6570    6572
CTETRA      4407       1   18113   15320   17973     785   15379   15380+
+          17974    8562    6281    6280
CTETRA      4408       1   16383   16384   16385      46   16662   16671+
+          16670    6022    8563    3217
CTETRA      4409       1   17996   16859   16868     854   16913   16877+
+          16914    8091    6882    7540
CTETRA      4410       1   16868    1025     941    1017    8141    8143+
+           7547    8094    8564    8565
CTETRA      4411       1   18069   16862   16861     449   16950   16887+
+          16949    8566    3273    5763
CTETRA      4412       1   16768   16777      76      77   16798    1547+
+           1484    1486    8567    1487
CTETRA      4413       1   18071   16859      15      19   16912    1262+
+           1261    1360    1270    1272
CTETRA      4414       1   16859    1016      19     854    8090    8568+
+           1270    6882    8092    6883
CTETRA      4415       1   18002     165     874    1083    7006    7009+
+           7008    8569    8570    8571
CTETRA      4416       1   17941    1023   13399    1024    8572    8129+
+          13706    8573    8133    8132
CTETRA      4417       1   18001   16781     326    1084   16839    8231+
+           2530    8574    8575    8576
CTETRA      4418       1   17937     326   17127    1085    8028    8030+
+          17146    8577    8578    8579
CTETRA      4419       1   17354   17355   12613     954   17366   12661+
+          12662    7639    7876    7640
CTETRA      4420       1   13397     350     422     485    3487    3125+
+           4063    3488    3490    7104
CTETRA      4421       1   16347     410     153     519    3155    3646+
+           6549    6233    3650    3649
CTETRA      4422       1   18002     326   16772     327    2532    2531+
+          16841    8098    2534    2533
CTETRA      4423       1   17828     423     614     283    3306    5938+
+           5278    5948    3106    5939
CTETRA      4424       1   16771   16781   16780     912   16812   16811+
+          16809    7331    8580    7332
CTETRA      4425       1   17956   16958     299     362   17005    2375+
+           8067    8581    2709    8066
CTETRA      4426       1   16766   16767   16775      20   16792   16791+
+          16790    2895    7738    1502
CTETRA      4427       1   13195     296      20     819    6339    5732+
+           7996    6608    8582    7999
CTETRA      4428       1   17833      20      81     710    1274    1504+
+           5281    5283    8583    5284
CTETRA      4429       1   18065   16866   16865    1086   16942   16905+
+          16941    8584    8585    8586
CTETRA      4430       1   16767   16776      20    1087   16794    7739+
+           7738    8587    8588    8589
CTETRA      4431       1   17784     647   16024     902    8590    4641+
+          16171    8591    7741    7244
CTETRA      4432       1   17913   16874   17914     359   16927   16928+
+          17923    2712    2698    2697
CTETRA      4433       1   17977   16024   17784     647   16170   16171+
+          16172    8592    4641    8590
CTETRA      4434       1   17959   16963     731    1039   17015    5624+
+           8593    8265    8267    8294
CTETRA      4435       1   16367   16368   16406     637   16632   16756+
+          16757    4645    4647    4630
CTETRA      4436       1   17977     637   16024     647    8320    4639+
+          16170    8592    4642    4641
CTETRA      4437       1   17785   16023     712    1045   16173    5321+
+           8105    8316    8315    8594
CTETRA      4438       1   17194   13444   13443     662   13853   13855+
+          13854    7838    8595    4796
CTETRA      4439       1   16400   16403   16401     220   16737   16736+
+          16738    4655    4653    4652
CTETRA      4440       1   17976   16044     637     842   16168    6792+
+           6787    6785    8596    6786
CTETRA      4441       1   16971     422     614     426    3491    4380+
+           4383    3119    5276    8445
CTETRA      4442       1   16217   16219      56     143   16269    4535+
+           8597    1714    8349    8598
CTETRA      4443       1   17195   13443   13442     663   13859   13860+
+          13858    7316    4798    7427
CTETRA      4444       1   11760   11772   11771     319   11856   11857+
+          11853    4367    6226    4368
CTETRA      4445       1   15603      56      55      57    2028    1416+
+           2470    3016    1420    1419
CTETRA      4446       1   16217      56     144     143    8597    1739+
+           1716    1714    8598    1715
CTETRA      4447       1   16311   16358   16360      58   16570   16575+
+          16572    1423    6546    1424
CTETRA      4448       1   12717   12731   12718     391   12860   12858+
+          12861    2915    6372    2927
CTETRA      4449       1   13400   13401   13407     326   13721   13740+
+          13736    2540    5551    2541
CTETRA      4450       1   16771     328   16772    1088    8599    2535+
+          16814    8600    8601    8602
CTETRA      4451       1   11961   11964   11969     340   12145   12160+
+          12159    3664    7084    2615
CTETRA      4452       1   17846   16214     151     303   16241    1747+
+           1746    7290    2399    2401
CTETRA      4453       1   16012   16013     162     809   16075    6531+
+           6532    6534    7239    6535
CTETRA      4454       1   11763   11765   11764     635   11822   11818+
+          11823    5561    5578    5562
CTETRA      4455       1   15619   15624   15620     302   15949   15944+
+          15950    7057    8351    3600
CTETRA      4456       1   15618   15625     497      88   15945    7285+
+           5346    1537    6067    3540
CTETRA      4457       1   17663     284   13191     626    8603    2313+
+          13351    4509    4876    4510
CTETRA      4458       1   13421   13436   13422     130   13828   13826+
+          13829    5416    6956    2947
CTETRA      4459       1   16211     302    1047     621    4453    8604+
+           8332    4454    4456    8335
CTETRA      4460       1   17452   12731   12730     395   12850   12851+
+          12840    5729    5116    3424
CTETRA      4461       1   15624     302   15628     208    8351    6064+
+          15961    7428    7944    1987
CTETRA      4462       1   13419   13533   13536     278   14176   14174+
+          14177    6257    6262    6261
CTETRA      4463       1   16010     173     595    1089    4255    4259+
+           4258    8605    8606    8607
CTETRA      4464       1   15541   15550      92     170   15674    8608+
+           1555    4978    6936    8609
CTETRA      4465       1   17331   11758   11782     278   11801   11904+
+          11905    4194    7382    6251
CTETRA      4466       1   15564   15567   15565     116   15733   15735+
+          15734    1634    3712    7418
CTETRA      4467       1   17601   17602   13522     202   17617   14120+
+          14119    1967    7261    1968
CTETRA      4468       1   13533     278   13547     109    6262    5396+
+          14210    4005    4196    7105
CTETRA      4469       1   17264   11676   11677    1090   11732   11707+
+          11733    8610    8611    8612
CTETRA      4470       1   11772   11773   11775      96   11861   11864+
+          11863    2995    2980    2981
CTETRA      4471       1   13649   13650   13655     546   14567   14575+
+          14576    6325    5805    5807
CTETRA      4472       1   16309      92     267     170    4474    4908+
+           4907    6938    8609    6939
CTETRA      4473       1   11764     635     741     742    5562    8613+
+           5747    5750    7292    5751
CTETRA      4474       1   13440   13441     189     571   13851    5565+
+           7407    4049    4048    5567
CTETRA      4475       1   17197   11513   11510     189   11561   11560+
+          11545    5465    7297    7296
CTETRA      4476       1   17334   11963   17335     300   12133   12132+
+          17343    2801    2813    2818
CTETRA      4477       1   16029      92   16030     847    5779    4311+
+          16062    6805    8614    8615
CTETRA      4478       1   11772      96     319     610    2995    4563+
+           6226    4556    4555    4566
CTETRA      4479       1   11664     588     189     866    6446    5944+
+           5238    6964    7361    8616
CTETRA      4480       1   17214   11760   17215     978   11809   11810+
+          17224    8617    7833    7832
CTETRA      4481       1   16009   16030   16029      92   16063   16062+
+          16060    4482    4311    5779
CTETRA      4482       1   17991      97   17992     401    2998    2991+
+          17994    2999    2977    2990
CTETRA      4483       1   16011     172     173    1091    7284    1832+
+           6763    8618    8619    8620
CTETRA      4484       1   15630     266      83     497    4897    4896+
+           4895    5347    5829    6811
CTETRA      4485       1   12724     300     342     514    2809    2819+
+           3078    3625    8621    3626
CTETRA      4486       1   14745     369     317     318    8350    2764+
+           6235    4998    4027    2480
CTETRA      4487       1   16343   16364   16363     157   16599   16600+
+          16597    2025    2232    2026
CTETRA      4488       1   13436     130     129     610    6956    1672+
+           5955    7168    4358    7301
CTETRA      4489       1   11760     319     977     978    4367    8622+
+           7830    7833    8623    7834
CTETRA      4490       1   15592   15596   15595     217   15833   15837+
+          15827    4542    4541    6269
CTETRA      4491       1   17760   17761   15317     634   17766   15363+
+          15364    5849    4572    4574
CTETRA      4492       1   15595   15596     638     217   15837    6491+
+           6273    6269    4541    4670
CTETRA      4493       1   15532     633     262     750    7860    4569+
+           2211    7861    5860    5859
CTETRA      4494       1   12713     243    1092    1003    7621    8624+
+           8625    8006    8626    8627
CTETRA      4495       1   17218     120    1093     249    2162    8628+
+           8629    2163    2165    8630
CTETRA      4496       1   17191   13660   17192    1059   14615   14614+
+          17204    8631    8632    8633
CTETRA      4497       1   18104   17772   16225     217   17773   16304+
+          16306    4540    2051    2042
CTETRA      4498       1   17760     750   15318     938    5848    7169+
+          15368    8634    7531    7529
CTETRA      4499       1   13383   13651     188     192   14571    7942+
+           1892    6864    7314    1907
CTETRA      4500       1   11973     596     242     661    4263    4267+
+           4266    6962    6783    6963
CTETRA      4501       1   13648     332     660     354    7293    5935+
+           5443    4776    7294    4768
CTETRA      4502       1   14779   14794     546     354   15293    5825+
+           6327    4763    4778    5823
CTETRA      4503       1   13652   13656     546     188   14586    5822+
+           5836    5928    5831    5817
CTETRA      4504       1   16327     171      49     125    4743    1829+
+           4741    5983    4976    8002
CTETRA      4505       1   17240   11578   17241    1094   11629   11630+
+          17250    8635    8636    8637
CTETRA      4506       1   16312   16393   16395     216   16699   16710+
+          16718    2059    5325    2040
CTETRA      4507       1   11565   11566     976     615   11587    7826+
+           8205    4395    4388    7828
CTETRA      4508       1   11578     474    1095    1041    8270    8638+
+           8639    8271    8273    8640
CTETRA      4509       1   13383   13384   13651     192   13785   14570+
+          14571    6864    5996    7314
CTETRA      4510       1   14771     428      80     281    4050    3174+
+           4053    5675    3178    3177
CTETRA      4511       1   12767   12784   12783     126   13082   13080+
+          13079    2448    7058    6721
CTETRA      4512       1   17306   12418   12417     315   12571   12507+
+          12574    7683    2464    8641
CTETRA      4513       1   16376   16388     639     272   16685    8642+
+           6175    5962    6162    6585
CTETRA      4514       1   17801     862   16007     863    8643    6945+
+          16205    8644    6949    6948
CTETRA      4515       1   17633   14773   14766     221   15212   15214+
+          15184    2054    3383    2055
CTETRA      4516       1   13593   13605   13604     221   14422   14423+
+          14421    2853    2302    2301
CTETRA      4517       1   13588   13589   13599     310   14357   14391+
+          14394    3667    3666    2435
CTETRA      4518       1   14724   14751   14725     310   15132   15131+
+          15133    2438    3701    4140
CTETRA      4519       1   12742   12743   12754      99   12928   12955+
+          12954    3358    3357    4699
CTETRA      4520       1   14726     424     578     515    3168    4138+
+           6439    3638    3630    5046
CTETRA      4521       1   14732   14751   14750     527   15134   15136+
+          15135    5050    3697    6611
CTETRA      4522       1   12410   12411     454     774   12481    6181+
+           6668    7468    6182    6184
CTETRA      4523       1   14713       7       8       5    1232    4783+
+           1234    1229    1233    1237
CTETRA      4524       1   14656   14670   14657     260   14824   14826+
+          14825    3860    2206    4710
CTETRA      4525       1   14655   14664   14656     181   14802   14804+
+          14803    3938    2240    5015
CTETRA      4526       1   17283   13166   13165     576   13219   13216+
+          13214    7556    4101    4100
CTETRA      4527       1   18093   12758   17398     962   12986   12984+
+          17403    8645    7721    7720
CTETRA      4528       1   14656   14657   14712     376   14825   15012+
+          15034    4468    4714    2798
CTETRA      4529       1   11964   11965   11972     661   12148   12164+
+          12163    7085    6781    6961
CTETRA      4530       1   12714     495   12728     780    7758    6358+
+          12864    6999    6357    6356
CTETRA      4531       1   13500   13508   13515     259   14081   14104+
+          14102    2214    5540    6080
CTETRA      4532       1   13488   13500   13499     261   14053   14055+
+          14054    2216    2215    3859
CTETRA      4533       1   12715   12729   12716     661   12873   12875+
+          12876    6816    7089    7088
CTETRA      4534       1   17450     301   12722     300    5896    2628+
+          12810    5883    2383    5884
CTETRA      4535       1   12705   12725   12726     494   12833   12835+
+          12826    4500    7198    7197
CTETRA      4536       1   14718       6     573     557    4779    4082+
+           4781    8188    4062    4077
CTETRA      4537       1   11972   11973   11977     242   12177   12192+
+          12194    6960    4266    2140
CTETRA      4538       1   13182     491     324     722    5451    5437+
+           7375    5454    5453    8400
CTETRA      4539       1   12002   12005     469     646   12284    6941+
+           4347    4632    6942    4874
CTETRA      4540       1   14716   14717   14718     573   15027   15033+
+          15041    4780    5557    4781
CTETRA      4541       1   12438     126   12439     653    6430    2451+
+          12512    4705    7258    6437
CTETRA      4542       1   13477     176     537     178    7976    7438+
+           3790    3783    1851    3776
CTETRA      4543       1   14718     557     573     537    8188    4077+
+           4781    5647    4075    4078
CTETRA      4544       1   14655   14656   14719     553   14803   15035+
+          15037    6316    4469    4058
CTETRA      4545       1   17716     167     546     808    6524    3873+
+           5929    6525    6553    8646
CTETRA      4546       1   17713   15540   17714     125   15668   15738+
+          17724    6823    4975    6813
CTETRA      4547       1   13626   13627   13650     167   14480   14564+
+          14566    1838    8162    6528
CTETRA      4548       1   17717   14786     167     111   15260    3030+
+           3029    6342    8647    6507
CTETRA      4549       1   17710      40     970    1020    6024    7793+
+           7792    8112    8114    8648
CTETRA      4550       1   17289   12402   12401     692   12605   12445+
+          12520    8649    5186    5185
CTETRA      4551       1   12798   12801   12800     411   13147   13148+
+          13140    6376    3049    3048
CTETRA      4552       1   17294     603   12406     927    4308    4310+
+          12595    8650    7449    7448
CTETRA      4553       1   17631   14778     348     994   15229    2655+
+           8651    8138    7957    7959
CTETRA      4554       1   13385   13386   13638     225   13798   14514+
+          14515    2549    2065    2581
CTETRA      4555       1   15313   15321   15323      41   15390   15400+
+          15398    4254    4253    8652
CTETRA      4556       1   13614   13621   13620     113   14462   14464+
+          14463    4426    1624    1623
CTETRA      4557       1   12798     412     425     411    6375    6382+
+           6391    6376    3043    3116
CTETRA      4558       1   11996   12002   11997     469   12267   12266+
+          12268    4348    4347    3371
CTETRA      4559       1   17510     619   13603    1096    4433    4434+
+          14401    8653    8654    8655
CTETRA      4560       1   16372   16374   16373     268   16606   16619+
+          16615    6944    2245    2244
CTETRA      4561       1   13512   13513   13520     185   14098   14122+
+          14118    1877    1889    1923
CTETRA      4562       1   12013      99   12019     339    7525    6400+
+          12330    2612    6399    6398
CTETRA      4563       1   13539   13540   13549     670   14197   14217+
+          14218    4887    5485    4888
CTETRA      4564       1   12409   12410     454     928   12477    6668+
+           6667    7457    7456    7466
CTETRA      4565       1   14683   14684   14685     185   14872   14876+
+          14877    4966    4944    4852
CTETRA      4566       1   13542     137     237     186    4413    5460+
+           5459    4414    4415    7616
CTETRA      4567       1   17599     363   13496     478    3444    2718+
+          14035    8656    3451    3450
CTETRA      4568       1   12742   12750   12743     459   12926   12929+
+          12928    3736    6410    3737
CTETRA      4569       1   17297   12409     337     338   12589    2607+
+           6663    6673    2609    2611
CTETRA      4570       1   11982   12001   11999     101   12258   12262+
+          12264    1597    1585    1589
CTETRA      4571       1   13506     187     356     363    7126    7398+
+           2705    2719    4854    2720
CTETRA      4572       1   17295   12407     926     925   12593    7446+
+           8657    8658    7439    7447
CTETRA      4573       1   11982   11983   12019     104   12265   12328+
+          12323    1596    1595    6401
CTETRA      4574       1   17598   13496     477     478   14034    3447+
+           7399    8659    3450    3452
CTETRA      4575       1   14705     666     703     355    5386    5387+
+           5379    6969    6923    6922
CTETRA      4576       1   17597   17598   13465     851   17619   14041+
+          14251    6850    7402    6851
CTETRA      4577       1   13472   13557   13556       1   14248   14250+
+          14249    1224    1201    6764
CTETRA      4578       1   14654   14718   14701     537   15029   15031+
+          14947    3780    5647    5646
CTETRA      4579       1   14653     537     176     178    7437    7438+
+           1857    6332    3776    1851
CTETRA      4580       1   12431     454     461     961    7481    3367+
+           6975    7716    8660    8661
CTETRA      4581       1   13471   13485   13472       6   13990   13989+
+          13991    4552    4080    1222
CTETRA      4582       1   12013   12017   12014     339   12334   12336+
+          12335    2612    5146    2613
CTETRA      4583       1   11984   12018     104     530   12327    7524+
+           3742    3740    7629    3741
CTETRA      4584       1   14655     553   14719     557    6316    4058+
+          15037    3940    3944    4061
CTETRA      4585       1   14716       6       1     573    1227    1223+
+           1240    4780    4082    4539
CTETRA      4586       1   12621     687     528     686    5129    7671+
+           7669    5127    8662    8663
CTETRA      4587       1   13469     372     373     570    4022    2773+
+           6144    4024    4023    7656
CTETRA      4588       1   12409   12430   12429     454   12475   12474+
+          12472    6667    6669    6670
CTETRA      4589       1   14716   14718   14719       6   15041   15038+
+          15040    1227    4779    4060
CTETRA      4590       1   12428     335   12429     463    5796    3333+
+          12470    8664    3332    3331
CTETRA      4591       1   17566   13178   13179     704   13286   13288+
+          13282    8665    5251    5253
CTETRA      4592       1   12411   12432   12431     461   12483   12482+
+          12480    6180    6976    6975
CTETRA      4593       1   17299   12411     774     930   12585    6182+
+           7467    7472    7474    7790
CTETRA      4594       1   17565   13178   17566     704   13287   13286+
+          17574    5496    5251    8665
CTETRA      4595       1   14672     213   14673     209    2514    7695+
+          14837    2515    2014    1998
CTETRA      4596       1   13434   13436   13446     610   13827   13873+
+          13865    7429    7168    6123
CTETRA      4597       1   13428   13429   13458     250   13823   13930+
+          13929    2411    2198    2200
CTETRA      4598       1   17336   17337     251     395   17345    7050+
+           2201    3421    5730    3422
CTETRA      4599       1   13436     130     610     254    6956    4358+
+           7168    4518    2831    4359
CTETRA      4600       1   13423   13434   13428     254   13815   13818+
+          13821    2409    2388    2412
CTETRA      4601       1   13428     254   13433      95    2412    2377+
+          13819    7433    2381    2380
CTETRA      4602       1   13429   13433   13435      95   13822   13824+
+          13813    1580    2380    1581
CTETRA      4603       1   17582   13411   18100     908   13757   13759+
+          17607    8666    7288    7287
CTETRA      4604       1   17582   13410   13411     349   13753   13758+
+          13757    2660    2662    8667
CTETRA      4605       1   17943    1097    1098    1099    8668    8669+
+           8670    8671    8672    8673
CTETRA      4606       1   13403     361     426     761    4064    3120+
+           6073    6075    8674    6076
CTETRA      4607       1   17940   17132   17133     426   17163   17169+
+          17167    6072    7687    7686
CTETRA      4608       1   17940     426   13402    1005    6072    5275+
+          13712    8390    8511    8021
CTETRA      4609       1   17306   17307   12418     611   17310   12572+
+          12571    7684    8675    4361
CTETRA      4610       1   17941   13399   13403     761   13706   13710+
+          13709    8676    8677    6075
CTETRA      4611       1   17421     652   12438     653    8678    4702+
+          12558    6436    4706    4705
CTETRA      4612       1   12783     126     311     437    6721    2442+
+           6710    5119    5608    6429
CTETRA      4613       1   17507     296   13195     819    6336    6339+
+          13367    6607    8582    6608
CTETRA      4614       1   16776      21      20    1087    8312    1275+
+           7739    8588    8679    8589
CTETRA      4615       1   18107   17833      22     988   17839    1277+
+           8680    8681    7895    7897
CTETRA      4616       1   16329      93   16330     170    7925    5782+
+          16439    4971    4981    8342
CTETRA      4617       1   16766   16767      20     550   16792    7738+
+           2895    3897    8309    3898
CTETRA      4618       1   17392   18092   15328     830   17393   15422+
+          15423    6706    8682    6707
CTETRA      4619       1   17381   17382   15325     604   17384   15410+
+          15411    8683    4315    4317
CTETRA      4620       1   17476   12799   12800     411   13142   13138+
+          13143    3047    3985    3048
CTETRA      4621       1   17507   17508   13160     818   17532   13249+
+          13252    8684    6603    6605
CTETRA      4622       1   15577   15578   15579     158   15783   15790+
+          15795    1782    4226    5367
CTETRA      4623       1   17557     369   13172     475    3231    3427+
+          13266    8685    3430    3429
CTETRA      4624       1   12708   12789     469     102   13095    4872+
+           6612    6613    5685    5684
CTETRA      4625       1   17357   12606     823     824   12647    6652+
+           8686    8479    6653    6655
CTETRA      4626       1   12612     646     425    1100    6624    4886+
+           6623    8687    8688    8689
CTETRA      4627       1   17356   17357   12614     793   17370   12657+
+          12658    8690    8691    6431
CTETRA      4628       1   17478     146   12608    1006    1762    1763+
+          12629    8025    8692    8026
CTETRA      4629       1   17469   12613   17470     936   12671   12666+
+          17488    8693    7510    7870
CTETRA      4630       1   12606   12612     646     248   12650    6624+
+           6650    6658    2160    8694
CTETRA      4631       1   11986   12010   12009     412   12315   12317+
+          12307    5174    3041    3040
CTETRA      4632       1   12708   12709   12789     102   12980   13094+
+          13095    6613    8695    5685
CTETRA      4633       1   12615     103     983     794    1925    7869+
+           7868    7658    8696    8697
CTETRA      4634       1   18095     822   17453     989    6634    6636+
+          17459    8698    7950    7905
CTETRA      4635       1   12709   12789     102     646   13094    5685+
+           8695    8466    4875    5686
CTETRA      4636       1   12708   12757   12709     102   12979   12978+
+          12980    6613    8255    8695
CTETRA      4637       1   12756     103   12757     101    3350    7196+
+          12982    3351    1594    7643
CTETRA      4638       1   17469   12616   12613     530   12675   12674+
+          12671    7533    7532    7509
CTETRA      4639       1   17473     646   12612    1100    6656    6624+
+          12648    8699    8688    8687
CTETRA      4640       1   11939   11940   11950     438   12035   12090+
+          12085    3237    3242    5122
CTETRA      4641       1   11940   11951   11950     438   12089   12091+
+          12090    3242    5123    5122
CTETRA      4642       1   11928   11929   11940     444   12042   12041+
+          12036    8373    5369    3243
CTETRA      4643       1   17380   15327     558    1053   15416    3972+
+           3971    8376    8378    8380
CTETRA      4644       1   18095   17453     719     989   17459    5402+
+           5401    8698    7905    7907
CTETRA      4645       1   14662     356     187     363    7396    7398+
+           3457    4853    2720    4854
CTETRA      4646       1   12432     461     596     869    6976    4611+
+           7781    6981    8700    7785
CTETRA      4647       1   12416     494    1101     933    7612    8701+
+           8702    7491    8703    8704
CTETRA      4648       1   11964   11972   11969     661   12163   12170+
+          12160    7085    6961    4793
CTETRA      4649       1   11928   11940   11939     442   12036   12035+
+          12034    5710    4339    3235
CTETRA      4650       1   12415   12416     494     498   12499    7612+
+           3529    3545    8505    3546
CTETRA      4651       1   11932   11976   11975     243   12183   12189+
+          12188    2168    2167    7060
CTETRA      4652       1   17565   14678   14673     210   14850   14852+
+          14834    5495    2587    1999
CTETRA      4653       1   16309   16373   16374     267   16616   16619+
+          16617    4907    2243    2242
CTETRA      4654       1   11934   12030   12031     455   12391   12393+
+          12396    4083    3365    3327
CTETRA      4655       1   17389     462     958     959    4093    8705+
+           7701    7704    8490    7705
CTETRA      4656       1   17418   12435   17419    1070   12552   12553+
+          17439    8486    8485    8706
CTETRA      4657       1   17421   12437   12438     652   12557   12508+
+          12558    8678    8707    4702
CTETRA      4658       1   12712   12734   12713     243   12878   12877+
+          12879    4105    2169    7621
CTETRA      4659       1   17418   12434   12435    1034   12551   12496+
+          12552    8708    8240    8507
CTETRA      4660       1   12717   12718   12735     232   12861   12887+
+          12885    6370    2101    2147
CTETRA      4661       1   14665     261     263     322    5438    2220+
+           5439    2844    6368    2839
CTETRA      4662       1   17562   14669   14668     491   14821   14822+
+          14816    5450    7747    5021
CTETRA      4663       1   17415   12432   17416     870   12546   12547+
+          17436    6982    6984    8234
CTETRA      4664       1   11938     494     495     417    8500    3532+
+           7247    4899    7199    7249
CTETRA      4665       1   11933     243     465     462    4108    4092+
+           3340    3328    4107    3342
CTETRA      4666       1   11933   11975     465     243   12187    3673+
+           3340    4108    7060    4092
CTETRA      4667       1   14659   14690   14681     183   14895   14896+
+          14859    6000    6009    8709
CTETRA      4668       1   11995   12003   11996     425   12271   12274+
+          12276    3114    6383    4349
CTETRA      4669       1   12786   12788   12787     425   13090   13089+
+          13091    4885    6388    8710
CTETRA      4670       1   17473   12606     646     935   12652    6650+
+           6656    7507    7498    8471
CTETRA      4671       1   17474   12611   17475     986   12654   12645+
+          17484    8711    7890    7889
CTETRA      4672       1   12411   12412   12432     461   12485   12484+
+          12483    6180    6776    6976
CTETRA      4673       1   13497   13524   13525     210   14127   14135+
+          14132    2016    2018    6889
CTETRA      4674       1   13477   13480   13479     178   13987   13988+
+          13986    3783    3775    3525
CTETRA      4675       1   12611     425   12612     245    6619    6623+
+          12655    2151    8712    8713
CTETRA      4676       1   12761   12774   12773     558   13039   13042+
+          13040    3949    3969    3968
CTETRA      4677       1   17476   12610   12609     411   12640   12639+
+          12636    3047    3975    3986
CTETRA      4678       1   17594   17595   13569     529   17620   14268+
+          14269    6819    3733    3735
CTETRA      4679       1   11929     276     444     558    2283    5370+
+           5369    7067    3950    3970
CTETRA      4680       1   17417   12434   17418    1034   12550   12551+
+          17438    8238    8240    8708
CTETRA      4681       1   11930     364     276     147    5648    5707+
+           2285    5660    5602    3947
CTETRA      4682       1   11931   11990     547     364   12220    6059+
+           6058    5649    5700    5653
CTETRA      4683       1   12433     780   12434     871    7755    7769+
+          12490    6986    8714    8715
CTETRA      4684       1   12435     495    1070    1071    3533    8716+
+           8485    8488    8717    8489
CTETRA      4685       1   12416   12436   12435     494   12501   12500+
+          12498    7612    6692    3530
CTETRA      4686       1   17335   11773   11770      96   11858   11860+
+          11848    6121    2980    4553
CTETRA      4687       1   17638   15347   15345     531   15516   15515+
+          15514    3801    5304    5303
CTETRA      4688       1   12762   12773   12772     276   13034   13033+
+          13032    5706    3974    5376
CTETRA      4689       1   11933   12031   12012     462   12397   12395+
+          12320    3328    3330    8718
CTETRA      4690       1   12016   12028     152     528   12381    8719+
+           1750    7263    8720    3723
CTETRA      4691       1   12738   12759   12758     462   12992   12994+
+          12987    4988    4116    7266
CTETRA      4692       1   12794     241   12798     471    8039    6390+
+          13127    5633    3391    6389
CTETRA      4693       1   17360   17361   12610     562   17367   12637+
+          12638    8721    3976    3978
CTETRA      4694       1   17981   12401   12421     547   12521   12441+
+          12522    7672    4324    8722
CTETRA      4695       1   12610     425     411     945    6618    3116+
+           3975    7564    8723    7565
CTETRA      4696       1   17361   17362   12609    1102   17373   12631+
+          12632    8724    8725    8726
CTETRA      4697       1   17477   12609   12607     564   12635   12634+
+          12623    7590    3989    3988
CTETRA      4698       1   12786   12791   12789     469   13102   13106+
+          13105    4871    4884    4872
CTETRA      4699       1   12786   12798     241     425   13130    6390+
+           6393    4885    6391    4732
CTETRA      4700       1   11996   11997   12007     241   12268   12293+
+          12294    4870    3370    3388
CTETRA      4701       1   17468   12616   17469     939   12676   12675+
+          17489    8727    7535    7534
CTETRA      4702       1   17361   12609     411    1102   12632    3986+
+           3037    8724    8726    8728
CTETRA      4703       1   12794   12798   12795     471   13127   13129+
+          13128    5633    6389    5634
CTETRA      4704       1   17349   12620   12621     687   12693   12698+
+          12697    7699    7670    5129
CTETRA      4705       1   18093     884   17389     885    8729    7069+
+          17391    8730    7072    7071
CTETRA      4706       1   18093   13166   17389     884   13217   13218+
+          17391    8729    7459    7069
CTETRA      4707       1   17292     466   12404     608    4352    3345+
+          12599    8495    4345    4344
CTETRA      4708       1   12620   12621     528     956   12698    7669+
+           7668    7678    8731    7679
CTETRA      4709       1   17290   17291   12402     990   17323   12604+
+          12603    7953    8732    7915
CTETRA      4710       1   14642   14746   14745     369   15103   15104+
+          15101    2743    2763    8350
CTETRA      4711       1   13603     619     440    1096    4434    4431+
+           5879    8655    8654    8733
CTETRA      4712       1   13600   13601      28      26   14398    1319+
+           1316    1306    1302    1312
CTETRA      4713       1   12796     412   12799     146    3883    3984+
+          13133    1731    7097    7256
CTETRA      4714       1   17830     163     119     118    6318    5809+
+           1640    1643    1789    1644
CTETRA      4715       1   15629   15631   15630      83   15970   15973+
+          15972    4894    1542    4895
CTETRA      4716       1   11987   11993   11992     146   12238   12243+
+          12231    1721    7544    1722
CTETRA      4717       1   17392     146   12608     148    1725    1763+
+          12628    1726    1728    7661
CTETRA      4718       1   14720   14747   14721     440   15110   15121+
+          15122    4427    3228    3227
CTETRA      4719       1   12779     344   12781     443    5094    5106+
+          13066    5093    5095    5083
CTETRA      4720       1   12418   12419   12438     126   12511   12510+
+          12509    2462    2443    6430
CTETRA      4721       1   17511   17512   13177     861   17537   13278+
+          13275    7160    6931    6933
CTETRA      4722       1   17833     138      20     710    5282    7898+
+           1274    5283    5285    8583
CTETRA      4723       1   17280   13164   13162     398   13199   13201+
+          13197    2957    2956    5569
CTETRA      4724       1   17525     860   13169     881    6916    6918+
+          13233    8734    8735    7052
CTETRA      4725       1   11570     859   11579     996    8736    8737+
+          11602    8738    8739    8740
CTETRA      4726       1   17554   13175   17555    1103   13264   13265+
+          17569    8741    8742    8743
CTETRA      4727       1   17844     776   16212     886    8358    6193+
+          16228    8744    7080    7079
CTETRA      4728       1   17517   17518   13183     492   17545   13310+
+          13319    3761    5457    3521
CTETRA      4729       1   17337   17338     859     655   17347    6913+
+           7025    5731    4725    7031
CTETRA      4730       1   11570   11571     859     923   11605    7421+
+           8736    8745    7423    7422
CTETRA      4731       1   17524   13457   13455     559   13922   13923+
+          13907    6640    5117    7962
CTETRA      4732       1   18086   13169   13170     937   13242   13234+
+          13241    8746    7518    7520
CTETRA      4733       1   17884     967     968    1104    7764    7767+
+           7766    8747    8748    8749
CTETRA      4734       1   17884     968   13192    1105    7766    7768+
+          13356    8750    8751    8752
CTETRA      4735       1   17260   11673   17261     701   11725   11726+
+          17270    5239    5226    8753
CTETRA      4736       1   17942   13659    1106    1107   14609    8754+
+           8755    8756    8757    8758
CTETRA      4737       1   18110   17884   16954      73   17886   16986+
+          16985    1476    8759    8760
CTETRA      4738       1   16777   16778      91    1108   16799    8761+
+           1552    8762    8763    8764
CTETRA      4739       1   17986   11660   11669     755   11714   11678+
+          11715    5888    8765    8766
CTETRA      4740       1   17935   17936   13657     911   17952   14599+
+          14600    8767    7318    7317
CTETRA      4741       1   17986   11669   18088    1079   11715   11716+
+          17990    8768    8541    8540
CTETRA      4742       1   11661   11662   11671     697   11686   11685+
+          11684    8769    8770    5199
CTETRA      4743       1   17583   13663    1109    1110   14634    8771+
+           8772    8773    8774    8775
CTETRA      4744       1   11669     253    1050    1111    8776    8364+
+           8777    8778    8779    8780
CTETRA      4745       1   17908   16869   17909     852   16917   16918+
+          17918    8781    6874    8075
CTETRA      4746       1   11670     255     257    1112    2185    2189+
+           2188    8782    8783    8784
CTETRA      4747       1   17996    1025   16868    1017    8785    8141+
+          16914    8093    8564    8094
CTETRA      4748       1   13413     352      41      35    4287    2668+
+           4599    8128    2670    1359
CTETRA      4749       1   13380   13381   13654     161   13696   14590+
+          14589    1802    6567    1803
CTETRA      4750       1   17962      72   16954     831    8069    8068+
+          16987    6712    8786    7483
CTETRA      4751       1   18070   16861   16860     453   16952   16883+
+          16951    8078    3293    8550
CTETRA      4752       1   17996   16876   16867      11   16934   16908+
+          16935    8787    8788    1247
CTETRA      4753       1   11661     255   11670    1026    8789    2185+
+          11682    8528    8790    8791
CTETRA      4754       1   17335   17336   11773      95   17344   11859+
+          11858    7054    1562    7844
CTETRA      4755       1   16871      34     423     905    5470    3304+
+           6476    7276    8792    8793
CTETRA      4756       1   13393   13394     614     283   13683    7579+
+           5765    3105    2307    5939
CTETRA      4757       1   16765      20   16774     141    3889    1501+
+          16786    2908    3906    6829
CTETRA      4758       1   17852   16217   17853     145   16265   16266+
+          17867    1745    1717    6286
CTETRA      4759       1   17829     283     422     709    3100    3102+
+           3099    5269    6313    5270
CTETRA      4760       1   16972     423   16974     614    7189    6486+
+          17063    5279    5938    6488
CTETRA      4761       1   16959   16964   16960     350   17012   17014+
+          17013    3123    2663    3124
CTETRA      4762       1   16390   16402   16398      14   16734   16731+
+          16721    7663    1292    1287
CTETRA      4763       1   17210   11755   11757     932   11788   11798+
+          11797    7486    8794    7487
CTETRA      4764       1   17739   15607   17740     504   15881   15876+
+          17748    3577    3576    8795
CTETRA      4765       1   16960   16961   16969     422   17019   17048+
+          17049    3121    7000    3098
CTETRA      4766       1   13390   13412   13417      34   13773   13791+
+          13790    7178    1339    1338
CTETRA      4767       1   15600   15601   15611      14   15872   15897+
+          15898    1256    3403    1257
CTETRA      4768       1   16389   16390   16398      14   16708   16721+
+          16720    8796    7663    1287
CTETRA      4769       1   17997   16867   18063      12   16936   16937+
+          16938    1248    1250    8797
CTETRA      4770       1   16023       9     712    1045    5319    5322+
+           5321    8315    8798    8594
CTETRA      4771       1   17826   16977   16980     451   17091   17100+
+          17097    3278    6871    4807
CTETRA      4772       1   13412   13413   13418      35   13769   13793+
+          13800    1340    8128    5472
CTETRA      4773       1   15589       9   15590      10    1242    1251+
+          15841    1243    1245    1254
CTETRA      4774       1   13387     597     226     554    4272    8799+
+           4274    3925    4273    8800
CTETRA      4775       1   15600   15606   15601     216   15871   15870+
+          15872    7322    6300    4498
CTETRA      4776       1   17584   15322   15321     352   15385   15387+
+          15386    4286    7019    7018
CTETRA      4777       1   16861   16870   16869      35   16885   16884+
+          16882    6474    8077    6873
CTETRA      4778       1   16867      11   16876     123    1247    8788+
+          16908    8801    8802    1652
CTETRA      4779       1   17718     112     296     291    1620    7912+
+           2351    2339    8803    2353
CTETRA      4780       1   17588   13604   13632     223   14417   14495+
+          14494    2061    2060    4270
CTETRA      4781       1   16333   16334   16337     420   16453   16474+
+          16475    3079    3850    4672
CTETRA      4782       1   15565   15568   15573     164   15749   15764+
+          15763    7417    3087    3093
CTETRA      4783       1   13544   13549     305     336   14224    4913+
+           4515    2645    4192    2942
CTETRA      4784       1   18027   18028   11663     191   18041   11748+
+          11751    8804    8805    1899
CTETRA      4785       1   16319   16340   16341     162   16495   16499+
+          16502    4208    6503    4840
CTETRA      4786       1   15572     314   15574     288    7364    7363+
+          15771    5970    6472    2329
CTETRA      4787       1   18028   11664   11663     732   11749   11694+
+          11748    8806    5628    5627
CTETRA      4788       1   13389     423      34      44    5272    3304+
+           5940    5274    3308    5942
CTETRA      4789       1   16369   16370     436      48   16623    8807+
+           3204    3206    1401    3207
CTETRA      4790       1   11663     189   11672     190    1896    5233+
+          11689    1898    1897    8525
CTETRA      4791       1   17829   17830     163     548   17837    6318+
+           1788    3886    3888    6320
CTETRA      4792       1   16028     267     775     845    6185    6187+
+           6186    6799    8808    6800
CTETRA      4793       1   17827   17828   16307      47   17834   16407+
+          16408    1386    5946    1387
CTETRA      4794       1   17712      44      45      47    5993    6304+
+           3212    5985    5947    5986
CTETRA      4795       1   15558   15559     436      48   15706    3201+
+           6637    1394    6647    3207
CTETRA      4796       1   15552      49      47      48    1392    8422+
+           8809    1393    1395    1389
CTETRA      4797       1   18103   17669   16044    1062   17700   16166+
+          16167    8810    8811    8442
CTETRA      4798       1   17976   18103     842     843   17980    8812+
+           6785    6788    8813    6789
CTETRA      4799       1   18028   18029   11664     866   18040   11746+
+          11749    8814    6965    6964
CTETRA      4800       1   16034     156     266     752    5874    3909+
+           4890    5871    7808    8815
CTETRA      4801       1   18029   18030   11665     591   18039   11744+
+          11747    8816    8817    4232
CTETRA      4802       1   16345   16349   16346      88   16511   16513+
+          16512    7215    1990    4522
CTETRA      4803       1   16010   16011     173    1089   16069    6763+
+           4255    8605    8818    8606
CTETRA      4804       1   16324     173      93     164    6550    4304+
+           5783    7419    1836    1791
CTETRA      4805       1   14712   14714   14713       7   15016   15002+
+          15017    2795    2796    1232
CTETRA      4806       1   14750     527       2       3    6611    4446+
+           1213    1216    6413    1206
CTETRA      4807       1   15569   15571     172     164   15751    8819+
+           4237    3088    4262    1835
CTETRA      4808       1   17515   17516   13186     180   17547   13327+
+          13323    1940    1860    1862
CTETRA      4809       1     491     816     492     493    7573    8820+
+           5458    8821    6597    3524
CTETRA      4810       1   14780     659   14784     168    5447    6326+
+          15240    5440    5105    1820
CTETRA      4811       1   17833     289     286     792    8822    8823+
+           6328    6377    8824    6378
CTETRA      4812       1   17256   11670   17257     257   11718   11719+
+          17266    8052    2188    5213
CTETRA      4813       1   11571   11572   11580     859   11609   11608+
+          11607    7421    7220    7886
CTETRA      4814       1   15541   15550   15549      92   15674   15679+
+          15677    1555    8608    6190
CTETRA      4815       1   15540   15552   15551      49   15665   15667+
+          15666    4734    1392    1825
CTETRA      4816       1   17830     117   16326     118    1642    1656+
+          16414    1643    1639    1658
CTETRA      4817       1   13508     183   13509     182    1874    1873+
+          14087    5539    6010    6006
CTETRA      4818       1   13500   13501   13508     654   14049   14080+
+          14081    5611    4728    5537
CTETRA      4819       1   11571   11572     859     820   11609    7220+
+           7421    8825    6629    7221
CTETRA      4820       1   15565   15566   15568     164   15744   15748+
+          15749    7417    1792    3087
CTETRA      4821       1   13501   13502   13508     654   14062   14086+
+          14080    4728    5598    5537
CTETRA      4822       1   13646   13647   13656     354   14560   14580+
+          14581    6296    4775    5824
CTETRA      4823       1   15566   15571   15568     164   15747   15750+
+          15748    1792    4262    3087
CTETRA      4824       1   13526   13528     333     209   14144    2884+
+           2883    7887    7698    2586
CTETRA      4825       1   17335     342     301     300    2817    2630+
+           5381    2818    2819    2383
CTETRA      4826       1   17453     559     674     989    4964    4951+
+           4965    7905    7951    7906
CTETRA      4827       1   14684     237     137     186    8826    5460+
+           4943    6310    7616    4415
CTETRA      4828       1   11571   11580   11579     859   11607   11606+
+          11604    7421    7886    8737
CTETRA      4829       1   16324   16325   16332     164   16436   16448+
+          16447    7419    5785    1834
CTETRA      4830       1   13526     333     169     209    2883    6577+
+           1823    7887    2586    6858
CTETRA      4831       1   13516   13541   13527     236   14189   14187+
+          14148    2117    2877    2876
CTETRA      4832       1   17877   16383   16381     630   16653   16655+
+          16649    4546    6021    5214
CTETRA      4833       1   16381   16383   16382     630   16655   16660+
+          16659    5214    6021    7237
CTETRA      4834       1   17710   15562   15561      46   15719   15723+
+          15718    6023    8087    3209
CTETRA      4835       1   15553   15554   15561     630   15690   15713+
+          15714    6027    7231    6028
CTETRA      4836       1   13430   13454   13459      94   13916   13934+
+          13933    8827    8828    7514
CTETRA      4837       1   13549     137     305     336    4914    2939+
+           4913    4192    2943    2942
CTETRA      4838       1   17449   17450     305     336   17457    8014+
+           2834    2941    2624    2942
CTETRA      4839       1   13515   13516   13527     385   14105   14148+
+          14147    3866    3868    2913
CTETRA      4840       1   13540   13542   13549     237   14200   14219+
+          14217    5484    5459    5461
CTETRA      4841       1   17762   15543   15553     630   15637   15683+
+          15682    7233    5206    6027
CTETRA      4842       1   13478     196     573     537    6529    6530+
+           5643    5644    7978    4078
CTETRA      4843       1   14724   14752     310      27   15141    3699+
+           2438    2440    3700    2437
CTETRA      4844       1   14670   14675   14674     259   14843   14842+
+          14841    2204    5011    5530
CTETRA      4845       1   13501     377     654     376    5181    5168+
+           4728    4727    5170    4713
CTETRA      4846       1   13474   13476   13475     175   13968   13967+
+          13969    1938    1943    7436
CTETRA      4847       1   17762   17763   15316     760   17764   15352+
+          15353    8829    8830    6017
CTETRA      4848       1   14668     490     178     491    5020    3526+
+           6333    5021    3508    3528
CTETRA      4849       1   13473     196     620     573    5546    5547+
+           5545    6426    6530    5558
CTETRA      4850       1   17303     498   12415    1072    8831    3545+
+          12577    8832    8502    8501
CTETRA      4851       1   12434    1033     495    1034    8237    8833+
+           5229    8240    8239    8506
CTETRA      4852       1   14739   14741     551     579   15095    7506+
+           7749    7753    4167    4752
CTETRA      4853       1   14751     310   14752     523    3701    3699+
+          15142    3694    3670    3691
CTETRA      4854       1   17593   13566     541     992   14283    4125+
+           4124    8153    7931    8834
CTETRA      4855       1   13384   13388   13416      44   13784   13786+
+          13781    5995    5273    1366
CTETRA      4856       1   13433   13434   13446      96   13820   13865+
+          13866    2379    2387    6133
CTETRA      4857       1   14733      64   14738     532    4391    6112+
+          15061    4392    4394    3797
CTETRA      4858       1   17593     541   13575     985    4124    4126+
+          14313    7956    7882    7881
CTETRA      4859       1   13573     539     551     380    3789    3911+
+           5788    3827    3826    3912
CTETRA      4860       1   17828      47     283     125    5946    5949+
+           5948    5982    5984    6821
CTETRA      4861       1   17828   17829   16327     125   17835   16411+
+          16410    5982    1660    5983
CTETRA      4862       1   13567   13570   13568     532   14285   14284+
+          14286    3750    5502    4861
CTETRA      4863       1   15571     173     172     164    4303    1832+
+           8819    4262    1836    1835
CTETRA      4864       1   13647     659     546     354    4774    5102+
+           5821    4775    4764    5823
CTETRA      4865       1   14650      64      60      61    6113    1451+
+           7135    7347    1450    1434
CTETRA      4866       1   13567     540     531     532    3791    3794+
+           3748    3750    4490    3751
CTETRA      4867       1   14737   14738      63     508   15064    5499+
+           4650    4649    5500    3587
CTETRA      4868       1   17637   14763   14730     541   15149   15148+
+          15147    3820    7884    3821
CTETRA      4869       1   14714     373     570       8    2794    7656+
+           6154    4782    6930    6143
CTETRA      4870       1   14648   14703   14649     570   14966   14963+
+          14967    6136    6117    6116
CTETRA      4871       1   14642   14698   14643     368   14945   14949+
+          14950    2740    3818    3817
CTETRA      4872       1   17450     134   17451     252    2623    6581+
+          17456    5897    2602    2391
CTETRA      4873       1   13549     237     137     670    5461    5460+
+           4914    4888    5474    4919
CTETRA      4874       1   17450   14694   14693     336   14918   14917+
+          14915    2624    4185    2625
CTETRA      4875       1   14723   14757   14756      28   15171   15173+
+          15172    1310    2430    5721
CTETRA      4876       1   14723   14724   14757     309   15143   15169+
+          15171    2428    2439    2429
CTETRA      4877       1   13609   13610     447     309   14431    6839+
+           3266    4144    7093    4143
CTETRA      4878       1   13609   13616   13615     447   14448   14450+
+          14449    3266    5523    3267
CTETRA      4879       1   17564     213   13180     556    7689    2011+
+          13292    6862    3931    3930
CTETRA      4880       1   17565   13180     210     556   13291    2006+
+           5495    6863    3930    3932
CTETRA      4881       1   17992     404      97    1113    2992    2994+
+           2991    8835    8836    8837
CTETRA      4882       1   14788   14790   14789     432   15275   15272+
+          15276    7607    5519    5527
CTETRA      4883       1   13605   13606     281     285   14420    3176+
+           2319    2315    2864    2317
CTETRA      4884       1   11570     913     859    1114    8838    8839+
+           8736    8840    8841    8842
CTETRA      4885       1   14770   14771   14775     428   15207   15222+
+          15221    4051    4050    3198
CTETRA      4886       1   14763     482     541     900    7204    7880+
+           7884    7207    7206    8152
CTETRA      4887       1   13561   13562   13583      67   14315   14349+
+          14352    6824    6994    1457
CTETRA      4888       1   17564   14673   14666     213   14833   14835+
+          14801    7689    7695    2546
CTETRA      4889       1   17520   13180     213     212   13299    2011+
+           2520    6857    2009    2012
CTETRA      4890       1   14771   14775     428     281   15222    3198+
+           4050    5675    3183    3178
CTETRA      4891       1   14765   14771      80     285   15209    4053+
+           2855    2858    5676    2859
CTETRA      4892       1   17519   13181   13182     324   13304   13303+
+          13305    5455    2525    7375
CTETRA      4893       1   13634   13648   13637     332   14550   14551+
+          14520    5937    7293    2582
CTETRA      4894       1   13622   13623   13634     434   14468   14511+
+          14510    3192    5513    5515
CTETRA      4895       1   17449     305   17450     300    2834    8014+
+          17457    2835    2821    5883
CTETRA      4896       1   16371   16374     268      50   16607    2245+
+           6943    6645    5019    2263
CTETRA      4897       1   17711   17712   14796     225   17725   15300+
+          15301    2071    5992    2072
CTETRA      4898       1   13622   13634   13635     434   14510   14508+
+          14504    3192    5515    5348
CTETRA      4899       1   14753   14754   14786     113   15176   15255+
+          15256    5877    2506    5242
CTETRA      4900       1   18011   11571   11570     923   11650   11605+
+          11649    7994    7423    8745
CTETRA      4901       1   14754   14783   14786     113   15245   15257+
+          15255    2506    2507    5242
CTETRA      4902       1   17932     835     840    1066    6733    8843+
+           8844    8463    8845    8846
CTETRA      4903       1   17717   14787   14786     111   15262   15261+
+          15260    6342    6343    8647
CTETRA      4904       1   13620   13621   13628     111   14464   14488+
+          14487    1625    1627    6335
CTETRA      4905       1   17894   16778   16779    1068   16831   16803+
+          16832    8847    8848    8849
CTETRA      4906       1   18098   13193   17932      75   13361   13359+
+          17934    1481    8850    1482
CTETRA      4907       1   17716   17717     167     759   17721    3029+
+           6524    5910    5912    6552
CTETRA      4908       1   11570   11571   11579     859   11605   11604+
+          11602    8736    7421    8737
CTETRA      4909       1   17832   16982   17833      20   17109   17110+
+          17840    5737    8851    1274
CTETRA      4910       1   17915     487   16875     488    8852    8853+
+          16930    7106    3502    7107
CTETRA      4911       1   17335   11773      96      95   11858    2980+
+           6121    7054    7844    1569
CTETRA      4912       1   14676     169     333     209    2886    6577+
+           2596    2597    6858    2586
CTETRA      4913       1   14728      78     380     381    4032    4039+
+           3828    3829    4034    2827
CTETRA      4914       1   14730     540   14736     531    4657    3800+
+          15051    4122    3794    5289
CTETRA      4915       1   14645   14717   14716       1   15026   15027+
+          15019    1221    5554    1240
CTETRA      4916       1   13454   13460   13459      94   13943   13944+
+          13934    8828    7515    7514
CTETRA      4917       1   13505   13512   13511     184   14093   14092+
+          14091    2704    1875    4416
CTETRA      4918       1   13473   13558   13557     620   14236   14247+
+          14246    5545    4438    8007
CTETRA      4919       1   14644   14645   14749       2   15028   15124+
+          15123    6419    1214    4447
CTETRA      4920       1   13473   13557       1     620   14246    1201+
+           6425    5545    8007    5555
CTETRA      4921       1   13576   13577   13587     581   14326   14360+
+          14354    4747    6411    5070
CTETRA      4922       1   14725   14751   14732     578   15131   15134+
+          15072    5140    6438    5048
CTETRA      4923       1   13506   13512     184     187   14097    1875+
+           2706    7126    1887    4030
CTETRA      4924       1   13496     356     477     363    2717    3441+
+           3447    2718    2720    3449
CTETRA      4925       1   17599   13507     363     892   14072    3445+
+           3444    8854    7141    8016
CTETRA      4926       1   13518   13542   13540     237   14198   14200+
+          14192    2123    5459    5484
CTETRA      4927       1   14679   14680   14691     237   14866   14907+
+          14908    5473    2126    5475
CTETRA      4928       1   14681   14690     235     183   14896    5999+
+           4846    8709    6009    7351
CTETRA      4929       1   14704   14706   14705     703   14975   14958+
+          14976    5378    5246    5379
CTETRA      4930       1   14659   14706   14702     566   14960   14962+
+          14961    6002    7706    5691
CTETRA      4931       1   17523   17524   13161     675   17538   13236+
+          13284    6890    6641    4953
CTETRA      4932       1   12766   12767   12776     128   13022   13078+
+          13065    2560    2449    5365
CTETRA      4933       1   13437     588   13448     636    5614    7594+
+          13870    5615    5617    5576
CTETRA      4934       1   13539   13541   13540     670   14196   14193+
+          14197    4887    5482    5485
CTETRA      4935       1   11582      95      97     397    1577    1570+
+           1576    2953    2955    6042
CTETRA      4936       1   11573   11582      94      95   11615    8056+
+           2969    1572    1577    1563
CTETRA      4937       1   14688   14689   14691     236   14904   14910+
+          14912    7124    4995    7125
CTETRA      4938       1   14659   14660   14706     431   14860   14957+
+          14960    7707    7775    5245
CTETRA      4939       1   18014     400   11573    1115    8855    2970+
+          11643    8856    8857    8858
CTETRA      4940       1   12706   12726   12719     494   12825   12828+
+          12814    7675    7197    7610
CTETRA      4941       1   17497   17498   12779     685   17501   13050+
+          13049    5701    6642    5096
CTETRA      4942       1   12719   12720     495     417   12829    7259+
+           7609    6276    6278    7249
CTETRA      4943       1   14710     666   14711     667    4816    4810+
+          14994    4817    4819    6909
CTETRA      4944       1   13470     373   13490       7    6145    2779+
+          14004    4786    2783    2782
CTETRA      4945       1   14702     566   14706     565    5691    7706+
+          14962    7700    4001    5243
CTETRA      4946       1   11573      98      95     400    1573    1575+
+           1572    2970    8859    2971
CTETRA      4947       1   18068   16862   18069     449   16947   16950+
+          18072    5478    3273    8566
CTETRA      4948       1   17404   12421     690     691   12524    5177+
+           6422    6026    5178    5180
CTETRA      4949       1   18112   16868     941    1017   16915    7547+
+           8554    8095    8094    8565
CTETRA      4950       1   17981     547   12421     691    7672    8722+
+          12522    8860    8861    5178
CTETRA      4951       1   14702   14707     372     565   14972    3991+
+           7442    7700    3993    3992
CTETRA      4952       1   11987     412   11993     146    7924    6700+
+          12238    1721    7097    7544
CTETRA      4953       1   12009     425     412     411    3115    6382+
+           3040    3042    3116    3043
CTETRA      4954       1   13506   13507     187     363   14079    1945+
+           7126    2719    3445    4854
CTETRA      4955       1   14658   14659   14702     566   14897   14961+
+          15008    5690    6002    5691
CTETRA      4956       1   14646   14647       4       5   15004    1239+
+           7154    1219    1236    1208
CTETRA      4957       1   17641     667   14711     544    7392    6909+
+          14995    3843    6910    3844
CTETRA      4958       1   13554     570     580     617    6140    6135+
+           7127    7129    6126    6138
CTETRA      4959       1   13472   13481   13473     573   13979   13978+
+          13980    4534    4076    6426
CTETRA      4960       1   12775   12777   12778     438   13048   13055+
+          13052    3247    3246    4340
CTETRA      4961       1   13576   13587   13586     581   14354   14355+
+          14339    4747    5070    4748
CTETRA      4962       1   12746   12748     152     433   12912    4991+
+           7627    3173    3172    3721
CTETRA      4963       1   13572   13573     539     551   14302    3789+
+           4857    5789    5788    3911
CTETRA      4964       1   12739   12747   12746     152   12921   12925+
+          12924    4990    3753    7627
CTETRA      4965       1   12739   12760   12759     455   12995   12996+
+          12993    3298    3300    4987
CTETRA      4966       1   12409     454     335     338    6667    4994+
+           2604    2609    8862    2610
CTETRA      4967       1   16043     516       9    1035    3637    8387+
+           7746    8244    8243    8863
CTETRA      4968       1   11932   11933   12012     462   12190   12320+
+          12319    4109    3328    8718
CTETRA      4969       1   12711   12759   12760     455   12998   12996+
+          13001    3324    4987    3300
CTETRA      4970       1   14649   14650   14733      64   14971   15067+
+          15088    7136    6113    4391
CTETRA      4971       1   14733     539   14742     617    4389    4859+
+          15090    7087    4405    4866
CTETRA      4972       1   12738     455     462     951    4986    3329+
+           4988    7624    7626    8864
CTETRA      4973       1   17351     762   12619     763    6089    6083+
+          12687    8865    6087    6086
CTETRA      4974       1   12751     458     433     528    7667    3705+
+           7666    7527    7335    3724
CTETRA      4975       1   13639   13640   13654     142   14524   14573+
+          14572    6828    5772    1799
CTETRA      4976       1   16012     809     172     876    6534    6536+
+           6533    7038    7037    8866
CTETRA      4977       1   15580   15582   15581     314   15804   15802+
+          15803    5863    7119    4680
CTETRA      4978       1   17831     119     141     142    1776    1797+
+           1709    1711    1800    1712
CTETRA      4979       1   17509   17510   13174    1116   17534   13261+
+          13258    8867    8868    8869
CTETRA      4980       1   13581   13592   13591     318   14370   14372+
+          14371    6229    5718    4174
CTETRA      4981       1   17419   12436   17420     829   12554   12555+
+          17440    8870    6693    8871
CTETRA      4982       1   13429   13430   13459      94   13814   13933+
+          13931    1579    8827    7514
CTETRA      4983       1   14745   14746   14748     317   15104   15112+
+          15115    6235    2736    2476
CTETRA      4984       1   14698     175   14700     197    7435    1931+
+          14952    3815    1935    1934
CTETRA      4985       1   17466   12618     889    1007   12686    7130+
+           8872    8873    8031    8033
CTETRA      4986       1   17556   13177     318     893   13277    3252+
+           3251    8874    7166    8875
CTETRA      4987       1   17465   12619   17466     942   12691   12690+
+          17492    8876    7552    8034
CTETRA      4988       1   17349   17350   12620     950   17374   12692+
+          12693    7604    8877    7605
CTETRA      4989       1   14720   14754   14753     619   15174   15176+
+          15166    4430    4420    5876
CTETRA      4990       1   17466   12618   17467     890   12686   12685+
+          17491    8878    7132    8879
CTETRA      4991       1   17510   17511   13175    1096   17536   13273+
+          13263    8653    8880    8881
CTETRA      4992       1   17682     594   16031    1022    8135    4249+
+          16140    8882    8125    8124
CTETRA      4993       1   17555     440   14720    1103    7162    4427+
+          15105    8743    8883    8884
CTETRA      4994       1   17301   17302   12413     781   17319   12582+
+          12581    7485    8885    6217
CTETRA      4995       1   14764   14767   14765      65   15189   15191+
+          15190    1453    1452    2857
CTETRA      4996       1   14766     285     383     221    4044    2851+
+           3068    2055    2314    2854
CTETRA      4997       1   17302   12414   12413     781   12579   12493+
+          12582    8885    6218    6217
CTETRA      4998       1   17760   15317   15318     750   15364   15369+
+          15368    5848    5847    7169
CTETRA      4999       1   14776     332     281     282    3160    3188+
+           2296    2299    3162    2300
CTETRA      5000       1   11950   11951   11955     439   12091   12100+
+          12101    5124    5085    5087
CTETRA      5001       1   11950   11957     344     439   12109    6664+
+           6759    5124    6665    5108
CTETRA      5002       1   16330      93      92     170    5782    1558+
+           4475    8342    4981    8609
CTETRA      5003       1   12766   12770   12767     128   13021   13003+
+          13022    2560    2450    2449
CTETRA      5004       1   11581      94   11582     396    8057    8056+
+          11614    5991    8886    2951
CTETRA      5005       1   13630   13631   13633     282   14500   14505+
+          14506    7900    6030    3190
CTETRA      5006       1   11941   11952   11951     128   12084   12088+
+          12087    5133    1667    5134
CTETRA      5007       1   16365   16377     749     750   16644    6260+
+           5837    5840    5862    5841
CTETRA      5008       1   11669    1050    1080    1111    8777    8545+
+           8887    8778    8780    8888
CTETRA      5009       1   17927   16984   17928    1078   17123   17122+
+          17930    8537    8889    8538
CTETRA      5010       1   17603   17604   13463     720   17612   13954+
+          13955    8890    5405    5407
CTETRA      5011       1   17986   17987   11660    1117   17989   11712+
+          11714    8891    8892    8893
CTETRA      5012       1   11669    1080    1118    1111    8887    8894+
+           8895    8778    8888    8896
CTETRA      5013       1   17986   17264   11677    1119   11734   11733+
+          11735    8897    8898    8899
CTETRA      5014       1   11937   11945   11938     494   12073   12067+
+          12074    5418    6702    8500
CTETRA      5015       1   18089   17330   11756      86   17339   11791+
+          11790    4933    5893    5892
CTETRA      5016       1   11660     812     813     919    8900    6562+
+           8156    7377    8901    8155
CTETRA      5017       1   11660   11661   11669    1026   11680   11679+
+          11678    8527    8528    8902
CTETRA      5018       1   17381     442   15327    1053    5697    5699+
+          15415    8377    8379    8378
CTETRA      5019       1   18049   16770   16769    1120   16849   16806+
+          16848    8903    8904    8905
CTETRA      5020       1   18114   18033   13463      32   18035   13957+
+          13956    1996    1337    1329
CTETRA      5021       1   17986     755   11669    1079    5888    8766+
+          11715    8768    8906    8541
CTETRA      5022       1   12440     311     364     734    6068    2725+
+           5656    5654    8907    5655
CTETRA      5023       1   17524   17525   13169     881   17531   13233+
+          13235    7051    8734    7052
CTETRA      5024       1   11928   11988   11929     558   12213   12214+
+          12042    7874    7068    7067
CTETRA      5025       1   17261   11674     678    1121   11727    5023+
+           8908    8909    8910    8911
CTETRA      5026       1   12780   12782     344     346   13070    5504+
+           5099    2648    5936    6662
CTETRA      5027       1   11667   11668   11677      86   11710   11709+
+          11708    4937    1962    4923
CTETRA      5028       1   17986     756     755    1122    5889    5891+
+           5888    8912    8913    8914
CTETRA      5029       1   17262   11675   17263     484   11729   11730+
+          17272    4040    3477    8915
CTETRA      5030       1   11955     330     439     331    4771    5109+
+           5087    4772    2564    6169
CTETRA      5031       1   17199     205     206    1027    8916    1981+
+           8169    8172    8917    8173
CTETRA      5032       1   11662   11663     190     191   11690    1898+
+           8524    8918    1899    1901
CTETRA      5033       1   17258   11671   11672     696   11721   11687+
+          11722    7203    5195    8919
CTETRA      5034       1   13564   13573     551     380   14299    5788+
+           4749    6972    3827    3912
CTETRA      5035       1   17259   11672     797     796   11723    6448+
+           6447    7230    6443    7593
CTETRA      5036       1   13467   13468   13552      61   14031   14263+
+          14254    1438    1433    1435
CTETRA      5037       1   16771    1088    1018    1019    8600    8920+
+           8100    8103    8921    8104
CTETRA      5038       1   18027   11663   11662     191   11751   11690+
+          11750    8804    1899    8918
CTETRA      5039       1   11669   11670     257    1123   11681    2188+
+           8053    8922    8923    8924
CTETRA      5040       1   17742   16224   16223     574   16299   16298+
+          16295    8925    4087    4086
CTETRA      5041       1   13496   13507   13506     363   14077   14079+
+          14078    2718    3445    2719
CTETRA      5042       1   17599   17600   13507     892   17615   14073+
+          14072    8854    7139    7141
CTETRA      5043       1   17643     363   14663    1124    3435    4855+
+          14955    8926    8927    8928
CTETRA      5044       1   17643     199   15343    1124    8163    8164+
+          15498    8926    8929    8930
CTETRA      5045       1   18051   18052   16772     328   18053   16842+
+          16845    8931    8932    2535
CTETRA      5046       1   13507   13514     199     887   14096    1995+
+           2871    7111    7110    8933
CTETRA      5047       1   18026   18027   11662     791   18042   11750+
+          11753    8934    8935    6364
CTETRA      5048       1   14765   14766   14772     285   15199   15215+
+          15211    2858    4044    2318
CTETRA      5049       1   11661   11671   11670     255   11684   11683+
+          11682    8789    7227    2185
CTETRA      5050       1   18025   13662   13464      31   14626   14640+
+          13961    8180    8161    8936
CTETRA      5051       1   17733     964   15626     784    8937    7728+
+          15956    8938    8939    6239
CTETRA      5052       1   12437     127   12438     652    3560    4704+
+          12508    8707    4703    4702
CTETRA      5053       1   16366   16376   16367     639   16636   16634+
+          16639    6049    6175    6582
CTETRA      5054       1   15534   15535   15548     639   15650   15649+
+          15648    6590    4596    6591
CTETRA      5055       1   16376   16387   16388     272   16678   16684+
+          16685    5962    5967    6162
CTETRA      5056       1   15590       9     637      13    1251    4631+
+           4592    1253    1252    4593
CTETRA      5057       1   11770      96     610     254    4553    4555+
+           4554    6122    2378    4359
CTETRA      5058       1   11582      94      95     396    8056    1563+
+           1577    2951    8886    2952
CTETRA      5059       1   15550     267     170      50    8940    6939+
+           6936    6937    6633    5018
CTETRA      5060       1   11761   11772     319     610   11854    6226+
+           5577    4580    4556    4566
CTETRA      5061       1   17687   17688   16025     815   17691   16128+
+          16129    8941    8300    6587
CTETRA      5062       1   13529   13530   13539     670   14159   14194+
+          14195    7622    7615    4887
CTETRA      5063       1   17992   11573   18115      98   11642   11644+
+          17993    8942    1573    6868
CTETRA      5064       1   17670   16043   16044     844   16164   16120+
+          16165    8943    8944    6793
CTETRA      5065       1   15534   15595   15594     638   15828   15829+
+          15825    6274    6273    4587
CTETRA      5066       1   15534   15594   15535     639   15825   15824+
+          15650    6590    4597    4596
CTETRA      5067       1   11570   11579      37     996   11602    7752+
+           1346    8738    8740    8945
CTETRA      5068       1   16399   16402   16404      13   16733   16744+
+          16743    4625    1296    6485
CTETRA      5069       1   17712   14793   14796     225   15288   15298+
+          15300    5992    2574    2072
CTETRA      5070       1   13429   13435   13430      94   13813   13812+
+          13814    1579    1578    8827
CTETRA      5071       1   11573     400      94    1115    2970    2972+
+           2969    8858    8857    8946
CTETRA      5072       1   11773      97      96      95    2978    1566+
+           2980    7844    1570    1569
CTETRA      5073       1   18013   18014   11572     821   18017   11646+
+          11645    7857    8059    6630
CTETRA      5074       1   13432   13435   13433      95   13810   13824+
+          13825    1568    1581    2380
CTETRA      5075       1   18051   16772   16771     328   16845   16814+
+          16844    8931    2535    8599
CTETRA      5076       1   17992      97   11573      98    2991    1571+
+          11642    8942    1574    1573
CTETRA      5077       1   18085   11755   17210    1076   11786   11788+
+          17225    8947    8522    8521
CTETRA      5078       1   17826      44      45      43    1374    6304+
+           1385    1370    1365    1376
CTETRA      5079       1   17825   16386   16384      46   16672   16674+
+          16664    3219    1382    8563
CTETRA      5080       1   11567   11577   11576    1125   11593   11592+
+          11590    8948    8949    8950
CTETRA      5081       1   17876   15317   15315     262   15366   15365+
+          15362    5211    4571    5188
CTETRA      5082       1   17527   13168     228     227   13228    8951+
+           8952    8953    8954    2076
CTETRA      5083       1   11567   11576    1011    1125   11590    8955+
+           8956    8948    8950    8957
CTETRA      5084       1   16025     639     815    1044    6584    6588+
+           6587    8302    8958    8303
CTETRA      5085       1   15544   15547   15545     271   15642   15644+
+          15643    5311    5339    2258
CTETRA      5086       1   11568     229   11577     910    2078    8555+
+          11594    7302    7304    8548
CTETRA      5087       1   18001   18111    1084    1126   18005    8959+
+           8574    8960    8961    8962
CTETRA      5088       1   17712   15552      47      48   15664    8809+
+           5985    3213    1393    1389
CTETRA      5089       1   17762   15316     630     760   15353    4547+
+           7233    8829    6017    6019
CTETRA      5090       1   17889   16774   17890     140   16822   16823+
+          17899    8963    1706    1705
CTETRA      5091       1   15554   15555   15559     436   15695   15704+
+          15705    6649    5032    3201
CTETRA      5092       1   17877   15315   15316     630   15361   15360+
+          15357    4546    7234    4547
CTETRA      5093       1   16773      51     165      52    1403    8964+
+           7801    1406    1405    8965
CTETRA      5094       1   16871     423   16872     804    6476    6499+
+          16892    8121    6498    6497
CTETRA      5095       1   17909   16869   16870     664   16918   16884+
+          16919    7505    8966    4802
CTETRA      5096       1   17826   16975      34     450   17072    3302+
+           7815    3276    8967    8088
CTETRA      5097       1   16860   16861   16869      35   16883   16882+
+          16881    5899    6474    6873
CTETRA      5098       1   18068   16863   16862     572   16948   16891+
+          16947    5486    7655    4069
CTETRA      5099       1   13454   13460      94     859   13943    7515+
+           8828    7960    7522    7219
CTETRA      5100       1   15577     162   15578     158    1780    4224+
+          15783    1782    1781    4226
CTETRA      5101       1   13428   13429     250      95   13823    2198+
+           2411    7433    1580    7055
CTETRA      5102       1   18067   16863   18068     725   16945   16948+
+          18073    5492    5494    8968
CTETRA      5103       1   13416   13417   13418      35   13789   13801+
+          13799    1367    1341    5472
CTETRA      5104       1   16308     170      49     171    4972    1826+
+           4740    4742    1830    1829
CTETRA      5105       1   17799   16008   17800     777   16204   16203+
+          17821    8969    6194    8970
CTETRA      5106       1   18001     326     165    1084    2530    7007+
+           8454    8574    8576    8971
CTETRA      5107       1   18001   18111   17897    1084   18005   17907+
+          16838    8574    8959    8972
CTETRA      5108       1   15549   15550   15557     267   15679   15700+
+          15699    8973    8940    5957
CTETRA      5109       1   18001    1084     165    1126    8574    8971+
+           8454    8960    8962    8974
CTETRA      5110       1   18002   18117   16764    1043   18003   16816+
+          16815    8297    8529    8298
CTETRA      5111       1   17891   16776   17892    1127   16826   16827+
+          17901    8975    8976    8977
CTETRA      5112       1   13379   13380   13640     141   13704   14591+
+          14539    8978    1801    3905
CTETRA      5113       1   17832      20     296     142    5737    5732+
+           5738    1713    5736    5735
CTETRA      5114       1   18111   16773   17889      51   16820   16821+
+          17898    8979    1403    1402
CTETRA      5115       1   15572     420     314     288    5968    4673+
+           7364    5970    5969    6472
CTETRA      5116       1   17507   13160     296     818   13252    6337+
+           6336    8684    6605    7471
CTETRA      5117       1   15537   15578   15538     158   15788   15778+
+          15789    3901    4226    1767
CTETRA      5118       1   16307   16370   16369      48   16624   16623+
+          16622    1390    1401    3206
CTETRA      5119       1   16959     422     426     350    3122    5276+
+           3126    3123    3125    5277
CTETRA      5120       1   16370      50     436      48    1400    5034+
+           8807    1401    1398    3207
CTETRA      5121       1   16326     420     116     117    3846    3840+
+           1657    1656    3852    1635
CTETRA      5122       1   15550     267      92     170    8940    4908+
+           8608    6936    6939    8609
CTETRA      5123       1   15541      93   15566     171    1557    1790+
+          15741    4979    4982    7928
CTETRA      5124       1   17788   16020     215     625   16179    2033+
+           6543    5324    4504    8980
CTETRA      5125       1   16389      14      59     216    8796    6208+
+           2036    2038    7326    2039
CTETRA      5126       1   17416   12433   17417     871   12548   12549+
+          17437    6987    6986    8981
CTETRA      5127       1   17760   15318   18104     938   15368   15370+
+          17767    8634    7529    7528
CTETRA      5128       1   14727   14739   14728     520   15075   15074+
+          15076    3653    7750    4035
CTETRA      5129       1   17851   16219   17852    1128   16268   16267+
+          17868    8982    8983    8984
CTETRA      5130       1   14644     197     620     370    6415    5549+
+           6417    6416    6230    4441
CTETRA      5131       1   16345      83   16352      88    7214    6808+
+          16517    7215    7216    7725
CTETRA      5132       1   15633     266     497     512    3854    5829+
+           3604    3607    3856    3608
CTETRA      5133       1   15618   15621   15625      88   15940   15946+
+          15945    1537    1536    6067
CTETRA      5134       1   13565   13576   13586     579   14320   14339+
+          14338    4153    4155    4746
CTETRA      5135       1   17851   16218   16219     407   16262   16274+
+          16268    8985    3010    4536
CTETRA      5136       1   17417   12433   12434     871   12549   12490+
+          12550    8981    6986    8715
CTETRA      5137       1   17848   16216   17849     745   16257   16255+
+          17865    8354    5776    5775
CTETRA      5138       1   17850   16218   17851     407   16261   16262+
+          17866    3008    3010    8985
CTETRA      5139       1   16312   16313   16393      56   16584   16698+
+          16699    1421    7492    5326
CTETRA      5140       1   15625   15627   15628     203   15960   15964+
+          15963    6066    1974    3620
CTETRA      5141       1   16390   16395   16393     216   16706   16710+
+          16709    6287    2040    5325
CTETRA      5142       1   15538     156   15539     157    1764    3908+
+          15730    1766    1765    3869
CTETRA      5143       1   16367   16375   16368     639   16631   16630+
+          16632    6582    8440    8441
CTETRA      5144       1   16313   16394   16393     144   16700   16703+
+          16698    7493    6285    2110
CTETRA      5145       1   18103   16025   17688    1044   16127   16128+
+          17689    8986    8302    8301
CTETRA      5146       1   16005   16025     639     272   16045    6584+
+           6177    8106    6586    6585
CTETRA      5147       1   15541      92      93     170    1555    1558+
+           1557    4978    8609    4981
CTETRA      5148       1   16371     268     271      50    6943    2259+
+           7273    6645    2263    2262
CTETRA      5149       1   16005     272     639     770    8106    6585+
+           6177    6164    8987    6176
CTETRA      5150       1   16309   16330      92     170   16430    4475+
+           4474    6938    8342    8609
CTETRA      5151       1   17956   16970   16958     362   17051   17061+
+          17005    8581    2710    2709
CTETRA      5152       1   16026     268   16027    1129    2271    2247+
+          16050    8988    8989    8990
CTETRA      5153       1   16025     272   16026     273    6586    2270+
+          16046    8275    2273    2272
CTETRA      5154       1   15597      13     638     220    4594    4638+
+           4588    2049    5292    4656
CTETRA      5155       1   15550   15556     267      50   15703    5958+
+           8940    6937    2265    6633
CTETRA      5156       1   16771   16772   16781    1088   16814   16813+
+          16812    8600    8602    8991
CTETRA      5157       1   16009   16010   16030      92   16065   16064+
+          16063    4482    4257    4311
CTETRA      5158       1   16006   16007     268     863   16053    6947+
+           2275    8992    6948    6950
CTETRA      5159       1   15592     217     749     750    4542    5838+
+           6254    6256    5842    5841
CTETRA      5160       1   15545   15546   15556     268   15656   15686+
+          15688    2260    8115    2264
CTETRA      5161       1   17684   16028   16029     775   16135   16058+
+          16136    7774    6186    7763
CTETRA      5162       1   16343   16344   16364     266   16527   16594+
+          16599    2229    7727    2230
CTETRA      5163       1   13607   13615   13622     428   14444   14467+
+          14465    3129    3261    3179
CTETRA      5164       1   16013   16014   16033     156   16079   16078+
+          16077    6537    5873    4187
CTETRA      5165       1   16346   16359      83      82   16563    7732+
+           7213    6547    8993    1510
CTETRA      5166       1   15629   15630   15634     266   15972   15990+
+          15992    2786    4897    2787
CTETRA      5167       1   17976     639   16025     843    8417    6584+
+          16126    6788    8428    8994
CTETRA      5168       1   16043       9   16044     844    7746    6791+
+          16120    8944    6794    6793
CTETRA      5169       1   16023   16024   16043       9   16119   16118+
+          16117    5319    4640    7746
CTETRA      5170       1   17976     637   17977     639    6787    8320+
+          17979    8417    4598    7014
CTETRA      5171       1   17669   17670   16044     844   17701   16165+
+          16166    8995    8943    6793
CTETRA      5172       1   16349   16350   16356     302   16515   16547+
+          16549    3542    2393    2395
CTETRA      5173       1   17677   16036     429     714   16150    3136+
+           7963    8996    5334    7865
CTETRA      5174       1   16364     266     156     157    2230    3909+
+           7796    2232    2231    1765
CTETRA      5175       1   13572     551     539     617    5789    3911+
+           4857    4858    4867    4405
CTETRA      5176       1   17787   16021    1130     713   16177    8997+
+           8998    8999    5330    9000
CTETRA      5177       1   16346      88     153      82    4522    6061+
+           6232    6547    1540    6675
CTETRA      5178       1   16390   16402      14      23   16734    1292+
+           7663    6301    4103    6355
CTETRA      5179       1   17680   16032   16033     582   16143   16076+
+          16144    8210    5846    4188
CTETRA      5180       1   16013   16014     156     972   16079    5873+
+           6537    7804    8395    7805
CTETRA      5181       1   17794   16013   17795     972   16194   16193+
+          17816    8394    7804    9001
CTETRA      5182       1   17793   17794   16364     717   17815   16603+
+          16595    5356    5358    9002
CTETRA      5183       1   17792   16015   17793     375   16190   16189+
+          17814    4517    2777    2776
CTETRA      5184       1   17732   15627   15626     204   15967   15958+
+          15966    1975    1977    6149
CTETRA      5185       1   16349   16352   16350     497   16514   16516+
+          16515    3541    6810    5834
CTETRA      5186       1   13619   13620   13627     167   14460   14485+
+          14481    1837    5232    8162
CTETRA      5187       1   14754   14755   14783     174   15181   15244+
+          15245    2504    2499    2505
CTETRA      5188       1   14786     113     167     111    5242    5231+
+           3030    8647    1626    6507
CTETRA      5189       1   17686   16026   16027    1129   16131   16050+
+          16132    9003    8988    8990
CTETRA      5190       1   17685   16027   16028      68   16133   16054+
+          16134    1462    1464    9004
CTETRA      5191       1   17732   15626   17733     964   15966   15956+
+          17758    9005    7728    8937
CTETRA      5192       1   17735   15598   17736     408   15848   15849+
+          17745    3012    3014    4537
CTETRA      5193       1   14765   14772   14771     285   15211   15210+
+          15209    2858    2318    5676
CTETRA      5194       1   17733   15626   17734     784   15956   15955+
+          17756    8938    6239    6238
CTETRA      5195       1   17593   15329   15345     541   15508   15504+
+          15506    4124    8097    8096
CTETRA      5196       1   14729     540   14730     541    3798    4657+
+          15052    4118    4117    3821
CTETRA      5197       1   14736     531     540     532    5289    3794+
+           3800    3796    3751    4490
CTETRA      5198       1   13636     225     353     192    6290    2671+
+           6289    7313    2552    6886
CTETRA      5199       1   17711   14796   14797     226   15301   15303+
+          15306    2073    2074    2652
CTETRA      5200       1   13637   13648   13646     354   14551   14559+
+          14557    6307    4776    6296
CTETRA      5201       1   15594   15595   15597     638   15829   15846+
+          15845    4587    6273    4588
CTETRA      5202       1   15594     637     639     638    4586    4598+
+           4597    4587    4589    6052
CTETRA      5203       1   17743   15591   15596     220   15836   15835+
+          15834    4658    2048    2050
CTETRA      5204       1   13656     546     353     354    5822    5827+
+           5832    5824    5823    2675
CTETRA      5205       1   16400   16404   16403      13   16741   16742+
+          16737    4637    6485    6241
CTETRA      5206       1   14791   14792   14793     354   15283   15286+
+          15285    4765    8001    2673
CTETRA      5207       1   14784     546     167     168    3871    3873+
+           1817    1820    5104    1821
CTETRA      5208       1   13618   13619   13626     168   14455   14479+
+          14478    7575    1839    1840
CTETRA      5209       1   13618   13626   13625     168   14478   14477+
+          14476    7575    1840    5430
CTETRA      5210       1   13574   13575     541     381   14318    4126+
+           4120    2826    7217    4119
CTETRA      5211       1   14654     557     537     490    8187    4075+
+           3780    3782    3942    3779
CTETRA      5212       1   14699   14701   14700     196   14948   14954+
+          14953    6322    6321    1933
CTETRA      5213       1   14699     196   14700     175    6322    1933+
+          14953    7434    1932    1931
CTETRA      5214       1   15574     286     314     287    2323    6470+
+           7363    2324    2326    4684
CTETRA      5215       1   14643   14700   14644     197   14951   15022+
+          15025    3816    1934    6415
CTETRA      5216       1   13475   13560   13559     368   14239   14241+
+          14240    3836    2751    3837
CTETRA      5217       1   15582   15583   15584     287   15808   15810+
+          15814    6466    7740    2325
CTETRA      5218       1   18099     112   17718     291    9006    1620+
+          17727    6373    8803    2339
CTETRA      5219       1   17641   14652   14711     667   14997   14996+
+          14995    7392    6846    6909
CTETRA      5220       1   16322   16335   16336     287   16462   16461+
+          16457    4683    4685    7366
CTETRA      5221       1   17717   15574   17718     286   15769   15770+
+          17722    2327    2323    2341
CTETRA      5222       1   18046   16766     387     550   16854    2893+
+           8304    8308    3897    3899
CTETRA      5223       1   13169     859     559     881    7516    7030+
+           3953    7052    9007    7053
CTETRA      5224       1   18045     389   16765     390    9008    2906+
+          16856    9009    2910    2909
CTETRA      5225       1   16342   16343     157     512   16524    2025+
+           2024    4175    4865    3855
CTETRA      5226       1   17795   16013     971     972   16193    7803+
+           9010    9001    7804    7806
CTETRA      5227       1   17335   11960   17336     301   12127   12128+
+          17344    5381    5382    3420
CTETRA      5228       1   16016      83   16036     266    3657    3134+
+          16089    4145    4896    4149
CTETRA      5229       1   16014   16015     266     374   16083    4146+
+           4891    2805    2774    5872
CTETRA      5230       1   16962   16963   16967     326   17022   17029+
+          17028    7017    5621    7020
CTETRA      5231       1   16314   16341   16315     156   16508   16500+
+          16509    7795    9011    3862
CTETRA      5232       1   15580     287     314     917    7120    4684+
+           5863    7367    9012    7368
CTETRA      5233       1   17991   11582   17992      97   11640   11641+
+          17994    2998    1576    2991
CTETRA      5234       1   17335   17336     250     301   17344    2203+
+           4491    5381    3420    2384
CTETRA      5235       1   17938   17939   13401     132   17949   13715+
+          13720    1677    5639    1678
CTETRA      5236       1   17450   17451   12722     301   17456   12811+
+          12810    5896    2392    2628
CTETRA      5237       1   13523     169     134     343    1822    2361+
+           2354    2631    2875    2632
CTETRA      5238       1   18012   11571     923     924   11647    7423+
+           7995    9013    7424    7426
CTETRA      5239       1   16347   16360   16358      58   16576   16575+
+          16559    3154    1424    6546
CTETRA      5240       1   14659   14681   14660     431   14859   14858+
+          14860    7707    7147    7775
CTETRA      5241       1   13185     176     178     535    1852    1851+
+           1850    3770    9014    3771
CTETRA      5242       1   17560     176   13185     535    1856    1852+
+          13317    9015    9014    3770
CTETRA      5243       1   12610   12611     425     945   12644    6619+
+           6618    7564    9016    8723
CTETRA      5244       1   17977   18108   17803     772   17978   17804+
+          16122    6171    6170    9017
CTETRA      5245       1   17715   14784   14779     546   15250   15241+
+          15248    5930    3871    6327
CTETRA      5246       1   17716     546     119     808    5929    5810+
+           5908    6525    8646    6526
CTETRA      5247       1   13639   13654   13650     119   14572   14574+
+          14565    7903    1798    5808
CTETRA      5248       1   14754     316   14755     174    4422    5727+
+          15181    2504    2488    2499
CTETRA      5249       1   13602      25     440     316    2472    3229+
+           5878    2473    2475    4428
CTETRA      5250       1   17554   13174     619    1131   13260    7224+
+           7223    9018    9019    9020
CTETRA      5251       1   13175     440    1103    1132    7161    8883+
+           8742    9021    9022    9023
CTETRA      5252       1   15534     639     272     749    6590    6585+
+           6592    6244    6048    5963
CTETRA      5253       1   13174     645    1133    1116    9024    9025+
+           9026    8869    9027    9028
CTETRA      5254       1   17801   16006   17802    1060   16208   16207+
+          17823    9029    8425    9030
CTETRA      5255       1   16384   16386   16385      46   16674   16676+
+          16671    8563    1382    3217
CTETRA      5256       1   16382   16383   16385     630   16660   16670+
+          16666    7237    6021    6020
CTETRA      5257       1   15544   15555   15554     632   15693   15695+
+          15694    5312    5314    6648
CTETRA      5258       1   13177     440     318     893    6934    5720+
+           3252    7166    7165    8875
CTETRA      5259       1   15555   15558   15559     436   15698   15706+
+          15704    5032    6637    3201
CTETRA      5260       1   17512   13176   13177     318   13271   13279+
+          13278    6927    3253    3252
CTETRA      5261       1   17912     805   16872    1134    8494    6500+
+          16924    9031    9032    9033
CTETRA      5262       1   15545   15555     271      50   15691    5030+
+           2258    2261    5031    2262
CTETRA      5263       1   16370   16380   16385     436   16669   16665+
+          16667    8807    5317    3216
CTETRA      5264       1   15559   15560   15561      45   15712   15716+
+          15715    3199    3211    3200
CTETRA      5265       1   13558     620     197     370    4438    5549+
+           6420    4439    4441    6230
CTETRA      5266       1   16380   16382   16385     436   16658   16666+
+          16665    5317    6646    3216
CTETRA      5267       1   13555   13556       4       5   14244    1207+
+           6599    7657    1209    1208
CTETRA      5268       1   13467      62     703      61    1437    5390+
+           6107    1438    1440    6109
CTETRA      5269       1   14662   14663   14709     363   14881   14977+
+          14982    4853    4855    3453
CTETRA      5270       1   17475   12611   12610     945   12645   12644+
+          12641    9034    9016    7564
CTETRA      5271       1   13437   13448   13447     636   13870   13872+
+          13871    5615    5576    5575
CTETRA      5272       1   11665   11674     588     278   11697    4218+
+           5038    4229    4220    4219
CTETRA      5273       1   18106   16225     217     218   16303    2042+
+           2053    8447    2044    2043
CTETRA      5274       1   18106     217   15318     894    2053    2052+
+          15373    8388    7171    7170
CTETRA      5275       1   16370      50   16380     436    1400    8194+
+          16669    8807    5034    5317
CTETRA      5276       1   15543   15554   15553     630   15689   15690+
+          15683    5206    7231    6027
CTETRA      5277       1   13436   13447   13446     610   13874   13875+
+          13873    7168    6124    6123
CTETRA      5278       1   13436     610     129     636    7168    7301+
+           5955    6268    4583    5616
CTETRA      5279       1   16389   16396   16395      59   16713   16714+
+          16707    2036    2427    2037
CTETRA      5280       1   15586   15605   15603      57   15862   15866+
+          15868    6679    3017    3016
CTETRA      5281       1   13436   13437   13447     636   13830   13871+
+          13874    6268    5615    5575
CTETRA      5282       1   16221      23   16222     258    3561    5740+
+          16288    2192    5741    2193
CTETRA      5283       1   16021      14      59     713    5329    6208+
+           4503    5330    5332    9035
CTETRA      5284       1   17333   17334   11762     130   17342   11846+
+          11828    5951    2828    5952
CTETRA      5285       1   17191   17192   11506    1059   17204   11536+
+          11525    8631    8633    9036
CTETRA      5286       1   17360   12610   12611     246   12638   12644+
+          12642    2153    6620    2154
CTETRA      5287       1   18064   16866    1135    1098   16939    9037+
+           9038    9039    9040    9041
CTETRA      5288       1   17582   17583   13410      18   17606   13754+
+          13753    2658    9042    2659
CTETRA      5289       1   16210     519      55     973    7242    6228+
+           8352    7812    7811    9043
CTETRA      5290       1   16389   16395   16390     216   16707   16706+
+          16708    2038    2040    6287
CTETRA      5291       1   17583   13663   13410      18   14634   14635+
+          13754    9042    9044    2659
CTETRA      5292       1   16389   16390      14     216   16708    7663+
+           8796    2038    6287    7326
CTETRA      5293       1   17504   13192     836     198   13353    8472+
+           6736    1946    1948    9045
CTETRA      5294       1   18012   11572   11571     820   11648   11609+
+          11647    8054    6629    8825
CTETRA      5295       1   16867      12     908    1136    1250    9046+
+           9047    9048    9049    9050
CTETRA      5296       1   15590   15593   15594     637   15839   15823+
+          15840    4592    6583    4586
CTETRA      5297       1   16780     616   16781     802    6462    8251+
+          16811    6463    6465    8191
CTETRA      5298       1   17997   18063   18116      17   16938   18076+
+          17998    1265    9051    1273
CTETRA      5299       1   17474   12612   12611     825   12649   12655+
+          12654    9052    6660    6659
CTETRA      5300       1   18050   18051   16771    1018   18061   16844+
+          16847    9053    8101    8100
CTETRA      5301       1   17935     839     837     834    7324    6755+
+           7267    6730    7325    7269
CTETRA      5302       1   17960   17961   16968     616   17969   17039+
+          17040    4398    8384    4399
CTETRA      5303       1   13476     196   13478     176    1942    6529+
+          13976    9054    6324    7977
CTETRA      5304       1   18071   16860   16859      42   16953   16879+
+          16912    1361    4488    1362
CTETRA      5305       1   17474   12612     825    1100   12649    6660+
+           9052    9055    8687    9056
CTETRA      5306       1   12612     425     825    1100    6623    6661+
+           6660    8687    8689    9056
CTETRA      5307       1   17927   15319   15320    1137   15378   15377+
+          15376    9057    9058    9059
CTETRA      5308       1   16872     423     361     805    6499    6487+
+           6506    6500    6502    9060
CTETRA      5309       1   17927   15320   18113    1137   15376   15379+
+          17929    9057    9059    9061
CTETRA      5310       1   16872     805     361    1134    6500    9060+
+           6506    9033    9032    9062
CTETRA      5311       1   16864   16865   16874    1138   16901   16900+
+          16899    9063    9064    9065
CTETRA      5312       1   18067   16864   16863     681   16946   16897+
+          16945    9066    5054    7650
CTETRA      5313       1   16863     724     361     725    5491    9067+
+           6493    5494    5493    6495
CTETRA      5314       1   16865    1086    1023     966    8586    9068+
+           9069    7761    9070    9071
CTETRA      5315       1   13402   13403   13404     426   13713   13722+
+          13723    5275    6073    8178
CTETRA      5316       1   16958   16970   16973     361   17061   17065+
+          17066    2708    2707    5047
CTETRA      5317       1   13399   13405   13403     361   13729   13727+
+          13710    8131    4065    4064
CTETRA      5318       1   17940   17941   13403     761   17946   13709+
+          13711    6074    8676    6075
CTETRA      5319       1   17359   17360   12611     245   17368   12642+
+          12643    9072    2152    2151
CTETRA      5320       1   17506   13194     698     969   13363    5209+
+           8017    7770    7772    9073
CTETRA      5321       1   18113    1137   15320     785    9061    9059+
+          15379    8562    9074    6281
CTETRA      5322       1   16767      53   16768      76    1411    1410+
+          16796    8306    9075    1484
CTETRA      5323       1   17885   13192   13194    1139   13369   13364+
+          13370    9076    9077    9078
CTETRA      5324       1   18063   16867   18064    1136   16937   16940+
+          18077    9079    9048    9080
CTETRA      5325       1   18064   16867   16866    1098   16940   16909+
+          16939    9039    9081    9040
CTETRA      5326       1   18064   16866   18065    1135   16939   16942+
+          18080    9038    9037    9082
CTETRA      5327       1   17885   13194      21    1139   13370    9083+
+           9084    9076    9078    9085
CTETRA      5328       1   18107   17833      21      22   17839    1276+
+           9086    8680    1277    1279
CTETRA      5329       1   16972   16975   16976     423   17074   17076+
+          17075    7189    3305    7337
CTETRA      5330       1   16864   16873     361     979   16896    5059+
+           7649    7841    7843    9087
CTETRA      5331       1   17833     296      20     988    5739    5732+
+           1274    7895    8456    7896
CTETRA      5332       1   14743   14748     317      26   15113    2476+
+           5113    7947    6844    6245
CTETRA      5333       1   14700   14701   14717     196   14954   15032+
+          15024    1933    6321    6538
CTETRA      5334       1   16773     165     141      52    7801    7800+
+           7798    1406    8965    9088
CTETRA      5335       1   18001     165   16773      51    8454    7801+
+          16819    9089    8964    1403
CTETRA      5336       1   17512   13592   13581     318   14365   14370+
+          14331    6927    5718    6229
CTETRA      5337       1   17555   13177   17556     893   13276   13277+
+          17571    7164    7166    8874
CTETRA      5338       1   13653     163     119     161    1895    5809+
+           6564    6568    6317    1779
CTETRA      5339       1   13653     119   13654     161    6564    1798+
+          14578    6568    1779    1803
CTETRA      5340       1   11567     706   11568     910    9090    5262+
+          11595    8547    9091    7302
CTETRA      5341       1   17830   16965   17831     161   17023   17024+
+          17836    1777    1805    1778
CTETRA      5342       1   17831   16965     141     161   17024    1785+
+           1709    1778    1805    1804
CTETRA      5343       1   16007   16008   16028     267   16057   16056+
+          16055    7969    6189    6185
CTETRA      5344       1   13396     161   13397     485    8305    1813+
+          13693    7103    7011    3488
CTETRA      5345       1   16871     905     423     906    7276    8793+
+           6476    7279    7278    9092
CTETRA      5346       1   18008   11568   11567     706   11656   11595+
+          11655    5260    5262    9090
CTETRA      5347       1   18082   13168     940    1095   13226    7542+
+           7541    9093    9094    9095
CTETRA      5348       1   18083   13168   17527     227   13229   13228+
+          17529    9096    8954    8953
CTETRA      5349       1   17826   17827      45      44   17841    6303+
+           1385    1374    3307    6304
CTETRA      5350       1   17710      41      43     758    5918    2679+
+           2107    5905    5920    5906
CTETRA      5351       1   17710      43      41      40    2107    2679+
+           5918    6024    1371    1355
CTETRA      5352       1   13418      41      43      35    2676    2679+
+           2678    5472    1359    1368
CTETRA      5353       1   13385     225   13636     192    2549    6290+
+          14516    2550    2552    7313
CTETRA      5354       1   17712   15552   17713      47   15664   15663+
+          17723    5985    8809    1902
CTETRA      5355       1   17826   16980   16975     450   17097   17096+
+          17072    3276    4806    8967
CTETRA      5356       1   12403   12404     241     608   12453    5987+
+           4343    8496    4344    8245
CTETRA      5357       1   12615     103     794    1140    1925    8696+
+           7658    9097    9098    9099
CTETRA      5358       1   17466     889   12618     890    8872    7130+
+          12686    8878    7133    7132
CTETRA      5359       1   11975   11976   11977     243   12189   12199+
+          12193    7060    2167    2142
CTETRA      5360       1   17893   16778   17894    1068   16830   16831+
+          17903    9100    8848    8847
CTETRA      5361       1   17932      75    1141    1066    1482    9101+
+           9102    8463    8465    9103
CTETRA      5362       1   17932    1141     835    1066    9102    9104+
+           6733    8463    9103    8845
CTETRA      5363       1   11967     495     780     340    7248    6357+
+           6716    4790    6360    6359
CTETRA      5364       1   17467   12618   12617     460   12685   12684+
+          12681    8481    9105    3319
CTETRA      5365       1   12749   12750   12753     459   12935   12950+
+          12949    7086    6410    7581
CTETRA      5366       1   13404     614     422     426    4377    4380+
+           4379    8178    8445    5276
CTETRA      5367       1   17469     530   12613     936    7533    7509+
+          12671    8693    7511    7510
CTETRA      5368       1   12746     433     152     528    3173    3721+
+           7627    7526    3724    3723
CTETRA      5369       1   13399     361   13403     761    8131    4064+
+          13710    8677    8674    6075
CTETRA      5370       1   12427      99     339     688    5141    6399+
+           5541    5143    5142    5542
CTETRA      5371       1   17893   16777   16778      91   16829   16799+
+          16830    9106    1552    8761
CTETRA      5372       1   17893   16778    1068    1142   16830    8848+
+           9100    9107    9108    9109
CTETRA      5373       1   17954     488   17135     489    3503    9110+
+          17173    3504    3506    9111
CTETRA      5374       1   17850   16210      55     973   16251    8352+
+           3006    8353    7812    9043
CTETRA      5375       1   16865   16866   16875    1069   16905   16904+
+          16903    8482    9112    8483
CTETRA      5376       1   11990   11991   11993     147   12225   12242+
+          12241    5662    5661    6699
CTETRA      5377       1   17981   17982     547     364   17984    4325+
+           7672    4337    4338    5653
CTETRA      5378       1   12763   12771   12764     364   13027   13026+
+          13028    5600    6424    5652
CTETRA      5379       1   16215     155     153     744    1760    4160+
+           4158    5771    5770    7817
CTETRA      5380       1   17987   18025   11660    1117   11711   11713+
+          11712    8892    9113    8893
CTETRA      5381       1   13472       1   13556       5    1224    6764+
+          14249    1225    1218    1209
CTETRA      5382       1   11986   11990   11993     547   12236   12241+
+          12239    6666    6059    6697
CTETRA      5383       1   11986   11989   11990     547   12235   12219+
+          12236    6666    6060    6059
CTETRA      5384       1   11957   11958     344     346   12119    9114+
+           6664    5078    5077    6662
CTETRA      5385       1   12795   12800   12796     412   13139   13137+
+          13141    7523    3983    3883
CTETRA      5386       1   12712     465   12734     243    4104    4089+
+          12878    4105    4092    2169
CTETRA      5387       1   12716     242   12736     661    2916    5792+
+          12890    7088    6963    7430
CTETRA      5388       1   12716   12717   12734     242   12868   12886+
+          12889    2916    2918    4091
CTETRA      5389       1   12773     444     276     558    3967    5370+
+           3974    3968    3970    3950
CTETRA      5390       1   17333     378   17334     379    7674    2799+
+          17342    9115    2803    2802
CTETRA      5391       1   17197   13440     189    1143   13846    7407+
+           5465    9116    9117    9118
CTETRA      5392       1   12724     378     300     514    2806    2800+
+           2809    3625    3627    8621
CTETRA      5393       1   12704   12723   12725     378   12817   12820+
+          12819    6040    2807    4156
CTETRA      5394       1   17243   11580   11581     922   11634   11610+
+          11635    7412    9119    7413
CTETRA      5395       1   17336   17337   11776      94   17345   11873+
+          11874    1560    7416    1561
CTETRA      5396       1   13454   13456   13455     859   13911   13909+
+          13912    7960    9120    7961
CTETRA      5397       1   13428   13433   13429      95   13819   13822+
+          13823    7433    2380    1580
CTETRA      5398       1   12722     342   12724     300    2627    3078+
+          12813    5884    2819    2809
CTETRA      5399       1   15325     442     739    1054    5698    5704+
+           5703    8383    8382    9121
CTETRA      5400       1   11929   11943   11940     444   12043   12038+
+          12041    5369    5371    3243
CTETRA      5401       1   17603   13538      86      87   14183    1525+
+           4930    5408    1526    1528
CTETRA      5402       1   18031     277   11666     279    7395    2286+
+          11742    7388    2290    2289
CTETRA      5403       1   13438     278     588     129    6258    4219+
+           6246    6247    5398    5613
CTETRA      5404       1   13521   13532     107     106   14165    1612+
+           1949    1952    1613    1609
CTETRA      5405       1   18030     590   11665     591    9122    4230+
+          11744    8817    4233    4232
CTETRA      5406       1   17991      97     405    1144    2998    3001+
+           3000    9123    9124    9125
CTETRA      5407       1   17337     767      94     768    6129    9126+
+           7416    6130    6132    9127
CTETRA      5408       1   11773   11776   11777      95   11875   11877+
+          11876    7844    1564    7845
CTETRA      5409       1   11671     795   11672     696    9128    6441+
+          11687    5195    9129    8919
CTETRA      5410       1   17244   11582   17245     396   11637   11638+
+          17254    5990    2951    4949
CTETRA      5411       1   17336   11776   11773      95   11874   11875+
+          11859    1562    1564    7844
CTETRA      5412       1   17605   13464   13662      31   13958   14640+
+          14625    8160    8936    8161
CTETRA      5413       1   17986      32   17987    1117    8154    1323+
+          17989    8891    9130    8892
CTETRA      5414       1   18114   13463   13662      32   13956   14622+
+          14624    1996    1329    1328
CTETRA      5415       1   17987      32   18114      33    1323    1996+
+          17988    1324    1326    9131
CTETRA      5416       1   11964   11967   11965     340   12146   12147+
+          12148    7084    4790    6718
CTETRA      5417       1   18032   11668   11667     201   11741   11710+
+          11740    9132    1963    8024
CTETRA      5418       1   17239   11575   11576     121   11625   11588+
+          11626    1647    9133    1648
CTETRA      5419       1   13440   13448   13445     189   13876   13869+
+          13864    7407    5588    7596
CTETRA      5420       1   17191    1145    1057    1146    9134    9135+
+           8411    9136    9137    9138
CTETRA      5421       1   18083   13168     227     940   13229    8954+
+           9096    9139    7542    9140
CTETRA      5422       1   17331   17332   11758     278   17340   11802+
+          11801    4194    4193    7382
CTETRA      5423       1   11961   11962   11964     340   12140   12144+
+          12145    3664    4789    7084
CTETRA      5424       1   17671   17672   16041     467   17704   16160+
+          16161    9141    3353    3352
CTETRA      5425       1   17263   11676   17264    1090   11731   11732+
+          17273    9142    8611    8610
CTETRA      5426       1   11674     589     678    1121    4221    5024+
+           5023    8910    9143    8911
CTETRA      5427       1   17986   18088   17264    1122   17990   17274+
+          11734    8912    9144    9145
CTETRA      5428       1   17912   16872   16873     684   16924   16894+
+          16925    9146    8492    5062
CTETRA      5429       1   13403     361   13404     426    4064    4066+
+          13722    6073    3120    8178
CTETRA      5430       1   17382   17383   15326    1032   17385   15402+
+          15403    9147    9148    8226
CTETRA      5431       1   17445   12782   12780     346   13068   13070+
+          13060    2647    5936    2648
CTETRA      5432       1   17954   17134     487     489   17174    9149+
+           3501    3504    9150    3505
CTETRA      5433       1   18089   17330      86     584   17339    5893+
+           4933    7264    4202    7260
CTETRA      5434       1   16866   16876   16875     877   16907   16906+
+          16904    7039    7041    9151
CTETRA      5435       1   16867     123   16876     877    8801    1652+
+          16908    7040    9152    7041
CTETRA      5436       1   18112   17916   16876     122   17926   16932+
+          16933    6569    9153    1650
CTETRA      5437       1   17382   15326     443    1032   15403    8023+
+           4313    9147    8226    8228
CTETRA      5438       1   11951     437     128     439    5131    5135+
+           5134    5085    3224    5366
CTETRA      5439       1   16320     159   16340     421    2459    7156+
+          16494    3081    3086    6504
CTETRA      5440       1   17897    1036   16781    1147    9154    8252+
+          16837    9155    9156    9157
CTETRA      5441       1   15326     345     344    1032    2638    2637+
+           2635    8226    9158    8227
CTETRA      5442       1   17896   16781   17897    1036   16836   16837+
+          17906    9159    8252    9154
CTETRA      5443       1   18001   16773   18111      51   16819   16820+
+          18005    9089    1403    8979
CTETRA      5444       1   11933   11974   11934     465   12184   12174+
+          12185    3340    3674    4084
CTETRA      5445       1   12758     962     243     963    7721    7836+
+           7265    7724    7723    9160
CTETRA      5446       1   12715     596   12737     780    7784    4916+
+          12898    6814    6778    7759
CTETRA      5447       1   13166     462     243     576    4094    4107+
+           4098    4101    9161    4102
CTETRA      5448       1   16764   16765   16773     141   16784   16783+
+          16782    7797    2908    7798
CTETRA      5449       1   17392     160     147    1148    1773    1775+
+           1723    9162    9163    9164
CTETRA      5450       1   18044   16765   16764     390   16858   16784+
+          16817    9165    2909    9166
CTETRA      5451       1   12611     986     425     987    7890    9167+
+           6619    7893    7892    9168
CTETRA      5452       1   12761   12762   12797     147   13041   13159+
+          13158    3948    5601    1729
CTETRA      5453       1   12762   12796   12797     147   13156   13134+
+          13159    5601    1730    1729
CTETRA      5454       1   17832     141      20     142    1710    3906+
+           5737    1713    1712    5736
CTETRA      5455       1   14786   14787     113     111   15261    9169+
+           5242    8647    6343    1626
CTETRA      5456       1   17380     558   15328     984    3971    3973+
+          15420    7878    9170    7879
CTETRA      5457       1   18094   17392     563    1148   17394    9171+
+           7863    9172    9162    9173
CTETRA      5458       1   17392   12608     146     160   12628    1763+
+           1725    1773    8019    1774
CTETRA      5459       1     102     402     983     794    9174    8478+
+           9175    8035    7659    8697
CTETRA      5460       1   11983   11999     103     101   12260    1592+
+           7586    1598    1589    1594
CTETRA      5461       1   18001   18002   16764     165   18004   16815+
+          16818    8454    7006    7799
CTETRA      5462       1   12431     461     868     961    6975    6978+
+           6977    7716    8661    7717
CTETRA      5463       1   16764   16765     141     390   16784    2908+
+           7797    9166    2909    2911
CTETRA      5464       1   12000     100     469     102    4868    3372+
+           4869    7576    5681    5684
CTETRA      5465       1   14692   14695   14693     169   14924   14925+
+          14914    2902    2888    2359
CTETRA      5466       1   16765   16774   16773     141   16786   16785+
+          16783    2908    6829    7798
CTETRA      5467       1   17832   16957   16982     141   17000   17108+
+          17109    1710    1786    9176
CTETRA      5468       1   16773     141   16774      52    7798    6829+
+          16785    1406    9088    1407
CTETRA      5469       1   13413      41     352     640    4599    2668+
+           4287    4602    4601    6881
CTETRA      5470       1   17825      46     907     974    3219    9177+
+           9178    7822    9179    9180
CTETRA      5471       1   18109   17825     907     974   17842    9178+
+           8433    7820    7822    9180
CTETRA      5472       1   18109     536   17825     641    8137    3772+
+          17842    7819    5914    4605
CTETRA      5473       1   16007     267     268     862    7969    2246+
+           6947    6945    9181    6946
CTETRA      5474       1   17352   12617   12618     458   12678   12684+
+          12682    6091    3316    6092
CTETRA      5475       1   16324   16329   16325      93   16435   16428+
+          16436    5783    7925    6796
CTETRA      5476       1   12745   12746   12752     433   12911   12943+
+          12945    3171    3173    3703
CTETRA      5477       1   11975   11977     242     243   12193    2140+
+           7059    7060    2142    2141
CTETRA      5478       1   15621   15623     153      82   15936    3617+
+           3616    1539    1532    6675
CTETRA      5479       1   12016   12028   12029     152   12381   12385+
+          12384    1750    8719    1751
CTETRA      5480       1   13472   13473   13557       1   13980   14246+
+          14248    1224    6425    1201
CTETRA      5481       1   13465   13495   13466     666   14042   14039+
+          14043    4820    6924    4829
CTETRA      5482       1   17981   12421   18096     691   12522   12523+
+          17985    8860    5178    6025
CTETRA      5483       1   13467   13493     565     703   14030    7662+
+           6108    6107    7453    5247
CTETRA      5484       1   15619   15625   15624     302   15948   15951+
+          15949    7057    6065    8351
CTETRA      5485       1   15628     302     203     207    6064    4524+
+           3620    1984    7943    3622
CTETRA      5486       1   11973     596   11974     465    4263    6784+
+          12179    4265    4264    3674
CTETRA      5487       1   11966   11974   11973     596   12178   12179+
+          12176    6807    6784    4263
CTETRA      5488       1   12715   12736     596     661   12891    7611+
+           7784    6816    7430    6783
CTETRA      5489       1   12711   12736   12712     465   12894   12893+
+          12897    4307    5791    4104
CTETRA      5490       1   15618   15630   15631      83   15974   15973+
+          15976    1541    4895    1542
CTETRA      5491       1   12411   12412     461     931   12485    6776+
+           6180    9182    7478    7791
CTETRA      5492       1   12736     465     596     242    5791    4264+
+           7611    5792    4090    4267
CTETRA      5493       1   17295   17296   12407     925   17327   12594+
+          12593    8658    9183    7439
CTETRA      5494       1   12015     152     335     433    1749    6082+
+           3344    7082    3721    3339
CTETRA      5495       1   13499   13500   13515     259   14055   14102+
+          14103    3858    2214    6080
CTETRA      5496       1   15538   15539   15634     157   15730   15994+
+          15995    1766    3869    3857
CTETRA      5497       1   17683   16029   16030     847   16137   16062+
+          16138    7858    6805    8615
CTETRA      5498       1   12017   12019   12018     459   12332   12329+
+          12333    7101    7102    7409
CTETRA      5499       1   15540   15551   15541     171   15666   15673+
+          15676    4735    1828    4979
CTETRA      5500       1   17304   12416    1101     933   12575    8702+
+           9184    7489    7491    8704
CTETRA      5501       1   12716   12734   12736     242   12889   12892+
+          12890    2916    4091    5792
CTETRA      5502       1   17799   16009   16008     623   16201   16061+
+          16204    8108    4483    9185
CTETRA      5503       1   16007   16008     267     862   16057    6189+
+           7969    6945    8196    9181
CTETRA      5504       1   16309   16310   16373     267   16431   16613+
+          16616    4907    4909    2243
CTETRA      5505       1   17598   17599   13496     478   17614   14035+
+          14034    8659    8656    3450
CTETRA      5506       1   16008     267    1149     777    6189    9186+
+           9187    6194    6196    9188
CTETRA      5507       1   12417   12418     127     315   12507    2463+
+           3554    8641    2464    2466
CTETRA      5508       1   16008   16009      92     623   16061    4482+
+           5778    9185    4483    4485
CTETRA      5509       1   11962   11967   11964     340   12143   12146+
+          12144    4789    4790    7084
CTETRA      5510       1   16328     171     125     118    3709    4976+
+           1659    1662    3714    1663
CTETRA      5511       1   16334   16335     314     288   16455    4682+
+           4675    5974    6471    6472
CTETRA      5512       1   17717   15572   15574     288   15762   15771+
+          15769    2328    5970    2329
CTETRA      5513       1   15574   15575   15582     314   15772   15800+
+          15801    7363    4679    7119
CTETRA      5514       1   17718   15574   15584     286   15770   15813+
+          15812    2341    2323    2322
CTETRA      5515       1   17495   12774     558     738   13036    3969+
+           3979    9189    5696    7733
CTETRA      5516       1   17392     558     563    1148    6705    3981+
+           9171    9162    9190    9173
CTETRA      5517       1   17392     148   18092     830    1726    7090+
+          17393    6706    7696    8682
CTETRA      5518       1   17392     147     558    1148    1723    3951+
+           6705    9162    9164    9190
CTETRA      5519       1   14661   14662     356     184   14869    7396+
+           2686    2689    7397    2690
CTETRA      5520       1   18094     160   17392    1148    8018    1773+
+          17394    9172    9163    9162
CTETRA      5521       1   15566      93     116     171    1790    1794+
+           1793    7928    4982    3710
CTETRA      5522       1   17716   15564   15572     117   15732   15761+
+          15760    5979    1636    5971
CTETRA      5523       1   15568   15576   15573     421   15767   15774+
+          15764    3089    4246    3094
CTETRA      5524       1   15564     420   15572     117    3842    5968+
+          15761    1636    3852    5971
CTETRA      5525       1   13636   13646   13651     353   14558   14569+
+          14568    6289    6295    7312
CTETRA      5526       1   12725     494     499     378    7198    3553+
+           6696    4156    5419    5415
CTETRA      5527       1   16321     314   16339     166    2458    8399+
+          16489    4470    5864    4471
CTETRA      5528       1   12719     494   12726     417    7610    7197+
+          12828    6276    7199    6277
CTETRA      5529       1   14688   14690   14689     182   14903   14900+
+          14904    6003    6004    1871
CTETRA      5530       1   14691     237     236     670    5475    2139+
+           7125    5476    5474    5483
CTETRA      5531       1   14692     236     169     670    2899    2879+
+           2902    7894    5483    6578
CTETRA      5532       1   12767   12783   12776     437   13079   13077+
+          13078    6427    5119    3220
CTETRA      5533       1   12416   12417   12436     494   12503   12502+
+          12501    7612    3555    6692
CTETRA      5534       1   13620   13627     167     111   14485    8162+
+           5232    1625    6340    6507
CTETRA      5535       1   17303   17304   12415     498   17312   12578+
+          12577    8831    8504    3545
CTETRA      5536       1   11946   11947   11954     499   12071   12098+
+          12097    3551    5411    6034
CTETRA      5537       1   17715   15564     117     118   15731    1636+
+           5976    5977    1637    1639
CTETRA      5538       1   15572   15575   15574     314   15773   15772+
+          15771    7364    4679    7363
CTETRA      5539       1   13620   13628   13627     111   14487   14486+
+          14485    1625    6335    6340
CTETRA      5540       1   12437     503     127     729    3569    3571+
+           3560    5582    5581    9191
CTETRA      5541       1   14753   14786   14787     113   15256   15261+
+          15264    5877    5242    9169
CTETRA      5542       1   17395   17396   12718     233   17401   12888+
+          12854    5072    2102    2104
CTETRA      5543       1   16334     288     420     117    5974    5969+
+           3850    3851    5972    3852
CTETRA      5544       1   17669     844   16044    1062    8995    6793+
+          16166    8811    8443    8442
CTETRA      5545       1   12717   12734     242     232   12886    4091+
+           2918    6370    2170    2144
CTETRA      5546       1   17453   12732     655     656   12856    4720+
+           4719    4723    4722    7952
CTETRA      5547       1   13455   13457   13460     559   13923   13935+
+          13936    7962    5117    4962
CTETRA      5548       1   17397   12713    1092    1003   12884    8625+
+           9192    8004    8006    8627
CTETRA      5549       1   17976   16025   18103     843   16126   16127+
+          17980    6788    8994    8813
CTETRA      5550       1   17986   11668   17987      32   11736   11737+
+          17989    8154    1336    1323
CTETRA      5551       1   18085   15337   17276    1050   15466   15463+
+          17277    8363    8365    8543
CTETRA      5552       1   17352   12617     765     826   12678    6097+
+           6096    7240    6682    6684
CTETRA      5553       1   11988     147     276     558    7693    3947+
+           7066    7068    3951    3950
CTETRA      5554       1   16018      58   16038      82    2413    1517+
+          16097    2815    1516    1515
CTETRA      5555       1   18093   17389   12621     885   17391   12700+
+          12702    8730    7071    9193
CTETRA      5556       1   17515   13475   13476     175   13963   13967+
+          13965    1929    7436    1943
CTETRA      5557       1   17465     528   12619     942    7676    7551+
+          12691    8876    7553    7552
CTETRA      5558       1   17851    1150   16219    1128    9194    9195+
+          16268    8982    9196    8983
CTETRA      5559       1   15588     519      55     409    6677    6228+
+           3020    3022    7814    3023
CTETRA      5560       1   17495   17496   12774     738   17499   13037+
+          13036    9189    5694    5696
CTETRA      5561       1   11949   11950     344     443   12086    6759+
+           7501    9197    6760    5095
CTETRA      5562       1   17350     528   12620     950    7262    7668+
+          12692    8877    9198    7605
CTETRA      5563       1   17389     687   12621     885    5130    5129+
+          12700    7071    9199    9193
CTETRA      5564       1   12620     528     949     950    7668    9200+
+           7602    7605    9198    7606
CTETRA      5565       1   17464   12620   17465     956   12696   12695+
+          17493    9201    7678    7677
CTETRA      5566       1   17382   11939   11949     443   12033   12079+
+          12078    4313    3238    9197
CTETRA      5567       1   17496   15325   17497     739   15414   15413+
+          17500    9202    5703    8223
CTETRA      5568       1   15534     639     749     638    6590    6048+
+           6244    6274    6052    6051
CTETRA      5569       1   17414   12430   12431     944   12543   12478+
+          12544    9203    7560    9204
CTETRA      5570       1   17398   12758   12713     963   12984   12985+
+          12983    7722    7724    9205
CTETRA      5571       1   12712   12713   12758     243   12879   12985+
+          12988    4105    7621    7265
CTETRA      5572       1   12712   12758   12759     462   12988   12994+
+          12997    4106    7266    4116
CTETRA      5573       1   13529     336     134     670    2600    2599+
+           2598    7622    4889    6099
CTETRA      5574       1   12739   12746   12748     152   12924   12912+
+          12922    4990    7627    4991
CTETRA      5575       1   14664   14667   14665     263   14808   14810+
+          14809    4690    3510    5439
CTETRA      5576       1   17875   15318   15317     750   15372   15369+
+          15367    5865    7169    5847
CTETRA      5577       1   13470   13471   13555       8   14005   14242+
+          14243    4785    4784    7502
CTETRA      5578       1   14702     372     566     565    7442    3998+
+           5691    7700    3992    4001
CTETRA      5579       1   12767   12770   12768     126   13003   13002+
+          13004    2448    2447    7718
CTETRA      5580       1   13554     580     570       8    7127    6135+
+           6140    6142    7503    6143
CTETRA      5581       1   12434     780     495    1033    7769    6357+
+           5229    8237    9206    8833
CTETRA      5582       1   13471   13555       8       5   14242    7502+
+           4784    7143    7657    1237
CTETRA      5583       1   13629     296   13641     111    4983    4985+
+          14527    6334    7469    7462
CTETRA      5584       1   13561     482     483     901    6344    3470+
+           3614    7210    7209    9207
CTETRA      5585       1   14761      78      67      66    3480    1489+
+           3482    3197    1491    1460
CTETRA      5586       1   17422   12439     313     726   12560    2453+
+           5609    5522    5521    6753
CTETRA      5587       1   13608     424     427      79    3110    3288+
+           3286    3113    3112    3131
CTETRA      5588       1   14765   14767   14769      65   15191   15203+
+          15198    2857    1452    3073
CTETRA      5589       1   14663     363     199    1124    4855    4974+
+           5755    8928    8927    8929
CTETRA      5590       1   17560   13185   17561     535   13317   13316+
+          17580    9015    3770    3769
CTETRA      5591       1   17976   16044   16024     637   16168   16121+
+          16169    6787    6792    4639
CTETRA      5592       1   17514     368   13172     676    3811    3428+
+          13311    7872    5811    5001
CTETRA      5593       1   13568   13572   13573     539   14303   14302+
+          14304    3788    4857    3789
CTETRA      5594       1   14739     520     551     380    7750    6970+
+           7749    7748    6973    3912
CTETRA      5595       1   17558   13172   13184     368   13269   13312+
+          13314    3806    3428    2845
CTETRA      5596       1   13563     380     520      78    2824    6973+
+           4041    4036    4039    3656
CTETRA      5597       1   14739   14740     579     520   15080    4744+
+           7753    7750    6774    6833
CTETRA      5598       1   16014     266     156    1151    4891    3909+
+           5873    9208    9209    9210
CTETRA      5599       1   14642   14643   14746     367   14950   15097+
+          15103    2742    2760    2737
CTETRA      5600       1   14731   14741   14740     579   15084   15087+
+          15085    4178    4167    4744
CTETRA      5601       1   13489   13490     376     553   14008    2781+
+           4730    3919    4460    4466
CTETRA      5602       1   13563   13573   13564     380   14300   14299+
+          14301    2824    3827    6972
CTETRA      5603       1   17662     166   13188     600    7934    4878+
+          13337    5961    4880    4292
CTETRA      5604       1   14648     570     580       8    6136    6135+
+           6134    6155    6143    7503
CTETRA      5605       1   13470     570     373       8    6141    7656+
+           6145    4785    6143    6930
CTETRA      5606       1   13554   13555   13565     580   14261   14291+
+          14290    7127    6600    4757
CTETRA      5607       1   14647   14714   14648       8   15001   15005+
+          15007    1235    4782    6155
CTETRA      5608       1   15537   15579   15578     158   15791   15790+
+          15788    3901    5367    4226
CTETRA      5609       1   11985   11989   11986     471   12234   12235+
+          12237    7250    9211    5173
CTETRA      5610       1   12421     547     471     691    8722    5607+
+           4329    5178    8861    5179
CTETRA      5611       1   17406   12785   12794     241   13121   13116+
+          13124    9212    4882    8039
CTETRA      5612       1   13530   13541   13539     670   14188   14196+
+          14194    7615    5482    4887
CTETRA      5613       1   16346   16347   16358      58   16532   16559+
+          16558    6545    3154    6546
CTETRA      5614       1   14691   14692   14693     670   14911   14914+
+          14913    5476    7894    4905
CTETRA      5615       1   16769   16770      69    1120   16806    9213+
+           9214    8905    8904    9215
CTETRA      5616       1   13511     430     184     186    3157    4407+
+           4416    3158    3148    1879
CTETRA      5617       1   17801   16007   16006     863   16205   16053+
+          16208    8644    6948    8992
CTETRA      5618       1   13507     891     199     892    7138    9216+
+           2871    7141    7140    8015
CTETRA      5619       1   16771     911    1018    1088    9217    9218+
+           8100    8600    9219    8920
CTETRA      5620       1   18002     874   18117    1083    7008    8296+
+          18003    8569    8571    9220
CTETRA      5621       1   18001   16764   16773     165   16818   16782+
+          16819    8454    7799    7801
CTETRA      5622       1   13379   13640   13643     141   14539   14537+
+          14540    8978    3905    3907
CTETRA      5623       1   16957     141   16965     165    1786    1785+
+          17030    8549    7800    1808
CTETRA      5624       1   13628   13641   13639     111   14526   14523+
+          14528    6335    7462    6341
CTETRA      5625       1   16865    1086    1152    1153    8586    9221+
+           9222    9223    9224    9225
CTETRA      5626       1   13389   13390   13417      34   13671   13790+
+          13788    5940    7178    1338
CTETRA      5627       1   18065    1086   16865     966    8584    8586+
+          16941    7760    9070    7761
CTETRA      5628       1   13412     352   13413      35    4479    4287+
+          13769    1340    2670    8128
CTETRA      5629       1   17826   16975   17827      34   17072   17073+
+          17841    7815    3302    3301
CTETRA      5630       1   17197   13431   17198     723   13803   13802+
+          17209    5467    5469    7328
CTETRA      5631       1   18066   16865   16864     682   16944   16901+
+          16943    5056    9226    5057
CTETRA      5632       1   17831     142   17832     288    1711    1713+
+          17838    5973    6574    7508
CTETRA      5633       1   12711   12737   12736     596   12896   12895+
+          12894    4610    4916    7611
CTETRA      5634       1   17509   13174   13173     115   13258   13257+
+          13256    8446    9227    1631
CTETRA      5635       1   17197   13440   13431     189   13846   13847+
+          13803    5465    7407    5466
CTETRA      5636       1   17195   13441   17196     743   13856   13852+
+          17205    9228    5761    5760
CTETRA      5637       1   11763   11764   11768     189   11823   11830+
+          11829    5560    5559    7405
CTETRA      5638       1   18099     110   17718     112    2097    1617+
+          17727    9006    1621    1620
CTETRA      5639       1   13173   13174     114     115   13257    1864+
+           1628    1631    9227    1632
CTETRA      5640       1   16019   16020      58     215   16103    2032+
+           2414    6544    2033    2035
CTETRA      5641       1   11766     588     278     129    5222    4219+
+           7381    6266    5613    5398
CTETRA      5642       1   11666     280     278     277    2293    6252+
+           2288    2286    2295    2287
CTETRA      5643       1   14670   14671     259     261   14828    6100+
+           2204    2207    6077    2208
CTETRA      5644       1   13492   13502     377     566   14067    5597+
+           4012    3997    6013    5692
CTETRA      5645       1   13613   13614   13620     113   14442   14463+
+          14461    2490    4426    1623
CTETRA      5646       1   18045   16766   16765     388   16857   16788+
+          16856    2904    2896    5733
CTETRA      5647       1   14703   14714   14715     373   15006   15015+
+          15014    2771    2794    2772
CTETRA      5648       1   14702   14703   14715     372   14974   15014+
+          15010    7442    2770    2769
CTETRA      5649       1   13491   13492   13502     377   14029   14067+
+          14061    2790    4012    5597
CTETRA      5650       1   13469     372   13491     373    4022    2788+
+          14027    6144    2773    2791
CTETRA      5651       1   13602   13603   13613     316   14407   14441+
+          14439    2473    4435    2489
CTETRA      5652       1   13470   13491   13490     373   14020   14021+
+          14004    6145    2791    2779
CTETRA      5653       1   13484     557     181     490    3943    3939+
+           1866    3936    3942    3937
CTETRA      5654       1   14747   14748      25     318   15116    2478+
+           3226    4999    2479    2481
CTETRA      5655       1   14647     580       4       8    4169    4165+
+           1239    1235    7503    1238
CTETRA      5656       1   14714     373       8       7    2794    6930+
+           4782    2796    2783    4783
CTETRA      5657       1   14722      25   14748      26    1332    2478+
+          15117    1333    1301    6844
CTETRA      5658       1   13500     654     259     260    5611    4712+
+           2214    2213    4711    2205
CTETRA      5659       1   13603   13614   13613     619   14440   14442+
+          14441    4434    4425    4424
CTETRA      5660       1   17510     619   13174    1116    4433    7224+
+          13261    8868    9229    8869
CTETRA      5661       1   14646   14716   14713       5   15018   15021+
+          15003    1219    1230    1229
CTETRA      5662       1   14646       1   14716       5    1217    1240+
+          15018    1219    1218    1230
CTETRA      5663       1   17451   17452     251     134   17458    3960+
+           2389    6581    1682    3961
CTETRA      5664       1   14691   14693   14694     670   14913   14917+
+          14919    5476    4905    4906
CTETRA      5665       1   13489   13490   13501     376   14008   14045+
+          14047    4730    2781    4727
CTETRA      5666       1   17451   14693   14696     134   14916   14926+
+          14928    6581    2358    1683
CTETRA      5667       1   13542   13548   13549     137   14213   14220+
+          14219    4413    7115    4914
CTETRA      5668       1   14678     135   14697     210    6908    5393+
+          14933    2587    5257    5288
CTETRA      5669       1   13498   13499   13528     333   14060   14140+
+          14138    7697    6081    2884
CTETRA      5670       1   13498     333   13528     209    7697    2884+
+          14138    2519    2586    7698
CTETRA      5671       1   13497   13498   13524     209   14058   14128+
+          14127    2015    2519    2017
CTETRA      5672       1   17336     250      94      95    2203    2199+
+           1560    1562    7055    1563
CTETRA      5673       1   14665   14672   14671     322   14832   14831+
+          14830    2844    2512    2842
CTETRA      5674       1   17601     199   13514     887    1959    1995+
+          14095    8179    8933    7110
CTETRA      5675       1   14661   14683   14662     184   14868   14870+
+          14869    2689    4410    7397
CTETRA      5676       1   13516     182     236     385    3865    4996+
+           2117    3868    3867    2900
CTETRA      5677       1   14675   14689     182     385   14899    1871+
+           1870    5009    4997    3867
CTETRA      5678       1   13506   13513   13512     187   14099   14098+
+          14097    7126    1888    1887
CTETRA      5679       1   13495     355     666     356    4834    6923+
+           6924    3448    2688    5388
CTETRA      5680       1   13504   13505   13511     430   14070   14091+
+          14090    3153    4850    3157
CTETRA      5681       1   14690     235     183     182    5999    7351+
+           6009    6004    5998    6010
CTETRA      5682       1   13509   13510   13517     235   14083   14107+
+          14110    6005    3144    2116
CTETRA      5683       1   13517   13540   13541     237   14191   14193+
+          14190    2121    5484    5481
CTETRA      5684       1   13495   13506   13505     356   14076   14075+
+          14074    3448    2705    2703
CTETRA      5685       1   13530     169   13541     670    2373    2880+
+          14188    7615    6578    5482
CTETRA      5686       1   17599   15344   15343     363   15501   15500+
+          15499    3444    3437    3436
CTETRA      5687       1   14749     527     523       2    3696    3698+
+           3695    4447    4446    4448
CTETRA      5688       1   17641   14652     667     850   14997    6846+
+           7392    9230    6847    6849
CTETRA      5689       1   17557   14642   14745     369   14943   15101+
+          15100    3231    2743    8350
CTETRA      5690       1   13579   13580   13590     366   14333   14367+
+          14364    6840    5110    4031
CTETRA      5691       1   17992   18115     404    1113   17993    8197+
+           2992    8835    9231    8836
CTETRA      5692       1   14660   14661   14705     355   14856   14959+
+          14956    7777    2685    6969
CTETRA      5693       1   14701     196     176     537    6321    6324+
+           6323    5646    7978    7438
CTETRA      5694       1   13474   13478   13476     196   13970   13976+
+          13968    1937    6529    1942
CTETRA      5695       1   14654   14655     557     490   14807    3940+
+           8187    3782    3941    3942
CTETRA      5696       1   17561   13185   13183     178   13316   13318+
+          13307    3768    1850    3519
CTETRA      5697       1   14645   14717       1     620   15026    5554+
+           1221    6418    5556    5555
CTETRA      5698       1   15595   15596   15597     638   15837   15847+
+          15846    6273    6491    4588
CTETRA      5699       1   13476   13478   13477     176   13976   13977+
+          13975    9054    7977    7976
CTETRA      5700       1   17516   13476   13477     176   13966   13975+
+          13973    1859    9054    7976
CTETRA      5701       1   13607   13608   13615     427   14412   14443+
+          14444    3127    3286    3259
CTETRA      5702       1   13580   13591   13590     317   14369   14368+
+          14367    3400    4173    5111
CTETRA      5703       1   14721   14748   14722      25   15118   15117+
+          15119    2482    2478    1332
CTETRA      5704       1   14722   14748   14743      26   15117   15113+
+          15120    1333    6844    7947
CTETRA      5705       1   14723   14743   14752      27   15137   15139+
+          15138    1308    8079    3700
CTETRA      5706       1   14643   14644   14744     370   15025   15099+
+          15096    2758    6416    2759
CTETRA      5707       1   17517     178   13185     179    3760    1850+
+          13320    9232    1854    1853
CTETRA      5708       1   13182     324     491     921    7375    5437+
+           5451    7386    7385    7888
CTETRA      5709       1   17564   13181   13180     213   13296   13298+
+          13292    7689    2521    2011
CTETRA      5710       1   12783     438     437     444    5120    3221+
+           5119    6709    3245    3244
CTETRA      5711       1   14721   14747   14748      25   15121   15116+
+          15118    2482    3226    2478
CTETRA      5712       1   13601   13611      28      30   14432    5723+
+           1319    1317    5724    1318
CTETRA      5713       1   18083   13453   17191    1154   13902   13903+
+          17201    9233    9234    9235
CTETRA      5714       1   17448     329   12703     331    6593    2566+
+          12803    5923    2570    5075
CTETRA      5715       1   13591     317      25      26    4173    2477+
+           1298    1300    6245    1301
CTETRA      5716       1   13600   13610     309      28   14426    7093+
+           2424    1316    7094    2426
CTETRA      5717       1   14723   14724     309      27   15143    2439+
+           2428    1308    2440    2425
CTETRA      5718       1   13589   13600   13599      27   14393   14392+
+          14391    3685    1303    2436
CTETRA      5719       1   11577   11578    1095    1041   11596    8639+
+           9236    9237    8271    8640
CTETRA      5720       1   11950     438     439     443    5122    3225+
+           5124    6760    3240    5084
CTETRA      5721       1   14743     317     366      26    5113    2735+
+           5112    7947    6245    7479
CTETRA      5722       1   14720   14721   14754     316   15122   15175+
+          15174    4429    5726    4422
CTETRA      5723       1   13590   13601   13600      26   14399   14398+
+          14397    1305    1302    1306
CTETRA      5724       1   17527   13168   13167     980   13228   13224+
+          13221    9238    9239    9240
CTETRA      5725       1   17526   17527   13167     980   17528   13221+
+          13222    9241    9238    9240
CTETRA      5726       1   14743     366      27      26    5112    3688+
+           8079    7947    7479    1307
CTETRA      5727       1   14779     546     659     354    6327    5102+
+           4761    4763    5823    4764
CTETRA      5728       1   17232     960     915     997    9242    7846+
+           9243    7973    9244    9245
CTETRA      5729       1   17232     996    1037     997    7972    9246+
+           8256    7973    7975    8259
CTETRA      5730       1   17240   11577   11578    1094   11628   11596+
+          11629    8635    9247    8636
CTETRA      5731       1   17475   12610   17476     945   12641   12640+
+          17482    9034    7564    7563
CTETRA      5732       1   14792     660     332     354    5932    5935+
+           5934    8001    4768    7294
CTETRA      5733       1   13624   13647   13648     659   14554   14556+
+          14553    5442    4774    4773
CTETRA      5734       1   13651   13656     188     353   14587    5831+
+           7942    7312    5832    5833
CTETRA      5735       1   16026     273     268    1129    2272    2274+
+           2271    8988    9248    8989
CTETRA      5736       1   11951     438     437     439    5123    3221+
+           5131    5085    3225    3224
CTETRA      5737       1   12606     102   12614     403    2087    2086+
+          12659    2988    9249    2989
CTETRA      5738       1   14781     447     721     309    6837    5524+
+           6834    7608    4143    7173
CTETRA      5739       1   13647   13649     546     659   14563    6325+
+           5821    4774    5812    5102
CTETRA      5740       1   13613   13619     174     113   14459    1841+
+           2487    2490    5230    2491
CTETRA      5741       1   13617     721     320     168    7549    5432+
+           7550    7807    5431    5435
CTETRA      5742       1   13617   13625   13624     721   14472   14471+
+          14470    7549    5429    5441
CTETRA      5743       1   17775   16322   16336     287   16458   16457+
+          16456    6482    4683    7366
CTETRA      5744       1   17359   12611   12612     245   12643   12655+
+          12653    9072    2151    8713
CTETRA      5745       1   17199   13464   18084     812   13960   13959+
+          17208    9250    6560    6559
CTETRA      5746       1   17986     672   11677     754    9251    6891+
+          11735    5886    9252    9253
CTETRA      5747       1   11999   12005   12006     102   12283   12287+
+          12286    1590    6940    7871
CTETRA      5748       1   17276   15337   15336    1080   15463   15465+
+          15464    8544    8546    9254
CTETRA      5749       1   12786   12787   12798     425   13091   13131+
+          13130    4885    8710    6391
CTETRA      5750       1   12409   12429     335     454   12472    3333+
+           2604    6667    6670    4994
CTETRA      5751       1   12413   12433     596     780   12488    7619+
+           5025    6216    7755    6778
CTETRA      5752       1   17198   13658   17199     790   14604   14605+
+          17207    9255    9256    9257
CTETRA      5753       1   17414   12431   17415     868   12544   12545+
+          17435    7714    6977    9258
CTETRA      5754       1   17198   13658     790     789   14604    9256+
+           9255    9259    9260    6362
CTETRA      5755       1   18027   11662     791    1155   11750    6364+
+           8935    9261    9262    9263
CTETRA      5756       1   17413     943   12430     944    9264    7558+
+          12542    9265    7561    7560
CTETRA      5757       1   18011   11570      38    1156   11649    1348+
+           7306    9266    9267    9268
CTETRA      5758       1   17415   12431   12432     868   12545   12482+
+          12546    9258    6977    6979
CTETRA      5759       1   17413   12430   17414     944   12542   12543+
+          17434    9265    7560    9203
CTETRA      5760       1   17411   12428   17412     728   12538   12539+
+          17432    9269    5534    9270
CTETRA      5761       1   12738   12739   12759     455   12920   12993+
+          12992    4986    3298    4987
CTETRA      5762       1   14666   14673   14672     213   14835   14837+
+          14836    2546    7695    2514
CTETRA      5763       1   17411     727   12428     728    9271    5532+
+          12538    9269    5535    5534
CTETRA      5764       1   12411   12431     454     461   12480    7481+
+           6181    6180    6975    3367
CTETRA      5765       1   17412   12428   12429     463   12539   12470+
+          12540    6044    8664    3331
CTETRA      5766       1   13178     135     210     707    5249    5257+
+           3926    5263    9272    5264
CTETRA      5767       1   12730   12731   12733     395   12851   12869+
+          12870    3424    5116    3425
CTETRA      5768       1   17565   13180   13178     210   13291   13293+
+          13287    5495    2006    3926
CTETRA      5769       1   13523     384     210     334    2872    5259+
+           2589    2590    6580    2591
CTETRA      5770       1   11946   11954   11952     128   12097   12093+
+          12099    7712    6033    1667
CTETRA      5771       1   17338     559     655     560    6903    4957+
+           4725    3956    6904    4724
CTETRA      5772       1   12435     495     494    1070    3533    3532+
+           3530    8485    8716    9273
CTETRA      5773       1   17522   13179   13178     707   13289   13288+
+          13290    6888    9274    5263
CTETRA      5774       1   11948   11956   11955     331   12107   12108+
+          12104    2569    2565    4772
CTETRA      5775       1   13504   13511   13510     430   14090   14089+
+          14088    3153    3157    3146
CTETRA      5776       1   17687     273   16026    1129    8274    2272+
+          16130    9275    9248    8988
CTETRA      5777       1   17302   12414     946     947   12579    7567+
+           9276    7613    7568    7570
CTETRA      5778       1   13178   13179     135     707   13288    5250+
+           5249    5263    9274    9272
CTETRA      5779       1   14657   14674   14658     654   14838   14840+
+          14839    4709    5593    5592
CTETRA      5780       1   13508   13509   13516     182   14087   14111+
+          14106    5539    6006    3865
CTETRA      5781       1   13509   13517   13516     235   14110   14112+
+          14111    6005    2116    2115
CTETRA      5782       1   14675   14692   14689     385   14905   14909+
+          14899    5009    2901    4997
CTETRA      5783       1   13508   13516   13515     182   14106   14105+
+          14104    5539    3865    3864
CTETRA      5784       1   14688     236     235     182    7124    2118+
+           2125    6003    4996    5998
CTETRA      5785       1   13519   13520   13543     185   14117   14201+
+          14203    4844    1923    7123
CTETRA      5786       1   12705   12725     494     499   12833    7198+
+           4500    4502    6696    3553
CTETRA      5787       1   12414   12415   12434     495   12495   12494+
+          12492    7734    3531    5229
CTETRA      5788       1   11965     340     780     661    6718    6359+
+           6717    6781    4795    6782
CTETRA      5789       1   13518     237     235     186    2123    2122+
+           2120    7163    7616    3141
CTETRA      5790       1   13503   13504   13510     430   14064   14088+
+          14084    3151    3153    3146
CTETRA      5791       1   13490     373   13491     376    2779    2791+
+          14021    2781    2780    5182
CTETRA      5792       1   14661     430   14682     184    6309    4408+
+          14857    2689    4407    4406
CTETRA      5793       1   12413   12414   12434     780   12493   12492+
+          12491    6216    6215    7769
CTETRA      5794       1   14658   14702   14715     377   15008   15010+
+          15009    5596    5689    2797
CTETRA      5795       1   17300   17301   12412     679   17318   12584+
+          12583    7475    9277    5027
CTETRA      5796       1   13469   13492   13491     372   14026   14029+
+          14027    4022    3999    2788
CTETRA      5797       1   17419     828   12436     829    8241    6690+
+          12554    8870    6694    6693
CTETRA      5798       1   16375   16376   16388     639   16635   16685+
+          16688    8440    6175    8642
CTETRA      5799       1   13469     373   13470     570    6144    6145+
+          14028    4024    7656    6141
CTETRA      5800       1   11997   11998   12008     100   12253   12304+
+          12299    3368    6974    6614
CTETRA      5801       1   17298     929   12410     928    9278    7463+
+          12587    7455    7465    7456
CTETRA      5802       1   13495   13496   13506     356   14044   14078+
+          14076    3448    2717    2705
CTETRA      5803       1   17639     508   14737    1004    5487    4649+
+          15055    9279    9280    9281
CTETRA      5804       1   12617   12618     458     460   12684    6092+
+           3316    3319    9105    3320
CTETRA      5805       1   12015   12020     152     433   12345    3720+
+           1749    7082    3715    3721
CTETRA      5806       1   17643   14709   14663     363   14978   14977+
+          14955    3435    3453    4855
CTETRA      5807       1   13466     666      62     667    4829    4815+
+           5383    4830    4819    4818
CTETRA      5808       1   17351   17352   12618     764   17377   12682+
+          12683    9282    6093    6095
CTETRA      5809       1   14650   14651      63      61   14989    1443+
+           6114    7347    1444    1445
CTETRA      5810       1   13569   13571   13570     508   14272   14274+
+          14273    3732    3588    5503
CTETRA      5811       1   12795   12798   12800     412   13129   13140+
+          13139    7523    6375    3983
CTETRA      5812       1   12795   12796   12802     412   13141   13154+
+          13151    7523    3883    3885
CTETRA      5813       1   17982     547     364     476    4325    5653+
+           4338    3432    5659    9283
CTETRA      5814       1   16318   16332   16319     172   16468   16476+
+          16478    7431    1831    4210
CTETRA      5815       1   14772     221   14773     282    4045    3383+
+          15216    2298    2304    6046
CTETRA      5816       1   17289   12401    1157     692   12520    9284+
+           9285    8649    5185    9286
CTETRA      5817       1   17982     364   12420     476    4338    2726+
+          12566    3432    9283    3433
CTETRA      5818       1   11932   11975   11933     243   12188   12187+
+          12190    2168    7060    4108
CTETRA      5819       1   12028   12031   12029     455   12394   12392+
+          12385    9287    3327    6407
CTETRA      5820       1   18101   17710   14778     643   17728   15308+
+          15312    4615    4617    4948
CTETRA      5821       1   13166     575     462     576    4097    4096+
+           4094    4101    7557    9161
CTETRA      5822       1   13624   13625   13647     659   14471   14555+
+          14554    5442    5427    4774
CTETRA      5823       1   12028   12029     152     455   12385    1751+
+           8719    9287    6407    6408
CTETRA      5824       1   14788     660     721     432    5449    5507+
+           5446    7607    5510    5509
CTETRA      5825       1   11973     465   11975     242    4265    3673+
+          12191    4266    4090    7059
CTETRA      5826       1   13646   13648   13647     354   14559   14556+
+          14560    6296    4776    4775
CTETRA      5827       1   14779   14780   14791     659   15242   15279+
+          15280    4761    5447    4762
CTETRA      5828       1   13626     167     546     168    1838    3873+
+           5101    1840    1821    5104
CTETRA      5829       1   12739   12740   12760     454   12923   12990+
+          12995    3296    4993    3297
CTETRA      5830       1   11951   11952   11954     128   12088   12093+
+          12094    5134    1667    6033
CTETRA      5831       1   17832   16335   16334     288   16454   16455+
+          16444    7508    6471    5974
CTETRA      5832       1   12772     311     276     444    2723    5372+
+           5376    5377    5374    5370
CTETRA      5833       1   17261   11673   11674     701   11726   11695+
+          11727    8753    5226    5228
CTETRA      5834       1   16342     157   16363     211    2024    2026+
+          16596    2002    3895    2003
CTETRA      5835       1   11663     189     191     732    1896    1900+
+           1899    5627    5629    9288
CTETRA      5836       1   17257   11671   17258      29   11720   11721+
+          17267    1313    1315    8512
CTETRA      5837       1   15537   15635   15616     211   16001   15999+
+          15924    2233    3896    8214
CTETRA      5838       1   16013     156     162     971    6537    4182+
+           6531    7803    7802    9289
CTETRA      5839       1   17875   15317   17876     751   15367   15366+
+          17882    5866    5868    7308
CTETRA      5840       1   18028   11663     191     732   11748    1899+
+           8805    8806    5627    9288
CTETRA      5841       1   17634   17635   15335    1158   17655   15454+
+          15453    9290    9291    9292
CTETRA      5842       1   11662     723     791    1155    9293    9294+
+           6364    9262    9295    9263
CTETRA      5843       1   18088   11756   17264    1122   11917   11792+
+          17274    9144    9296    9145
CTETRA      5844       1   17451     250     251     301    2390    2172+
+           2389    2392    2384    3419
CTETRA      5845       1   17634     383   14769    1158    3067    3069+
+          15200    9290    9297    9298
CTETRA      5846       1   17761   17762   15315     693   17765   15358+
+          15359    5189    7235    5190
CTETRA      5847       1   11660     253   11669    1159    9299    8776+
+          11678    9300    9301    9302
CTETRA      5848       1   18032   18033   11668     201   18036   11738+
+          11741    9132    7032    1963
CTETRA      5849       1   17498     715   12780     716    6644    5349+
+          13057    9303    5352    5351
CTETRA      5850       1   17383     345   15326    1032    5420    2638+
+          15402    9148    9158    8226
CTETRA      5851       1   17986     754      32     755    5886    9304+
+           8154    5888    5887    9305
CTETRA      5852       1   12780     346     344     715    2648    6662+
+           5099    5349    9306    5350
CTETRA      5853       1   17275   15339   18089     672   15484   15486+
+          17278    9307    4935    4934
CTETRA      5854       1   11566    1160   11575    1161    9308    9309+
+          11586    9310    9311    9312
CTETRA      5855       1   11565   11575   11574    1161   11585   11584+
+          11583    9313    9312    9314
CTETRA      5856       1   11575   11576     121    1160   11588    1648+
+           9133    9309    9315    9316
CTETRA      5857       1   17191    1145   11507    1057    9134    9317+
+          11523    8411    9135    9318
CTETRA      5858       1   12402   12423   12422     241   12447   12446+
+          12444    4342    2137    5668
CTETRA      5859       1   17188   13168   18083     940   13227   13229+
+          17189    7543    7542    9139
CTETRA      5860       1   12402     241     471     990    4342    3391+
+           5183    7915    9319    7916
CTETRA      5861       1   17954   17135   17134     489   17173   17175+
+          17174    3504    9111    9150
CTETRA      5862       1   17943   17134    1097    1099   17171    9320+
+           8668    8671    9321    8672
CTETRA      5863       1   16011   16012   16031     172   16071   16070+
+          16068    7284    6533    4248
CTETRA      5864       1   17996   16867   17997      11   16935   16936+
+          17999    8787    1247    1246
CTETRA      5865       1   17291   12403     609     827   12601    4355+
+           4354    8431    6686    6688
CTETRA      5866       1   15536   15537   15616     211   15794   15924+
+          15923    2234    2233    8214
CTETRA      5867       1   16346   16347      58     410   16532    3154+
+           6545    6676    3155    3156
CTETRA      5868       1   18113   17954   16978    1162   17971   17086+
+          17085    9322    9323    9324
CTETRA      5869       1   16876     123     122     877    1652    1651+
+           1650    7041    9152    9325
CTETRA      5870       1   18001   17897   16781    1084   16838   16837+
+          16839    8574    8972    8575
CTETRA      5871       1   15585      59   15605      58    8232    3015+
+          15860    7779    1429    7780
CTETRA      5872       1   15605      58      59      57    7780    1429+
+           3015    3017    1426    1430
CTETRA      5873       1   18107     788   17833     988    6380    6329+
+          17839    8681    8455    7895
CTETRA      5874       1   15587      55     410      57    3018    3034+
+           3033    3019    1419    6680
CTETRA      5875       1   17942   13659   13399    1023   14609   14608+
+          13705    9326    9327    8129
CTETRA      5876       1   18066   16864   18067     681   16943   16946+
+          18075    5055    5054    9066
CTETRA      5877       1   16971   16974     361     614   17062    3492+
+           3117    4383    6488    6489
CTETRA      5878       1   17406     241   12423     240    9212    2137+
+          12528    2133    9328    9329
CTETRA      5879       1   12401     471    1157     692    5184    9330+
+           9284    5185    5187    9286
CTETRA      5880       1   16781    1036     326    1147    8252    8254+
+           8231    9157    9156    9331
CTETRA      5881       1   16965     141     161     165    1785    1804+
+           1805    1808    7800    1809
CTETRA      5882       1   17802   16006     274    1060   16207    2277+
+           9332    9030    8425    8427
CTETRA      5883       1   16005   16006   16026     272   16049   16048+
+          16047    8106    2276    2270
CTETRA      5884       1   17802   16006   17803     274   16207   16209+
+          17824    9332    2277    9333
CTETRA      5885       1   18052     327   16772     328    8099    2533+
+          16842    8932    2536    2535
CTETRA      5886       1   17960     326   16963    1039    4397    5621+
+          17016    8266    8293    8267
CTETRA      5887       1   16334   16335   16337     314   16455   16473+
+          16474    4675    4682    4674
CTETRA      5888       1   18048   16769   16768     848   16851   16802+
+          16850    6825    6827    8361
CTETRA      5889       1   16312      56      59      57    1421    2029+
+           2041    1422    1420    1430
CTETRA      5890       1   17784   16024   16023     902   16171   16119+
+          16174    8591    7244    7243
CTETRA      5891       1   16219    1150      56    1128    9195    9334+
+           4535    8983    9196    9335
CTETRA      5892       1   15550   15556   15557     267   15703   15687+
+          15700    8940    5958    5957
CTETRA      5893       1   16041      59      14     467    6207    6208+
+           3877    3352    6209    3879
CTETRA      5894       1   16399      13       9      10    4625    1252+
+           4624    8281    1255    1245
CTETRA      5895       1   17789   16018   17790     308   16184   16183+
+          17811    2814    2421    3675
CTETRA      5896       1   16020      59     215     625    2031    2034+
+           2033    4504    4506    8980
CTETRA      5897       1   17803   16006   16005     274   16209   16049+
+          16124    9333    2277    8429
CTETRA      5898       1   16346   16358   16359      82   16558   16569+
+          16563    6547    6548    8993
CTETRA      5899       1   17977   17803   16005     771   16122   16124+
+          16123    8109    6165    6167
CTETRA      5900       1   15633   15635     157     512   15996    3894+
+           3853    3607    4900    3855
CTETRA      5901       1   14734   14739   14742     551   15077   15094+
+          15093    3910    7749    4860
CTETRA      5902       1   17854   16220   16221     371   16277   16283+
+          16281    2766    2768    6768
CTETRA      5903       1   13607      79     428      80    3130    3132+
+           3129    3133    1493    3174
CTETRA      5904       1   17742   15614   15591     648   15917   15918+
+          15914    8386    9336    4660
CTETRA      5905       1   16224      13     220     506    3581    5292+
+           5293    3583    3582    5295
CTETRA      5906       1   15590   15591   15614      13   15844   15918+
+          15919    1253    6348    5746
CTETRA      5907       1   17741      24   15614    1052    2256    2257+
+          15915    9337    8372    9338
CTETRA      5908       1   15601   15602   15612      59   15857   15908+
+          15903    1533    1535    7499
CTETRA      5909       1   16021      59    1130     713    4503    9339+
+           8997    5330    9035    9000
CTETRA      5910       1   17741   17742   16223    1052   17753   16295+
+          16294    9337    9340    8370
CTETRA      5911       1   17786   16021   17787     713   16178   16177+
+          17808    5333    5330    8999
CTETRA      5912       1   17735   16218   16210      55   16264   16263+
+          16260    3011    3007    8352
CTETRA      5913       1   15598      55      56     408    2469    1416+
+           2468    3014    3013    9341
CTETRA      5914       1   17711      43     225     226    1377    2066+
+           2071    2073    2070    2069
CTETRA      5915       1   16007     267   16027     268    7969    2248+
+          16052    6947    2246    2247
CTETRA      5916       1   17710   15561   17711      40   15718   15717+
+          17726    6024    3210    1378
CTETRA      5917       1   15565   15566     164     116   15744    1792+
+           7417    7418    1793    1795
CTETRA      5918       1   16011   16012     172     876   16071    6533+
+           7284    8341    7038    8866
CTETRA      5919       1   17800   16008    1149     777   16203    9187+
+           9342    8970    6194    9188
CTETRA      5920       1   17681   17682   16031    1022   17699   16140+
+          16141    9343    8882    8124
CTETRA      5921       1   17711      45   17712      43    1375    3212+
+          17725    1377    1376    7945
CTETRA      5922       1   17796   16011   17797    1091   16198   16197+
+          17818    9344    8618    9345
CTETRA      5923       1   15316     631      46    1061    4550    9346+
+           6015    8437    8436    9347
CTETRA      5924       1   17797    1091   16011    1163    9345    8618+
+          16197    9348    9349    9350
CTETRA      5925       1   17844   16211   17845     621   16229   16237+
+          17861    6514    4454    8334
CTETRA      5926       1   16369   16385   16386      45   16668   16676+
+          16675    3205    3215    1380
CTETRA      5927       1   15561     436      45      46    3203    3202+
+           3200    3209    3218    1381
CTETRA      5928       1   17825      40      46     974    1354    1384+
+           3219    7822    8438    9179
CTETRA      5929       1   15314   15316      46     907   15354    6015+
+           8110    7283    7282    9177
CTETRA      5930       1      41      40      43      35    1355    1371+
+           2679    1359    1358    1368
CTETRA      5931       1   17730     510   15620     511    8330    3598+
+          15941    6512    3602    3601
CTETRA      5932       1   16346      83      88      82    7213    7216+
+           4522    6547    1510    1540
CTETRA      5933       1   15626     964     519     784    7728    7730+
+           6236    6239    8939    6240
CTETRA      5934       1   13630     282     332     599    7900    3162+
+           2578    4283    9351    6298
CTETRA      5935       1   17710   17711      43      40   17726    1377+
+           2107    6024    1378    1371
CTETRA      5936       1   16380      50     271     436    8194    2262+
+           5315    5317    5034    5033
CTETRA      5937       1   17686   17687   16026    1129   17690   16130+
+          16131    9003    9275    8988
CTETRA      5938       1   16399   16404   16400      13   16743   16741+
+          16745    4625    6485    4637
CTETRA      5939       1   13607   13608     427      79   14412    3286+
+           3127    3130    3113    3131
CTETRA      5940       1   17912   16873   17913     684   16925   16926+
+          17922    9146    5062    6720
CTETRA      5941       1   16323      92   16330      93    6197    4475+
+          16432    5781    1558    5782
CTETRA      5942       1   17598   13496   13465     477   14034   14040+
+          14041    7399    3447    4822
CTETRA      5943       1   12764   12793   12802     471   13119   13150+
+          13152    5605    5632    5606
CTETRA      5944       1   13188     600     287     602    4292    4294+
+           4291    4300    8219    6473
CTETRA      5945       1   17660   17661   13189     803   17664   13330+
+          13329    6479    9352    6480
CTETRA      5946       1   11939   11950   11949     443   12085   12086+
+          12079    3238    6760    9197
CTETRA      5947       1   17382   15326   15325     443   15403   15412+
+          15410    4313    8023    4314
CTETRA      5948       1   15532   15533   15544     633   15646   15645+
+          15640    7860    7859    5784
CTETRA      5949       1   15619   15633   15630     497   15986   15987+
+          15975    3605    3604    5347
CTETRA      5950       1   13188     166   13190     601    4878    4901+
+          13344    4298    7936    4461
CTETRA      5951       1   12401   12421     547     471   12441    8722+
+           4324    5184    4329    5607
CTETRA      5952       1   17660   13187   18099     292   13334   13371+
+          17668    9353    9354    6374
CTETRA      5953       1   15545   15547     272     271   15644    5337+
+           2267    2258    5339    5338
CTETRA      5954       1   17660   15584   15583     287   15809   15810+
+          15806    6478    2325    7740
CTETRA      5955       1   16321   16335   16322     314   16464   16462+
+          16465    2458    4682    4681
CTETRA      5956       1   16016      83     266     521    3657    4896+
+           4145    3659    3658    9355
CTETRA      5957       1   12763   12772   12771     364   13030   13031+
+          13027    5600    2722    6424
CTETRA      5958       1   16014     156     717    1151    5873    9356+
+           5357    9208    9210    9357
CTETRA      5959       1   14646   14731   14750       3   15126   15128+
+          15127    1220    7155    1216
CTETRA      5960       1   13555   13556   13576       4   14244   14325+
+          14319    6599    1207    4152
CTETRA      5961       1   13587     527     578     581    6460    5049+
+           5043    5070    5053    5052
CTETRA      5962       1   14731   14740   14732     581   15085   15071+
+          15086    4179    4745    5051
CTETRA      5963       1   13610   13617   13616     721   14447   14446+
+          14445    6838    7549    5525
CTETRA      5964       1   14724   14758   14757     309   15168   15170+
+          15169    2439    2511    2429
CTETRA      5965       1   14725   14726   14759     424   15073   15154+
+          15153    5139    3168    3170
CTETRA      5966       1   14725     321     310     578    4139    4141+
+           4140    5140    4137    5042
CTETRA      5967       1   13610     721     309      28    6838    7173+
+           7093    7094    7226    2426
CTETRA      5968       1   14743   14744   14752     366   15114   15144+
+          15139    5112    3692    3693
CTETRA      5969       1   17791   16016   17792     522   16188   16187+
+          17813    3671    3660    8397
CTETRA      5970       1   12429     335     454     464    3333    4994+
+           6670    3334    3336    6671
CTETRA      5971       1   14654   14667   14655     490   14806   14805+
+          14807    3782    3507    3941
CTETRA      5972       1   14653   14701   14699     176   14946   14948+
+          14938    1857    6323    1858
CTETRA      5973       1   15565   15567   15566     116   15735   15743+
+          15744    7418    3712    1793
CTETRA      5974       1   15556     268     267      50    2264    2246+
+           5958    2265    2263    6633
CTETRA      5975       1   15549      92   15550     267    6190    8608+
+          15679    8973    4908    8940
CTETRA      5976       1   17798   16010     595    1089   16199    4258+
+           9358    9359    8605    8607
CTETRA      5977       1   12745   12752   12750     458   12945   12946+
+          12927    3704    3706    7121
CTETRA      5978       1   17407     241   12424     864    2136    2138+
+          12530    9360    6954    6953
CTETRA      5979       1   14645   14646   14750       3   15020   15127+
+          15129    1215    1220    1216
CTETRA      5980       1   14645   14716   14646       1   15019   15018+
+          15020    1221    1240    1217
CTETRA      5981       1   14646       5       4       3    1219    1208+
+           7154    1220    1212    1211
CTETRA      5982       1   13466   13494   13467     703   14036   14033+
+          14037    5389    6919    6107
CTETRA      5983       1   17981   12440   12420     364   12564   12517+
+          12565    4337    5656    2726
CTETRA      5984       1   14704     565   14706     703    6101    5243+
+          14975    5378    5247    5246
CTETRA      5985       1   13468     372   13469      60    4010    4022+
+          14025    1431    3995    4025
CTETRA      5986       1   14733     539     617      64    4389    4405+
+           7087    4391    4390    4403
CTETRA      5987       1   13469   13554   13553     570   14262   14267+
+          14266    4024    6140    6120
CTETRA      5988       1   17798   16010   16009     595   16199   16065+
+          16202    9358    4258    7967
CTETRA      5989       1   14650      60   14707      61    7135    3994+
+          14968    7347    1434    5384
CTETRA      5990       1   14704     565     703      61    6101    5247+
+           5378    6102    5385    6109
CTETRA      5991       1   18049    1120   16769     848    8903    8905+
+          16848    6826    9361    6827
CTETRA      5992       1   16769     967   16778    1108    9362    9363+
+          16801    9364    9365    8763
CTETRA      5993       1   17893   16777      91    1164   16829    1552+
+           9106    9366    9367    9368
CTETRA      5994       1   13386   13415   13387     226   13794   13777+
+          13795    2068    2106    4274
CTETRA      5995       1   16308   16309   16374     170   16438   16617+
+          16618    4972    6938    5016
CTETRA      5996       1   18084   13464   17605     813   13959   13958+
+          17613    6561    6563    9369
CTETRA      5997       1   17505    1165   13192     198    9370    9371+
+          13354    1947    9372    1948
CTETRA      5998       1   16369   16370   16385     436   16623   16667+
+          16668    3204    8807    3216
CTETRA      5999       1   16768      77      54    1051    1486    1488+
+           1414    8367    9373    8368
CTETRA      6000       1   16308     170      50      49    4972    5018+
+           5017    4740    1826    1397
CTETRA      6001       1   18084   15337   17229     253   15469   15467+
+          17231    9374    2178    2177
CTETRA      6002       1   17199   11511     205    1027   11548    9375+
+           8916    8172    8536    8917
CTETRA      6003       1   17663   18102   13191     284   17667   13352+
+          13351    8603    4809    2313
CTETRA      6004       1   13590     366     317      26    4031    2735+
+           5111    1305    7479    6245
CTETRA      6005       1   13176     369     318     473    3230    4027+
+           3253    3408    3407    6929
CTETRA      6006       1   17512   17513   13176     473   17535   13270+
+          13271    6928    3406    3408
CTETRA      6007       1   13590   13591   13601      26   14368   14402+
+          14399    1305    1300    1302
CTETRA      6008       1   16365   16366   16401     217   16645   16763+
+          16762    5839    6272    4669
CTETRA      6009       1   13562   13584   13583      67   14348   14350+
+          14349    6994    1458    1457
CTETRA      6010       1   17635     483   15335    1166    7932    9376+
+          15454    9377    9378    9379
CTETRA      6011       1   14728   14729   14762     381   15046   15151+
+          15160    3829    3830    4033
CTETRA      6012       1   16866    1097   16875    1069    9380    9381+
+          16904    9112    9382    8483
CTETRA      6013       1   17941   17942   13399    1023   17945   13705+
+          13706    8572    9326    8129
CTETRA      6014       1   17592   13575     482     985   14312    6345+
+           7174    7955    7881    7883
CTETRA      6015       1   16379   16382   16380     632   16656   16658+
+          16657    4557    4559    5316
CTETRA      6016       1   16366     749     638     217    6047    6051+
+           6050    6272    5838    4670
CTETRA      6017       1   14680     237   14684     186    2126    8826+
+          14864    3139    7616    6310
CTETRA      6018       1   16006   16027   16026     268   16051   16050+
+          16048    2275    2247    2271
CTETRA      6019       1   17976   18103   16044     842   17980   16167+
+          16168    6785    8812    8596
CTETRA      6020       1   16376   16377   16387     633   16637   16677+
+          16678    5965    5861    5345
CTETRA      6021       1   13567   13573   13574     540   14305   14306+
+          14307    3791    3918    3917
CTETRA      6022       1   14649   14703   14707      60   14963   14965+
+          14964    6118    6119    3994
CTETRA      6023       1   13553   13572   13568     617   14295   14303+
+          14281    4401    4858    4402
CTETRA      6024       1   14742     551     580     617    4860    4756+
+           7142    4866    4867    6138
CTETRA      6025       1   14649     617      60      64    6125    6127+
+           6118    7136    4403    1451
CTETRA      6026       1   13510   13518   13517     235   14109   14108+
+          14107    3144    2120    2116
CTETRA      6027       1   13398     161     141     165    1814    1804+
+           9383    1816    1809    7800
CTETRA      6028       1   13425   13531   13529     134   14152   14154+
+          14153    7513    2372    2598
CTETRA      6029       1   13524   13528   13526     209   14139   14144+
+          14142    2017    7698    7887
CTETRA      6030       1   13523     209     169     334    2588    6858+
+           1822    2590    2592    6579
CTETRA      6031       1   14679   14684   14680     237   14865   14864+
+          14866    5473    8826    2126
CTETRA      6032       1   17956   17957   16970     486   17970   17050+
+          17051    9384    3498    3500
CTETRA      6033       1   11579     859     995     996    8737    9385+
+           9386    8740    8739    7971
CTETRA      6034       1   14660   14682   14661     430   14855   14857+
+          14856    7776    4408    6309
CTETRA      6035       1   14683     187     184     185    7987    4030+
+           4410    4966    1886    1876
CTETRA      6036       1   14662   14683   14686     187   14870   14883+
+          14880    3457    7987    1883
CTETRA      6037       1   13493   13494   13504     431   14032   14069+
+          14065    7452    7451    3150
CTETRA      6038       1   16960   16962   16961     350   17018   17020+
+          17019    3124    7003    7001
CTETRA      6039       1   13396   13408   13409     422   13752   13750+
+          13747    4360    3494    4381
CTETRA      6040       1   13494   13505   13504     355   14071   14070+
+          14069    6921    2702    4848
CTETRA      6041       1   16764     141     165    1043    7797    7800+
+           7799    8298    8467    8299
CTETRA      6042       1   13381   13396     163     161   13691    3874+
+           1893    6567    8305    6317
CTETRA      6043       1   17830   16961   16965     161   17027   17025+
+          17023    1777    1806    1805
CTETRA      6044       1   14659     566   14681     431    6002    7145+
+          14859    7707    7148    7147
CTETRA      6045       1   14710     703     666      62    5380    5387+
+           4816    4814    5390    4815
CTETRA      6046       1   11579     859   11580     915    8737    7886+
+          11606    7355    9387    7420
CTETRA      6047       1   13169     860     859     881    6918    8215+
+           7516    7052    8735    9007
CTETRA      6048       1   16327      49      47     125    4741    8422+
+           5981    5983    8002    5984
CTETRA      6049       1   17827   16975   16972     423   17073   17074+
+          17058    3303    3305    7189
CTETRA      6050       1   11570      37      38    1114    1346    1349+
+           1348    8840    9388    9389
CTETRA      6051       1   16960   16969   16971     422   17049   17054+
+          17053    3121    3098    3491
CTETRA      6052       1   17516   17517   13185     179   17548   13320+
+          13328    8424    9232    1853
CTETRA      6053       1   17561     178   13183     493    3768    3519+
+          13307    6596    3523    3522
CTETRA      6054       1   13471   13472   13556       5   13991   14249+
+          14245    7143    1225    1209
CTETRA      6055       1   13458      94     251     250    2197    2202+
+           5462    2200    2199    2172
CTETRA      6056       1   11572   11573   11581      94   11613   11612+
+          11611    6627    2969    8057
CTETRA      6057       1   17337      94     859     768    7416    7219+
+           7025    6130    9127    7024
CTETRA      6058       1   18014      98   11573     400    6869    1573+
+          11643    8855    8859    2970
CTETRA      6059       1   13194   13195      20     969   13366    7996+
+           9390    7772    7771    7982
CTETRA      6060       1   17892   16777   17893    1164   16828   16829+
+          17902    9391    9367    9366
CTETRA      6061       1   16768   16778   16777      77   16800   16799+
+          16798    1486    8556    8567
CTETRA      6062       1   13529   13539   13544     336   14195   14206+
+          14205    2600    4191    2645
CTETRA      6063       1   17195   13442     730    1167   13858    5585+
+           5759    9392    9393    9394
CTETRA      6064       1   17332   17333   11766     129   17341   11824+
+          11825    4924    5953    6266
CTETRA      6065       1   11973   11975   11977     242   12191   12193+
+          12192    4266    7059    2140
CTETRA      6066       1   17244   11581     767     922   11636    9395+
+           9396    7414    7413    9397
CTETRA      6067       1   18029   11665   11664     591   11747   11698+
+          11746    8816    4232    7406
CTETRA      6068       1   17261   11674   17262     678   11727   11728+
+          17271    8908    5023    9398
CTETRA      6069       1   17196   13440   17197    1143   13850   13846+
+          17206    9399    9117    9116
CTETRA      6070       1   11666   11676   11675     280   11704   11703+
+          11701    2293    3472    3471
CTETRA      6071       1   11674     588     589    1121    4218    4222+
+           4221    8910    9400    9143
CTETRA      6072       1   11676      86   11677    1090    5392    4923+
+          11707    8611    9401    8612
CTETRA      6073       1   17603   13538   13535      86   14183   14184+
+          14168    4930    1525    5421
CTETRA      6074       1   17263     480   11676    1090    8213    3474+
+          11731    9142    9402    8611
CTETRA      6075       1   17644   14663   14687     199   14891   14890+
+          14892    5424    5755    2868
CTETRA      6076       1   11949   11957   11958     344   12110   12119+
+          12118    7501    6664    9114
CTETRA      6077       1   18098   17935   13462      74   17951   13951+
+          13950    1480    9403    9404
CTETRA      6078       1   13441   13447   13448     635   13878   13872+
+          13877    5564    5574    5573
CTETRA      6079       1   14643     197     367     368    3816    6231+
+           2760    3817    3819    2741
CTETRA      6080       1   11673     588     701     702    5225    5227+
+           5226    5237    7589    5241
CTETRA      6081       1   13592   13603   13602     440   14405   14407+
+          14406    5719    5879    5878
CTETRA      6082       1   15589   15593   15590     637   15838   15839+
+          15841    8430    6583    4592
CTETRA      6083       1   13431   13440   13445     189   13847   13864+
+          13863    5466    7407    7596
CTETRA      6084       1   13484   13485     553     557   13994    4458+
+           3945    3943    4081    3944
CTETRA      6085       1   11660   11669     920    1159   11678    9405+
+           7380    9300    9302    9406
CTETRA      6086       1   14654   14655   14718     557   14807   15030+
+          15029    8187    3940    8188
CTETRA      6087       1   12787   12801   12798     425   13144   13147+
+          13131    8710    7923    6391
CTETRA      6088       1   12612     247     646     248    2157    6626+
+           6624    2160    2159    8694
CTETRA      6089       1   13442     319     730    1167    2484    5586+
+           5585    9393    9407    9394
CTETRA      6090       1   14718   14719       6     557   15038    4060+
+           4779    8188    4061    4062
CTETRA      6091       1   17476     411   12609    1168    3047    3986+
+          12636    9408    9409    9410
CTETRA      6092       1   17213   11765   17214     740   11812   11811+
+          17223    5757    5713    5712
CTETRA      6093       1   11986   11987   12010     412   12240   12314+
+          12315    5174    7924    3041
CTETRA      6094       1   13441   13448     189     635   13877    5588+
+           5565    5564    5573    5563
CTETRA      6095       1   15608   15609     144     150   15889    1740+
+           5296    8355    1741    1743
CTETRA      6096       1   13487     263     261     322    2218    2220+
+           2217    2838    2839    6368
CTETRA      6097       1   17473   12612   17474    1100   12648   12649+
+          17483    8699    8687    9055
CTETRA      6098       1   12414     495   12434     780    7734    5229+
+          12492    6215    6357    7769
CTETRA      6099       1   12786   12789   12788     646   13105   13101+
+          13090    4873    4875    6387
CTETRA      6100       1   13488   13489   13500     260   14011   14048+
+          14053    2228    3921    2213
CTETRA      6101       1   11760   11761   11772     319   11814   11854+
+          11856    4367    5577    6226
CTETRA      6102       1   13443   13450   13449     319   13888   13886+
+          13887    2485    6225    2486
CTETRA      6103       1   11772     319      96     401    6226    4563+
+           2995    2996    6203    2983
CTETRA      6104       1   17215   11771   17216     612   11851   11852+
+          17219    4376    4371    9411
CTETRA      6105       1   17991     405   18087    1144    3000    9412+
+          17995    9123    9125    9413
CTETRA      6106       1   14656   14657     376     260   14825    4714+
+           4468    3860    4710    4473
CTETRA      6107       1   14679   14691   14694     670   14908   14919+
+          14921    4918    5476    4906
CTETRA      6108       1   17526     980   13167    1000    9241    9240+
+          13222    7988    9414    7989
CTETRA      6109       1   17350   17351   12619     763   17375   12687+
+          12688    7680    8865    6086
CTETRA      6110       1   14670   14671   14675     259   14828   14844+
+          14843    2204    6100    5011
CTETRA      6111       1   17452     395     251     655    5729    3422+
+           3960    4718    4716    4956
CTETRA      6112       1   12716   12729   12733     341   12875   12871+
+          12867    6715    3409    3411
CTETRA      6113       1   12715     340   12729     661    6815    4791+
+          12873    6816    4795    7089
CTETRA      6114       1   17232   13167   17233    1038   13238   13225+
+          17236    8258    9415    9416
CTETRA      6115       1   12717   12735   12734     232   12885   12881+
+          12886    6370    2147    2170
CTETRA      6116       1   11934   11935   12030     455   12126   12390+
+          12391    4083    3364    3365
CTETRA      6117       1   17233     474   13168    1095    3416    3418+
+          13223    9417    8638    9094
CTETRA      6118       1   17241   11578    1169    1094   11630    9418+
+           9419    8637    8636    9420
CTETRA      6119       1   12713   12758     243     963   12985    7265+
+           7621    9205    7724    9160
CTETRA      6120       1   17413   12429   12430     464   12541   12474+
+          12542    7571    3334    6672
CTETRA      6121       1   12412   12433   12432     596   12487   12486+
+          12484    5026    7619    7781
CTETRA      6122       1   11972     242     341     661    6960    6308+
+           6818    6961    6963    4794
CTETRA      6123       1   17303   12415   12414     947   12577   12495+
+          12580    7614    9421    7568
CTETRA      6124       1   12414   12415     495     947   12495    3531+
+           7734    7568    9421    7735
CTETRA      6125       1   12722   12730   12729     341   12847   12849+
+          12848    2626    3410    3409
CTETRA      6126       1   17238   11574   11575     297   11623   11584+
+          11624    2368    9422    2369
CTETRA      6127       1   17301   12413   12412     679   12581   12489+
+          12584    9277    5028    5027
CTETRA      6128       1   12025   12026   12030     454   12368   12386+
+          12388    7628    4279    3363
CTETRA      6129       1   12720   12721   12728     417   12832   12844+
+          12843    6278    3063    3062
CTETRA      6130       1   17450     301     300     252    5896    2383+
+           5883    5897    2386    2385
CTETRA      6131       1   17298   17299   12410     929   17315   12588+
+          12587    9278    9423    7463
CTETRA      6132       1   11995   11996   12009     425   12276   12309+
+          12316    3114    4349    3115
CTETRA      6133       1   17363   12608     146    1170   12624    1763+
+           1720    9424    9425    9426
CTETRA      6134       1   17476   12609   17477    1168   12636   12635+
+          17481    9408    9410    9427
CTETRA      6135       1   12611     425     245     246    6619    8712+
+           2151    2154    6621    2155
CTETRA      6136       1   12621     686     528    1171    5127    8663+
+           7669    9428    9429    9430
CTETRA      6137       1   17355   17356   12615     983   17365   12664+
+          12663    7867    8477    7868
CTETRA      6138       1   12615     787     103    1140    6293    9431+
+           1925    9097    9432    9098
CTETRA      6139       1   11983   11994   11984     103   12247   12246+
+          12248    7586    5683    3743
CTETRA      6140       1   11983     103     104     101    7586    3349+
+           1595    1598    1594    1599
CTETRA      6141       1   17464   12621   12620     956   12701   12698+
+          12696    9201    8731    7678
CTETRA      6142       1   13550   13551   13571     393   14259   14279+
+          14278    3590    3573    3574
CTETRA      6143       1   13466   13551   13550      62   14255   14259+
+          14258    5383    1436    6156
CTETRA      6144       1   14651   14737   14738      63   15068   15064+
+          15066    1443    4650    5499
CTETRA      6145       1   12614     102     231     903    2086    2090+
+           2089    8036    8037    8461
CTETRA      6146       1   17357   12614     793     403   12657    6431+
+           8691    2987    2989    6432
CTETRA      6147       1   18101   17710     642     970   17728    4614+
+           4613    9433    7792    8151
CTETRA      6148       1   13550      62     393     667    6156    2938+
+           3590    6157    4818    6845
CTETRA      6149       1   13551   13552   13570      63   14253   14277+
+          14276    1446    1449    5501
CTETRA      6150       1   12746   12751     433     528   12940    7666+
+           3173    7526    7527    3724
CTETRA      6151       1   17448     624     379     677    4495    7618+
+           7617    5004    5006    9434
CTETRA      6152       1   12741   12748   12745     335   12913   12910+
+          12907    7642    3338    3337
CTETRA      6153       1   12401     471     547    1157    5184    5607+
+           4324    9284    9330    9435
CTETRA      6154       1   14679   14694     336     670   14921    4185+
+           4184    4918    4906    4889
CTETRA      6155       1   17333   11936   17334     378   12064   12134+
+          17342    7674    7257    2799
CTETRA      6156       1   17333     130     129     136    5951    1672+
+           5953    6314    1694    1693
CTETRA      6157       1   17300   12412   12411     931   12583   12485+
+          12586    7476    7478    9182
CTETRA      6158       1   12710   12711   12760     461   12905   13001+
+          13000    4608    3323    3322
CTETRA      6159       1   11934     461   11935     455    5786    3366+
+          12126    4083    3325    3364
CTETRA      6160       1   12025     335   12026     454    2593    2595+
+          12368    7628    4994    4279
CTETRA      6161       1   17334   11770   11762     610   11847   11849+
+          11846    4357    4554    5715
CTETRA      6162       1   13429      94     250      95    1579    2199+
+           2198    1580    1563    7055
CTETRA      6163       1   12422     238     471     737    2129    4332+
+           4330    5670    9436    6689
CTETRA      6164       1   12430     454   12431     944    6669    7481+
+          12478    7560    7562    9204
CTETRA      6165       1   12433     780     871     872    7755    8714+
+           6986    6989    7757    6990
CTETRA      6166       1   11941     311     126     437    6428    2442+
+           4364    5132    6429    5608
CTETRA      6167       1   12705     494   12706     127    4500    7675+
+          12827    4501    3549    7682
CTETRA      6168       1   11940     437   11951     438    3241    5131+
+          12089    3242    3221    5123
CTETRA      6169       1   11965   11973   11972     661   12175   12177+
+          12164    6781    6962    6961
CTETRA      6170       1   13503     235     566     431    5997    7146+
+           6014    3149    7149    7148
CTETRA      6171       1   17289   17290   12402     991   17321   12603+
+          12605    9437    7954    7917
CTETRA      6172       1   12775     442     438     444    3248    3236+
+           3247    4856    5362    3245
CTETRA      6173       1   13548   13549     137     131   14220    4914+
+           7115    5008    4915    1697
CTETRA      6174       1   11941   11944     126     311   12050    6704+
+           4364    6428    5709    2442
CTETRA      6175       1   12715   12736   12737     596   12891   12895+
+          12898    7784    7611    4916
CTETRA      6176       1   13443   13444     401     662   13855    3258+
+           3257    4796    8595    6206
CTETRA      6177       1   11937   11946     494     499   12070    3550+
+           5418    5412    3551    3553
CTETRA      6178       1   12720   12726   12725     417   12830   12835+
+          12831    6278    6277    5410
CTETRA      6179       1   13432   13450      97      96   13884    2974+
+           1567    1565    2982    1566
CTETRA      6180       1   17991     401   11574     406    2999    7948+
+          11619    3003    3005    3097
CTETRA      6181       1   18101    1021   17710    1020    8117    8145+
+          17728    9438    8147    8112
CTETRA      6182       1   17396   12735   12718     232   12883   12887+
+          12888    2100    2147    2101
CTETRA      6183       1   11976   11979   11978     232   12203   12204+
+          12200    2963    2962    6371
CTETRA      6184       1   17991   18087   17245    1144   17995   17255+
+          11639    9123    9413    9439
CTETRA      6185       1   17991   18087     405     406   17995    9412+
+           3000    3003    3096    3004
CTETRA      6186       1   17464     686   12621    1171    5125    5127+
+          12701    9440    9429    9428
CTETRA      6187       1   17405   17406   12794     238   17426   13124+
+          13122    5641    2128    9441
CTETRA      6188       1   17604   13662      32      31   14623    1328+
+           1327    8159    8161    1322
CTETRA      6189       1   17448   14684   14679     137   14875   14865+
+          14873    1695    4943    4917
CTETRA      6190       1   12012   12031   12028     462   12395   12394+
+          12379    8718    3330    9442
CTETRA      6191       1   12028   12031     455     462   12394    3327+
+           9287    9442    3330    3329
CTETRA      6192       1   17986     754     756    1172    5886    5890+
+           5889    9443    9444    9445
CTETRA      6193       1   17986     756    1122    1172    5889    8913+
+           8912    9443    9445    9446
CTETRA      6194       1   11565   11574     401    1173   11583    7948+
+           6056    9447    9448    9449
CTETRA      6195       1   15316      46     760     897    6015    6018+
+           6017    7188    8111    9450
CTETRA      6196       1   17732   15628   15627     203   15965   15964+
+          15967    1973    3620    1974
CTETRA      6197       1   13439     401   13444     445    7946    3258+
+          13849    3255    8285    3256
CTETRA      6198       1   18101   17710     970    1020   17728    7792+
+           9433    9438    8112    8648
CTETRA      6199       1   17216   11771     401     612   11852    6204+
+           6865    9411    4371    6205
CTETRA      6200       1   11988   11992   11991     147   12229   12233+
+          12223    7693    7016    5661
CTETRA      6201       1   11928   11940     442     444   12036    4339+
+           5710    8373    3243    5362
CTETRA      6202       1   17217   11783   17218     294   11910   11911+
+          17220    8284    8283    9451
CTETRA      6203       1   17763   15316     760     897   15352    6017+
+           8830    7186    7188    9450
CTETRA      6204       1   17381   15325     442     604   15411    5698+
+           5697    8683    4317    5702
CTETRA      6205       1   11939     438   11950     443    3237    5122+
+          12085    3238    3240    6760
CTETRA      6206       1   11577    1095     940    1174    9236    9095+
+           9452    9453    9454    9455
CTETRA      6207       1   11566   11576   11575    1160   11589   11588+
+          11586    9308    9315    9309
CTETRA      6208       1   11574    1161   11575     297    9314    9312+
+          11584    9422    9456    2369
CTETRA      6209       1   13442     319   13449     635    2484    2486+
+          13882    5584    4576    4575
CTETRA      6210       1   17218    1093    1011     249    8629    9457+
+           8049    2163    8630    8051
CTETRA      6211       1   11928     444     442     558    8373    5362+
+           5710    7874    3970    5363
CTETRA      6212       1   11570      38     913    1114    1348    9458+
+           8838    8840    9389    8841
CTETRA      6213       1   11565   11566   11575    1161   11587   11586+
+          11585    9313    9310    9312
CTETRA      6214       1   11759     849     401     298    6842    6867+
+           6866    2364    9459    8282
CTETRA      6215       1   17991   17992   11574     401   17994   11620+
+          11619    2999    2990    7948
CTETRA      6216       1   11986   11989     547     471   12235    6060+
+           6666    5173    9211    5607
CTETRA      6217       1   17192   13660   13439     976   14614   14613+
+          13842    8276    9460    8277
CTETRA      6218       1   13493     431     565     703    7452    5244+
+           7662    7453    5248    5247
CTETRA      6219       1   11996   12007   12009     241   12294   12308+
+          12309    4870    3388    3387
CTETRA      6220       1   17233   13168   18082    1095   13223   13226+
+          17235    9417    9094    9093
CTETRA      6221       1   11576   11577     120    1175   11592    6775+
+           1645    9461    9462    9463
CTETRA      6222       1   18082   17218   11779    1176   17221   11887+
+          11886    9464    9465    9466
CTETRA      6223       1   17191    1154   13453    1057    9235    9234+
+          13903    8411    9467    8412
CTETRA      6224       1   16865   16866    1152    1086   16905    9468+
+           9222    8586    8585    9221
CTETRA      6225       1   13552   13553   13568      64   14264   14281+
+          14280    1447    4385    4404
CTETRA      6226       1   13562   13575   13574     381   14316   14318+
+          14309    3825    7217    2826
CTETRA      6227       1   16864     682   16865    1029    5057    9226+
+          16901    8200    8202    9469
CTETRA      6228       1   16875   16876     122     877   16906    1650+
+           9470    9151    7041    9325
CTETRA      6229       1   17717     111     806     811    6342    6509+
+           6508    6556    7902    6557
CTETRA      6230       1   13380     141   13398     161    1801    9383+
+          13698    1802    1804    1814
CTETRA      6231       1   16866   16867    1097    1098   16909    9471+
+           9380    9040    9081    8669
CTETRA      6232       1   13160     817     111     818    6602    9472+
+           2099    6605    6604    7470
CTETRA      6233       1   17943    1135   17134    1099    9473    9474+
+          17171    8671    9475    9321
CTETRA      6234       1   17954   17955   16981     358   17972   17104+
+          17105    9476    2694    2696
CTETRA      6235       1   16864     361     681     682    7649    7651+
+           5054    5057    8199    5058
CTETRA      6236       1   17942   17943   13659    1107   17953   14610+
+          14609    8756    9477    8757
CTETRA      6237       1   17943    1098    1135    1099    8670    9041+
+           9473    8671    8673    9475
CTETRA      6238       1   18044   16764    1043    1067   16817    8298+
+           8530    9478    8468    8470
CTETRA      6239       1   18063      12   16867    1136    8797    1250+
+          16937    9079    9049    9048
CTETRA      6240       1   16867     908    1177    1136    9047    9479+
+           9480    9048    9050    9481
CTETRA      6241       1   18044   18045   16765     390   18054   16856+
+          16858    9165    9009    2909
CTETRA      6242       1   16777      91      90    1178    1552    1554+
+           1551    9482    9483    9484
CTETRA      6243       1   17891   16775   16776     138   16825   16793+
+          16826    1700    1702    7899
CTETRA      6244       1   17884   13192   17885    1105   13356   13369+
+          17887    8750    8752    9485
CTETRA      6245       1   13379   13398   13380     141   13703   13698+
+          13704    8978    9383    1801
CTETRA      6246       1   17885   13194   18107      21   13370   13372+
+          17888    9084    9083    9086
CTETRA      6247       1   17892   16776   16777    1164   16827   16797+
+          16828    9391    9486    9367
CTETRA      6248       1   13402   13404   13408     422   13723   13738+
+          13737    3493    4379    3494
CTETRA      6249       1   13389   13395      34     423   13670    7177+
+           5940    5272    6477    3304
CTETRA      6250       1   13446   13449      96     610   13880    4564+
+           6133    6123    4565    4555
CTETRA      6251       1   13420   13438   13437     129   13835   13834+
+          13832    5943    6247    5612
CTETRA      6252       1   11572      94   11581     859    6627    8057+
+          11611    7220    7219    7885
CTETRA      6253       1   17911   16872   17912     804   16923   16924+
+          17921    8120    6497    8493
CTETRA      6254       1   13392   13395   13393     423   13677   13687+
+          13688    6484    6477    3103
CTETRA      6255       1   14665   14667   14669     263   14810   14823+
+          14818    5439    3510    7383
CTETRA      6256       1   13477   13478   13480     537   13977   13984+
+          13987    3790    5644    3777
CTETRA      6257       1   16772     326   16781    1179    2531    8231+
+          16813    9487    9488    9489
CTETRA      6258       1   16962   16967   16965     165   17028   17031+
+          17026    7002    7004    1808
CTETRA      6259       1   16319   16320   16340     421   16480   16494+
+          16495    4211    3081    6504
CTETRA      6260       1   16865   16874    1138    1152   16900    9065+
+           9064    9222    9490    9491
CTETRA      6261       1   17916   16875   16876     122   16931   16906+
+          16932    9153    9470    1650
CTETRA      6262       1   16874   16875     360    1069   16902    2732+
+           2701    8484    8483    9492
CTETRA      6263       1   13508     182   13515     259    5539    3864+
+          14104    5540    5531    6080
CTETRA      6264       1   13499   13515   13528     333   14103   14141+
+          14140    6081    5003    2884
CTETRA      6265       1   13515     259     385     333    6080    5010+
+           3866    5003    5013    2885
CTETRA      6266       1   17896     798   16780     802    6467    6451+
+          16835    8190    6464    6463
CTETRA      6267       1   14688   14689     236     182   14904    4995+
+           7124    6003    1871    4996
CTETRA      6268       1   17877   15315     630     699   15361    7234+
+           4546    8198    5217    7862
CTETRA      6269       1   17877   15316   17878     631   15357   15355+
+          17880    4548    4550    8434
CTETRA      6270       1   13564   13572   13565     551   14297   14296+
+          14298    4749    5789    4750
CTETRA      6271       1   17789   16019     517     518   16181    3642+
+           9493    8517    3643    3645
CTETRA      6272       1   13575     541     381     482    4126    4119+
+           7217    6345    7880    6993
CTETRA      6273       1   17797   16011   16010    1089   16197   16069+
+          16200    9494    8818    8605
CTETRA      6274       1   16029     846      92     847    6802    9495+
+           5779    6805    6804    8614
CTETRA      6275       1   15566     116   15567     171    1793    3712+
+          15743    7928    3710    3711
CTETRA      6276       1   13601   13612   13611      30   14434   14433+
+          14432    1317    2493    5724
CTETRA      6277       1   16011    1091     173    1163    8618    8620+
+           6763    9350    9349    9496
CTETRA      6278       1   17511   13603   13592     440   14400   14405+
+          14366    7159    5879    5719
CTETRA      6279       1   13600   13601   13611      28   14398   14432+
+          14428    1316    1319    5723
CTETRA      6280       1   15569     164     172     421    3088    1835+
+           4237    3091    3090    4212
CTETRA      6281       1   14723   14743      27      26   15137    8079+
+           1308    1311    7947    1307
CTETRA      6282       1   14744     366   14746     367    3692    2734+
+          15098    2762    2738    2737
CTETRA      6283       1   17798   16009   17799     622   16202   16201+
+          17820    9497    4480    8107
CTETRA      6284       1   16324   16330   16329      93   16434   16439+
+          16435    5783    5782    7925
CTETRA      6285       1   17797   16010   17798    1089   16200   16199+
+          17819    9494    8605    9359
CTETRA      6286       1   17671   16041   16042     467   16161   16112+
+          16162    9141    3352    3880
CTETRA      6287       1   18107   13187   17775     289   13332   13331+
+          17779    9498    2333    8405
CTETRA      6288       1   16023       9   16043      14    5319    7746+
+          16117    5320    1286    6214
CTETRA      6289       1   13174    1116     700    1180    8869    9499+
+           9500    9501    9502    9503
CTETRA      6290       1   16399   16402      13      10   16733    1296+
+           4625    8281    1293    1255
CTETRA      6291       1   13633   13635     281     282   14507    2320+
+           3185    3190    2321    2300
CTETRA      6292       1   14793     332     225     354    2575    2577+
+           2574    2673    7294    2674
CTETRA      6293       1   17640   14652   17641     850   15054   14997+
+          17649    6925    6847    9230
CTETRA      6294       1   13517   13518   13540     237   14108   14192+
+          14191    2121    2123    5484
CTETRA      6295       1   13604     221     223     224    2301    3382+
+           2060    2063    9504    2064
CTETRA      6296       1   17976   16024   17977     637   16169   16170+
+          17979    6787    4639    8320
CTETRA      6297       1   17987   18114   18025      33   17988   18034+
+          11711    1324    9131    8181
CTETRA      6298       1   17275   17276   15336    1181   17279   15464+
+          15483    9505    9506    9507
CTETRA      6299       1   17976   17977   16005     639   17979   16123+
+          16125    8417    7014    6177
CTETRA      6300       1   16006   16007   16027     268   16053   16052+
+          16051    2275    6947    2247
CTETRA      6301       1   17986   11677      32     754   11735    4922+
+           8154    5886    9253    9304
CTETRA      6302       1   17800   16007   17801     862   16206   16205+
+          17822    8195    6945    8643
CTETRA      6303       1   17605     813   13464    1182    9369    6563+
+          13958    9508    9509    9510
CTETRA      6304       1   16027     267   16028      68    2248    6185+
+          16054    1464    2250    9004
CTETRA      6305       1   11661   11670   11669    1026   11682   11681+
+          11679    8528    8791    8902
CTETRA      6306       1   17734   16210   16216     519   16256   16254+
+          16252    6237    7242    5773
CTETRA      6307       1   15625     302      88     203    6065    3543+
+           6067    6066    4524    1993
CTETRA      6308       1   16366   16400   16401     638   16760   16738+
+          16763    6050    4635    4654
CTETRA      6309       1   18025   18026   11661     206   18043   11752+
+          11754    8534    1980    1982
CTETRA      6310       1   11662    1074   11671     697    8513    8515+
+          11685    8770    9511    5199
CTETRA      6311       1   15590   15614   15613      13   15919   15921+
+          15911    1253    5746    5745
CTETRA      6312       1   15591   15614      13     648   15918    5746+
+           6348    4660    9336    8235
CTETRA      6313       1   15598      56   15610     408    2468    4529+
+          15892    3014    9341    4538
CTETRA      6314       1   15587   15603   15598      55   15864   15865+
+          15851    3018    2470    2469
CTETRA      6315       1   17734   15588   17735     409   15854   15853+
+          17746    7813    3022    3021
CTETRA      6316       1   15603   15605   15604      59   15866   15859+
+          15867    2027    3015    1534
CTETRA      6317       1   17737   15610   15609     628   15894   15891+
+          15896    4526    4530    4527
CTETRA      6318       1   14672   14673   14677     209   14837   14853+
+          14849    2515    1998    1997
CTETRA      6319       1   13427   13523     135     210   14129    2357+
+           5287    8003    2589    5257
CTETRA      6320       1   17740   15599   17741     501   15874   15877+
+          17747    8221    3565    5743
CTETRA      6321       1   13627   13639   13650     119   14529   14565+
+          14564    9512    7903    5808
CTETRA      6322       1   14779     546   14784     659    6327    3871+
+          15241    4761    5102    6326
CTETRA      6323       1   16335     314     286     287    4682    6470+
+           6469    4685    4684    2326
CTETRA      6324       1   17553    1133   13174    1131    9513    9026+
+          13259    9514    9515    9019
CTETRA      6325       1   14674     182     654     259    1869    5538+
+           5593    5530    5531    4712
CTETRA      6326       1   13505     430     355     184    4850    4849+
+           2702    2704    4407    2691
CTETRA      6327       1   14658   14690   14659     183   14893   14895+
+          14897    5591    6009    6000
CTETRA      6328       1   13503     235     183     566    5997    7351+
+           6012    6014    7146    6001
CTETRA      6329       1   14681     183     235     566    8709    7351+
+           4846    7145    6001    7146
CTETRA      6330       1   14680   14682   14681     235   14862   14861+
+          14863    2124    3138    4846
CTETRA      6331       1   14645   14750   14749       2   15129   15130+
+          15124    1214    1213    4447
CTETRA      6332       1   14654     178   14668     490    3781    6333+
+          14813    3782    3526    5020
CTETRA      6333       1   17553   13174   17554    1131   13259   13260+
+          17568    9514    9019    9018
CTETRA      6334       1   14729   14763   14762     381   15150   15152+
+          15151    3830    7212    4033
CTETRA      6335       1   18107     289   17833     792    9498    8822+
+          17839    6381    8824    6377
CTETRA      6336       1   13472   13485   13481       6   13989   13992+
+          13979    1222    4080    4079
CTETRA      6337       1   14741     580     551     579    4166    4756+
+           7506    4167    4168    4752
CTETRA      6338       1   17718     286   15584     292    2341    2322+
+          15812    2342    2344    8398
CTETRA      6339       1   14712   14715   14714     373   15013   15015+
+          15016    2793    2772    2794
CTETRA      6340       1   13491     373     377     376    2791    2792+
+           2790    5182    2780    5170
CTETRA      6341       1   17832   16982      20     141   17109    8851+
+           5737    1710    9176    3906
CTETRA      6342       1   13473   13474   13558     620   13972   14235+
+          14236    5545    5544    4438
CTETRA      6343       1   13470   13490   13471       7   14004   14003+
+          14005    4786    2782    4551
CTETRA      6344       1   14647   14713   14714       8   15000   15002+
+          15001    1235    1234    4782
CTETRA      6345       1   17589   17590   13593     418   17627   14381+
+          14382    3378    9516    3070
CTETRA      6346       1   17559   13186   17560     177   13324   13325+
+          17581    1928    1847    1865
CTETRA      6347       1   17590   13582     383     873   14347    3061+
+           9517    9518    6998    7927
CTETRA      6348       1   14700   14717     620     196   15024    5556+
+           5553    1933    6538    5547
CTETRA      6349       1   17632   15332   15331     223   15436   15438+
+          15432    6036    7938    7937
CTETRA      6350       1   13582   13594   13593     383   14387   14388+
+          14386    3061    2865    2850
CTETRA      6351       1   14698   14699   14700     175   14941   14953+
+          14952    7435    7434    1931
CTETRA      6352       1   13474   13475   13559     197   13969   14240+
+          14238    1939    3835    3834
CTETRA      6353       1   14773   14778   14777     223   15230   15232+
+          15231    3381    2092    2091
CTETRA      6354       1   13473   13478   13474     196   13971   13970+
+          13972    5546    6529    1937
CTETRA      6355       1   13579   13590   13589     366   14364   14363+
+          14362    6840    4031    3687
CTETRA      6356       1   13619     174     113     167    1841    2491+
+           5230    1837    1842    5231
CTETRA      6357       1   13617   13618   13625     168   14452   14476+
+          14472    7807    7575    5430
CTETRA      6358       1   16315     156   16341     162    3862    9011+
+          16500    4183    4182    4840
CTETRA      6359       1   15574     314   15582     287    7363    7119+
+          15801    2324    4684    6466
CTETRA      6360       1   14782   14783     174     168   15246    2505+
+           2501    5434    1819    1843
CTETRA      6361       1   14645     620       1       2    6418    5555+
+           1221    1214    4437    1202
CTETRA      6362       1   13559   13579     370     367   14332    5856+
+           6421    4172    6406    2761
CTETRA      6363       1   14770   14774     427     428   15219    3165+
+           5161    4051    3166    3128
CTETRA      6364       1   17557   13172   17558     475   13266   13269+
+          17570    8685    3429    8072
CTETRA      6365       1   14731       4     581       3    4177    4180+
+           4179    7155    1211    6414
CTETRA      6366       1   13579     366     370     367    6840    3805+
+           5856    6406    2738    2761
CTETRA      6367       1   13476     175     196     176    1943    1932+
+           1942    9054    1845    6324
CTETRA      6368       1   14644   14700     620     197   15022    5553+
+           6417    6415    1934    5549
CTETRA      6369       1   13557   13558   13578       2   14247   14327+
+          14323    1203    4436    4445
CTETRA      6370       1   13471   13490   13485       7   14003   14006+
+          13990    4551    2782    4457
CTETRA      6371       1   15618     497      83      88    5346    6811+
+           1541    1537    3540    7216
CTETRA      6372       1   14749   14750   14751     527   15130   15136+
+          15146    3696    6611    3697
CTETRA      6373       1   13578   13579   13589     523   14328   14362+
+          14358    5854    5853    3669
CTETRA      6374       1   13556   13577   13576       3   14324   14326+
+          14325    1210    6412    8212
CTETRA      6375       1   13585   13586   13597     515   14342   14373+
+          14375    6765    6609    3629
CTETRA      6376       1   14729     541   14763     381    4118    7884+
+          15150    3830    4119    7212
CTETRA      6377       1   13596   13597     424     435   14377    3631+
+           3109    6770    3632    3634
CTETRA      6378       1   13613   13620   13619     113   14461   14460+
+          14459    2490    1623    5230
CTETRA      6379       1   17554     619   13175    1132    7223    7225+
+          13264    9519    9520    9021
CTETRA      6380       1   13174     619     645    1116    7224    5221+
+           9024    8869    9229    9027
CTETRA      6381       1   17831   17832   16334     288   17838   16444+
+          16443    5973    7508    5974
CTETRA      6382       1   17554   14720   14753     619   15106   15166+
+          15165    7223    4430    5876
CTETRA      6383       1   13562   13563   13584      78   14310   14344+
+          14348    4037    4036    1490
CTETRA      6384       1   14766   14773   14772     221   15214   15216+
+          15215    2055    3383    4045
CTETRA      6385       1   17590   13582   13593     383   14347   14386+
+          14381    9517    3061    2850
CTETRA      6386       1   13587   13598   13597     578   14389   14390+
+          14374    5043    4136    5044
CTETRA      6387       1   13630   13631     282     223   14500    6030+
+           7900    4269    6032    6031
CTETRA      6388       1   17717     286     142     288    2327    7461+
+           6573    2328    2330    6574
CTETRA      6389       1   17631   14778   17632     348   15229   15228+
+          17657    8651    2655    8081
CTETRA      6390       1   13598   13599     321     310   14396    6450+
+           4134    5040    2435    4141
CTETRA      6391       1   13564   13586   13585     520   14340   14342+
+          14341    6971    6766    4042
CTETRA      6392       1   13630     223     282     599    4269    6031+
+           7900    4283    4285    9351
CTETRA      6393       1   15316     630      46     631    4547    6016+
+           6015    4550    4549    9346
CTETRA      6394       1   13566   13567   13574     540   14289   14307+
+          14311    3792    3791    3917
CTETRA      6395       1   17712   15560   15552      48   15709   15711+
+          15664    3213    3214    1393
CTETRA      6396       1   14682     430     235     186    4408    3145+
+           3138    3140    3148    3141
CTETRA      6397       1   17642   14711   14709     477   14992   14991+
+          14984    7389    4812    3438
CTETRA      6398       1   14691     236   14692     670    7125    2899+
+          14911    5476    5483    7894
CTETRA      6399       1   14659     183   14681     566    6000    8709+
+          14859    6002    6001    7145
CTETRA      6400       1   17710     592     593     758    8148    4243+
+           5917    5905    8149    5919
CTETRA      6401       1   13387   13632   13630     226   14497   14499+
+          14492    4274    4268    2082
CTETRA      6402       1   13633   13634   13637     332   14509   14520+
+          14519    3187    5937    2582
CTETRA      6403       1   14775   14792   14789     434   15277   15281+
+          15271    3182    5933    5528
CTETRA      6404       1   13616     721   13624     432    5525    5441+
+          14473    5526    5509    5508
CTETRA      6405       1   13595   13596   13607      79   14380   14411+
+          14413    1492    3111    3130
CTETRA      6406       1   14791     660   14792     354    4767    5932+
+          15283    4765    4768    8001
CTETRA      6407       1   14789   14792     660     434   15281    5932+
+           7144    5528    5933    5514
CTETRA      6408       1   13615   13623   13622     432   14469   14468+
+          14467    3260    5529    5355
CTETRA      6409       1   14795   14797   14796     332   15302   15303+
+          15299    5922    5921    2576
CTETRA      6410       1   13584   13585     435      78   14345    6769+
+           8189    1490    4043    3655
CTETRA      6411       1   17590   15333   15335     383   15456   15455+
+          15457    9517    9521    9522
CTETRA      6412       1   15324     346     344     568    9523    6662+
+           2634    8167    4018    9524
CTETRA      6413       1   15559   15560      45      48   15712    3211+
+           3199    6647    3214    3208
CTETRA      6414       1   13633   13637   13638     332   14519   14521+
+          14513    3187    2582    2583
CTETRA      6415       1   16307      47      49      48    1387    8422+
+           1408    1390    1389    1395
CTETRA      6416       1   15532   15592   15533     750   15817   15818+
+          15646    7861    6256    6255
CTETRA      6417       1   17827   16369      45      48   16620    3205+
+           6303    1388    3206    3208
CTETRA      6418       1   13385   13638   13636     225   14515   14517+
+          14516    2549    2581    6290
CTETRA      6419       1   13583   13595   13594      65   14383   14385+
+          14384    1500    4057    3060
CTETRA      6420       1   13594     383      65     285    2865    2869+
+           3060    2863    2851    2860
CTETRA      6421       1   17832   16336   16335     286   16463   16461+
+          16454    7460    7365    6469
CTETRA      6422       1   17712      44     225      43    5993    2548+
+           5992    7945    1365    2066
CTETRA      6423       1   14769      65     483     383    3073    3485+
+           3609    3069    2869    7926
CTETRA      6424       1   13637     225     332     354    2580    2577+
+           2582    6307    2674    7294
CTETRA      6425       1   17591   17592   13561     901   17624   14292+
+          14293    9525    7208    7210
CTETRA      6426       1   17714   14779   14794     546   15249   15293+
+          15292    5814    6327    5825
CTETRA      6427       1   17591   15335   15334     483   15460   15459+
+          15447    3613    9376    9526
CTETRA      6428       1   13596     424      79     435    3109    3112+
+           3111    6770    3634    6762
CTETRA      6429       1   14759     424   14760      79    3170    3169+
+          15159    5160    3112    4054
CTETRA      6430       1   17713      47      49     125    1902    8422+
+           6812    6823    5984    8002
CTETRA      6431       1   17635   14768   17636     513   15196   15193+
+          17654    8182    3610    7201
CTETRA      6432       1   13630   13638     225     332   14512    2581+
+           2081    2578    2583    2577
CTETRA      6433       1   17635   15334   15335     483   15458   15459+
+          15454    7932    9526    9376
CTETRA      6434       1   13611   13618   13617     320   14453   14452+
+          14451    5725    4627    7550
CTETRA      6435       1   15569   15570   15577     162   15758   15780+
+          15779    4235    4236    1780
CTETRA      6436       1   17832     296   17833     286    5738    5739+
+          17840    7460    2352    6328
CTETRA      6437       1   14722      28   14756      30    7096    5721+
+          15177    1330    1318    4980
CTETRA      6438       1   13612   13613   13619     174   14438   14459+
+          14456    2495    2487    1841
CTETRA      6439       1   14651   14737      63     393   15068    4650+
+           1443    2936    4590    2937
CTETRA      6440       1   14755     316      30     174    5727    2474+
+           2502    2499    2488    2496
CTETRA      6441       1   13614   13621     113     700   14462    1624+
+           4426    9527    5218    5220
CTETRA      6442       1   13465   13496   13495     477   14040   14044+
+          14042    4822    3447    3446
CTETRA      6443       1   13601   13602   13612      30   14403   14437+
+          14434    1317    2471    2493
CTETRA      6444       1   13566     531     541     992    3793    4121+
+           4125    7931    7930    8834
CTETRA      6445       1   14651   14652   14737     393   14999   15058+
+          15068    2936    4591    4590
CTETRA      6446       1   17509    1116   13174    1180    8867    8869+
+          13258    9528    9502    9501
CTETRA      6447       1   13602   13613   13612     316   14439   14438+
+          14437    2473    2489    2494
CTETRA      6448       1   17555   14747   14720     440   15109   15110+
+          15105    7162    3228    4427
CTETRA      6449       1   17511     440   13175    1096    7159    7161+
+          13273    8880    8733    8881
CTETRA      6450       1   14709     477     363     479    3438    3449+
+           3453    3455    7391    3456
CTETRA      6451       1   13591   13602   13601      25   14404   14403+
+          14402    1298    2472    1299
CTETRA      6452       1   17589   13593   13604     221   14382   14421+
+          14416    3377    2853    2301
CTETRA      6453       1   17633   14766   17634     222   15184   15183+
+          17653    2056    2058    5915
CTETRA      6454       1   15545   15547   15548     272   15644   15653+
+          15654    2267    5337    2268
CTETRA      6455       1   16371     271   16380      50    7273    5315+
+          16682    6645    2262    8194
CTETRA      6456       1   14727     515     520     435    5136    6767+
+           3653    3651    3633    3652
CTETRA      6457       1   17712      47   17713     192    5985    1902+
+          17723    5994    1906    1905
CTETRA      6458       1   17713   15552      49      47   15663    1392+
+           6812    1902    8809    8422
CTETRA      6459       1   17826   17827   16369      45   17841   16620+
+          16621    1385    6303    3205
CTETRA      6460       1   15564     116     420     117    1634    3840+
+           3842    1636    1635    3852
CTETRA      6461       1   13385     225      44      43    2549    2548+
+           2547    2683    2066    1365
CTETRA      6462       1   13651   13656   13652     188   14587   14586+
+          14588    7942    5831    5928
CTETRA      6463       1   16325      93   16329     171    6796    7925+
+          16428    3708    4982    4973
CTETRA      6464       1   17591   13561     483     901   14293    3614+
+           3613    9525    7210    9207
CTETRA      6465       1   15541   15551   15550     170   15673   15675+
+          15674    4978    1827    6936
CTETRA      6466       1   17590   17591   13582     873   17626   14346+
+          14347    9518    6996    6998
CTETRA      6467       1   17634   15335   15333     383   15453   15455+
+          15442    3067    9522    9521
CTETRA      6468       1   17829     708     163     709    5268    9529+
+           1788    5269    5271    6870
CTETRA      6469       1   15573   15576   15575     420   15774   15776+
+          15775    3107    7415    4677
CTETRA      6470       1   17716   15572   17717     288   15760   15762+
+          17721    5978    5970    2328
CTETRA      6471       1   13383     188     283     192    1892    5988+
+           2306    6864    1907    5989
CTETRA      6472       1   17589     221   13604     224    3377    2301+
+          14416    8127    9504    2063
CTETRA      6473       1   17718     142     296     111    7356    5735+
+           2351    1619    7357    7469
CTETRA      6474       1   16318     173   16332     172    7432    1833+
+          16468    7431    1832    1831
CTETRA      6475       1     383    1158     873    1166    9297    9530+
+           7927    9531    9532    9533
CTETRA      6476       1   14727   14728   14761      78   15076   15161+
+          15163    3654    4032    3480
CTETRA      6477       1   17590     383   13593     418    9517    2850+
+          14381    9516    3071    3070
CTETRA      6478       1   13611   13612   13618     320   14433   14454+
+          14453    5725    4628    4627
CTETRA      6479       1   14679     137   14684     237    4917    4943+
+          14865    5473    5460    8826
CTETRA      6480       1   14661   14682   14683     184   14857   14871+
+          14868    2689    4406    4410
CTETRA      6481       1   16876     123      11     124    1652    8802+
+           8788    1653    1655    9534
CTETRA      6482       1   13410      18      11     349    2659    9535+
+           9536    2662    2661    9537
CTETRA      6483       1   17997      16      11      17    1264    9538+
+           1246    1265    1267    9539
CTETRA      6484       1   17996      11   17997      16    8787    1246+
+          17999    8561    9538    1264
CTETRA      6485       1   17996   16876      11     124   16934    8788+
+           8787    8498    1653    9534
CTETRA      6486       1   13410      11      12     349    9536    1249+
+           9540    2662    9537    9541
CTETRA      6487       1   13410      12   13411     349    9540    9542+
+          13758    2662    9541    8667
CTETRA      6488       1   18063   13411   13410      12   13761   13758+
+          13755    8797    9542    9540
CTETRA      6489       1   17997      12   18063      17    1248    8797+
+          16938    1265    9543    9051
CTETRA      6490       1   17997      11      12      17    1246    1249+
+           1248    1265    9539    9543
CTETRA      6491       1   17996      11      16    1063    8787    9538+
+           8561    8448    9544    9545
CTETRA      6492       1   13410      16      11      18    9546    9538+
+           9536    2659    9547    9535
CTETRA      6493       1   16859      18      16      15    1268    9547+
+           1263    1262    1269    9548
CTETRA      6494       1   17996      16   16859    1016    8561    1263+
+          16913    8089    9549    8090
CTETRA      6495       1   13410      11      16      17    9536    9538+
+           9546    9550    9539    1267
CTETRA      6496       1   13410      12      11      17    9540    1249+
+           9536    9550    9543    9539
CTETRA      6497       1   18063      12   13410      17    8797    9540+
+          13755    9051    9543    9550
CTETRA      6498       1   18116   18063   13410      17   18076   13755+
+          13756    1273    9051    9550
CTETRA      6499       1   18116   16859      17      15   16911    1266+
+           1273    1260    1262    9551
CTETRA      6500       1   16859      16      17      15    1263    1267+
+           1266    1262    9548    9551
CTETRA      6501       1   15319      11      16      18    9552    9538+
+           9553    9554    9535    9547
CTETRA      6502       1   15319   15320      11      18   15377    9555+
+           9552    9554    9556    9535
CTETRA      6503       1   17582   15320   15319      18   15381   15377+
+          15374    2658    9556    9554
CTETRA      6504       1   17582   15319   17583      18   15374   15375+
+          17606    2658    9554    9042
CTETRA      6505       1   17583   13663      18    1109   14634    9044+
+           9042    8772    8771    9557
CTETRA      6506       1   16859    1016      18      19    8090    9558+
+           1268    1270    8568    1271
CTETRA      6507       1   16859      16      18    1016    1263    9547+
+           1268    8090    9549    9558
CTETRA      6508       1   18071   13410   13663      15   14621   14635+
+          14633    1261    9559    9560
CTETRA      6509       1   13410      18   13663      15    2659    9044+
+          14635    9559    1269    9560
CTETRA      6510       1   13410      16      18      15    9546    9547+
+           2659    9559    9548    1269
CTETRA      6511       1   13410      17      16      15    9550    1267+
+           9546    9559    9551    9548
CTETRA      6512       1   18116      17   13410      15    1273    9550+
+          13756    1260    9551    9559
CTETRA      6513       1   18116   13410   18071      15   13756   14621+
+          18081    1260    9559    1261
CTETRA      6514       1   13663    1016      18    1109    9561    9558+
+           9044    8771    9562    9557
CTETRA      6515       1   13663    1016    1109    1110    9561    9562+
+           8771    8774    9563    8775
CTETRA      6516       1   17996    1016    1064    1063    8089    9564+
+           8450    8448    9565    8449
CTETRA      6517       1   17996      16    1016    1063    8561    9549+
+           8089    8448    9545    9565
CTETRA      6518       1   15319      18      16    1016    9554    9547+
+           9553    9566    9558    9549
CTETRA      6519       1   13663      18    1016      19    9044    9558+
+           9561    9567    1271    8568
CTETRA      6520       1   13663      15      18      19    9560    1269+
+           9044    9567    1272    1271
CTETRA      6521       1   18071      15   13663      19    1261    9560+
+          14633    1360    1272    9567
CTETRA      6522       1   18071   13663   13414      19   14633   14632+
+          13771    1360    9567    9568
CTETRA      6523       1   13414      19   13663     194    9568    9567+
+          14632    1914    9569    1915
CTETRA      6524       1   13663      19    1016    1110    9567    8568+
+           9561    8774    9570    9563
CTETRA      6525       1   15319      18    1016    1109    9554    9558+
+           9566    9571    9557    9562
CTETRA      6526       1   17583      18   15319    1109    9042    9554+
+          15375    8772    9557    9571
CTETRA      6527       1   17583   15319   15322    1109   15375   15384+
+          15383    8772    9571    9572
CTETRA      6528       1   15319    1016   15322    1109    9566    9573+
+          15384    9571    9562    9572
CTETRA      6529       1   17885   18107   16955      21   17888   16989+
+          16988    9084    9086    9574
CTETRA      6530       1   17885   16955   16983      21   16988   17119+
+          17118    9084    9574    9575
CTETRA      6531       1   16777      21      91    1164    1549    1553+
+           1552    9367    9576    9368
CTETRA      6532       1   16776      21   16777    1164    8312    1549+
+          16797    9486    9576    9367
CTETRA      6533       1   16776      20      21    1127    7739    1275+
+           8312    8976    9577    9578
CTETRA      6534       1   17833      20   16955      21    1274    9579+
+          16990    1276    1275    9574
CTETRA      6535       1   18107   17833   16955      21   17839   16990+
+          16989    9086    1276    9574
CTETRA      6536       1   13194      20   13195      22    9390    7996+
+          13366    9580    1278    9581
CTETRA      6537       1   13194      21      20      22    9083    1275+
+           9390    9580    1279    1278
CTETRA      6538       1   18107      21   13194      22    9086    9083+
+          13372    8680    1279    9580
CTETRA      6539       1   18107   13194   13195      22   13372   13366+
+          13373    8680    9580    9581
CTETRA      6540       1   11757      29   11781     932    9582    9583+
+          11898    7487    9584    8518
CTETRA      6541       1   17258   11781   11757      29   11899   11898+
+          11800    8512    9583    9582
CTETRA      6542       1   17257   17258   11757      29   17267   11800+
+          11799    1313    8512    9582
CTETRA      6543       1   17257   11670      29     256   11719    1314+
+           1313    5212    2187    9585
CTETRA      6544       1   11670      29     256     255    1314    9585+
+           2187    2185    7228    2186
CTETRA      6545       1   11755     256   11757     932    9586    9587+
+          11798    8794    9588    7487
CTETRA      6546       1   11757     256      29     932    9587    9585+
+           9582    7487    9588    9584
CTETRA      6547       1   17257      29   11757     256    1313    9582+
+          11799    5212    9585    9587
CTETRA      6548       1   17257   11757   11755     256   11799   11798+
+          11794    5212    9587    9586
CTETRA      6549       1   17987      31   18025    1117    1321    8180+
+          11711    8892    9589    9113
CTETRA      6550       1   17987      32      31    1117    1323    1322+
+           1321    8892    9130    9589
CTETRA      6551       1   17604      32   15336      31    1327    1335+
+          15462    8159    1322    9590
CTETRA      6552       1   17604   15336   17605      31   15462   15461+
+          17630    8159    9590    8160
CTETRA      6553       1   17605   13464      31    1182   13958    8936+
+           8160    9508    9510    9591
CTETRA      6554       1   18025      31   13464    1182    8180    8936+
+          13961    9592    9591    9510
CTETRA      6555       1   18025    1117      31    1183    9113    9589+
+           8180    9593    9594    9595
CTETRA      6556       1   18025   11660    1117     920   11713    8893+
+           9113    7378    7380    9596
CTETRA      6557       1   17986    1117   11660     755    8891    8893+
+          11714    5888    9597    8765
CTETRA      6558       1   17986      32    1117     755    8154    9130+
+           8891    5888    9305    9597
CTETRA      6559       1   15336      31      32    1117    9590    1322+
+           1335    9598    9589    9130
CTETRA      6560       1   18025   13662      31      33   14626    8161+
+           8180    8181    9599    1325
CTETRA      6561       1   13662      32      31      33    1328    1322+
+           8161    9599    1326    1325
CTETRA      6562       1   18114      32   13662      33    1996    1328+
+          14624    9131    1326    9599
CTETRA      6563       1   18114   13662   18025      33   14624   14626+
+          18034    9131    9599    8181
CTETRA      6564       1   18011   13452   13664      36   14627   14639+
+          14637    7305    9600    9601
CTETRA      6565       1   13167     980      36    1000    9240    9602+
+           9603    7989    9414    9604
CTETRA      6566       1   11569     705      36    1012    5256    9605+
+           1345    8060    8064    9606
CTETRA      6567       1   18010      36   11569     705    1343    1345+
+          11651    5255    9605    5256
CTETRA      6568       1   18010   13452   18011      36   13899   14627+
+          18020    1343    9600    7305
CTETRA      6569       1   13167     705      36     980    9607    9605+
+           9603    9240    9608    9602
CTETRA      6570       1   11568     980     705     981    7848    9608+
+           6146    7849    7851    9609
CTETRA      6571       1   18009     705   11568    1081    5254    6146+
+          11653    8551    9610    8552
CTETRA      6572       1   18009   13452   18010     705   13898   13899+
+          18021    5254    9611    5255
CTETRA      6573       1   18010   13452      36     705   13899    9600+
+           1343    5255    9611    9605
CTETRA      6574       1   11568     228     980     229    2077    9612+
+           7848    2078    2080    7847
CTETRA      6575       1   11568     705     980    1081    6146    9608+
+           7848    8552    9610    9613
CTETRA      6576       1   13452      36     705     980    9600    9605+
+           9611    9614    9602    9608
CTETRA      6577       1   13452   13664      36     980   14639    9601+
+           9600    9614    9615    9602
CTETRA      6578       1   17526   13664   13452     980   14638   14639+
+          13897    9241    9615    9614
CTETRA      6579       1   17526   13452   17527     980   13897   13896+
+          17528    9241    9614    9238
CTETRA      6580       1   17527   13168     980     228   13228    9239+
+           9238    8952    8951    9612
CTETRA      6581       1   13167      36      37    1000    9603    1347+
+           9616    7989    9604    9617
CTETRA      6582       1   13167      37   13170    1000    9616    9618+
+          13231    7989    9617    7990
CTETRA      6583       1   11579    1037      37     996    8264    9619+
+           7752    8740    9246    8945
CTETRA      6584       1   11569      37   11579    1012    7751    7752+
+          11601    8060    9620    8061
CTETRA      6585       1   11569      36      37    1012    1345    1347+
+           7751    8060    9606    9620
CTETRA      6586       1   13664      36      37      38    9601    1347+
+           9621    9622    1350    1349
CTETRA      6587       1   18011      36   13664      38    7305    9601+
+          14637    7306    1350    9622
CTETRA      6588       1   18011   13664   13456      38   14637   14636+
+          13914    7306    9622    9623
CTETRA      6589       1   13170      38     913    1001    9624    9458+
+           7340    7992    9625    7993
CTETRA      6590       1   13170      37      38    1001    9618    1349+
+           9624    7992    9626    9625
CTETRA      6591       1   13664      37      36    1000    9621    1347+
+           9601    9627    9617    9604
CTETRA      6592       1   13170    1000      37    1001    7990    9617+
+           9618    7992    9628    9626
CTETRA      6593       1   17526    1000   13170    1001    7988    7990+
+          13230    7991    9628    7992
CTETRA      6594       1   17526   13664     980    1000   14638    9615+
+           9241    7988    9627    9414
CTETRA      6595       1   13664      36     980    1000    9601    9602+
+           9615    9627    9604    9414
CTETRA      6596       1   11758   11782     278      39   11904    6251+
+           7382    9629    9630    3475
CTETRA      6597       1   17262   11782   11758      39   11902   11904+
+          11803    1351    9630    9629
CTETRA      6598       1   17262   11674      39     678   11728    1352+
+           1351    9398    5023    9631
CTETRA      6599       1   11674     278      39     678    4220    3475+
+           1352    5023    5022    9631
CTETRA      6600       1   11758   11766   11767     678   11831   11833+
+          11834    9632    9633    9634
CTETRA      6601       1   11758     278   11766     678    7382    7381+
+          11831    9632    5022    9633
CTETRA      6602       1   11758      39     278     678    9629    3475+
+           7382    9632    9631    5022
CTETRA      6603       1   17262      39   11758     678    1351    9629+
+          11803    9398    9631    9632
CTETRA      6604       1   17261   17262   11758     678   17271   11803+
+          11804    8908    9398    9632
CTETRA      6605       1   17261   11758   11767     678   11804   11834+
+          11836    8908    9632    9634
CTETRA      6606       1   13414      42      19     194    9635    1363+
+           9568    1914    9636    9569
CTETRA      6607       1   18071      19   13414      42    1360    9568+
+          13771    1361    1363    9635
CTETRA      6608       1   18071   16860      42     853   16953    4488+
+           1361    8080    6878    9637
CTETRA      6609       1   16860     352      42     853    4486    4489+
+           4488    6878    6877    9637
CTETRA      6610       1   13414     352      42     194    4288    4489+
+           9635    1914    4478    9636
CTETRA      6611       1   18001     165      51    1126    8454    8964+
+           9089    8960    8974    9638
CTETRA      6612       1   16957     165   16966      51    8549    7005+
+          17033    9639    8964    9640
CTETRA      6613       1   17889   16957   16966      51   17003   17033+
+          17035    1402    9639    9640
CTETRA      6614       1   18111   17889   16966      51   17898   17035+
+          17036    8979    1402    9640
CTETRA      6615       1   18001      51   18111    1126    9089    8979+
+          18005    8960    9638    8961
CTETRA      6616       1   16957     165      51      52    8549    8964+
+           9639    9641    8965    1405
CTETRA      6617       1   16957     141     165      52    1786    7800+
+           8549    9641    9088    8965
CTETRA      6618       1   16774      52     141     140    1407    9088+
+           6829    1706    9642    6831
CTETRA      6619       1   17889      52   16774     140    1404    1407+
+          16822    8963    9642    1706
CTETRA      6620       1   17889   16957      51      52   17003    9639+
+           1402    1404    9641    1405
CTETRA      6621       1   16768      53      54      76    1410    9643+
+           1414    1484    9075    1485
CTETRA      6622       1   13194      53     698     969    9644    9645+
+           5209    7772    8310    9073
CTETRA      6623       1   18047   13645   13461      53   14545   14544+
+          13948    1409    9646    9647
CTETRA      6624       1   18047   16768      53      54   16853    1410+
+           1409    1412    1414    9643
CTETRA      6625       1   13192   13194      54     698   13364    9648+
+           9649    5210    5209    9650
CTETRA      6626       1   13194      53      54     698    9644    9643+
+           9648    5209    9645    9650
CTETRA      6627       1   18047      53   13461      54    1409    9647+
+          13948    1412    9643    9651
CTETRA      6628       1   18047   13461   18048      54   13948   13947+
+          18057    1412    9651    1413
CTETRA      6629       1   18048   13461   13661      54   13947   14616+
+          14618    1413    9651    9652
CTETRA      6630       1   13192    1165      54     198    9371    9653+
+           9649    1948    9372    9654
CTETRA      6631       1   16769      69      74    1120    9214    9655+
+           9656    8905    9215    9657
CTETRA      6632       1   17935      69   13462      74    6727    9658+
+          13951    9403    9655    9404
CTETRA      6633       1   17935   17129   17128      69   17139   17141+
+          17140    6727    9659    1465
CTETRA      6634       1   17962   17128   17129      69   17137   17141+
+          17144    1466    1465    9659
CTETRA      6635       1   17962      69     840     386    1466    9660+
+           6757    2890    2892    6756
CTETRA      6636       1   16769   16770   16779      70   16806   16805+
+          16804    9661    9662    9663
CTETRA      6637       1   16770   16779      70     833   16805    9663+
+           9662    6739    6741    9664
CTETRA      6638       1   16770      70      69     833    9662    1469+
+           9213    6739    9664    6728
CTETRA      6639       1   16769      69   16770      70    9214    9213+
+          16806    9661    1469    9662
CTETRA      6640       1   16779      70     833    1077    9663    9664+
+           6741    8531    9665    9666
CTETRA      6641       1   17128      69      70     833    1465    1469+
+           1468    9667    6728    9664
CTETRA      6642       1   17935      69   17128     833    6727    1465+
+          17140    6729    6728    9667
CTETRA      6643       1   17935   13657     833     911   14600    9668+
+           6729    8767    7317    9669
CTETRA      6644       1   16771     911     833    1018    9217    9669+
+           6742    8100    9218    9670
CTETRA      6645       1   16771   16780     833     800   16809    6740+
+           6742    7330    6454    9671
CTETRA      6646       1   16779     833   16780    1077    6741    6740+
+          16807    8531    9666    8532
CTETRA      6647       1   16769      70   16779      71    9661    9663+
+          16804    9672    1472    9673
CTETRA      6648       1   16769   16779   16778      71   16804   16803+
+          16801    9672    9673    9674
CTETRA      6649       1   16778      71   16779    1068    9674    9673+
+          16803    8848    9675    8849
CTETRA      6650       1   16779    1009      71    1010    8045    9676+
+           9673    8048    8047    9677
CTETRA      6651       1   16779      71    1077    1010    9673    9678+
+           8531    8048    9677    9679
CTETRA      6652       1   16779      71      70    1077    9673    1472+
+           9663    8531    9678    9665
CTETRA      6653       1   17128      70      71    1077    1468    1472+
+           1471    9680    9665    9678
CTETRA      6654       1   17128     833      70    1077    9667    9664+
+           1468    9680    9666    9665
CTETRA      6655       1   16780    1077     833     800    8532    9666+
+           6740    6454    9681    9671
CTETRA      6656       1   16780     799    1077     800    6453    8533+
+           8532    6454    6456    9681
CTETRA      6657       1   16956      71    1077     914    7352    9678+
+           9682    7343    7353    9683
CTETRA      6658       1   17932      72   17129     835    1474    9684+
+          17143    6733    8458    9685
CTETRA      6659       1   17962   17129      72     831   17144    9684+
+           8069    6712    9686    8786
CTETRA      6660       1   18110   17962   17129      72   17963   17144+
+          17145    1473    8069    9684
CTETRA      6661       1   17932   18110   17129      72   17933   17145+
+          17143    1474    1473    9684
CTETRA      6662       1   16778     967      73    1068    9363    9687+
+           9688    8848    9689    9690
CTETRA      6663       1   18110   13193   17884      73   13358   13355+
+          17886    1476    1478    8759
CTETRA      6664       1   18110   16954      72      73   16985    8068+
+           1473    1476    8760    1477
CTETRA      6665       1   16778      73      72    1068    9688    1477+
+           9691    8848    9690    9692
CTETRA      6666       1   18098   17129   17935      74   17142   17139+
+          17951    1480    9693    9403
CTETRA      6667       1   17935   17129      69      74   17139    9659+
+           6727    9403    9693    9655
CTETRA      6668       1   16769      74      69     840    9656    9655+
+           9214    9694    9695    9660
CTETRA      6669       1   17932     840      74    1066    8844    9695+
+           1479    8463    8846    8464
CTETRA      6670       1   18098   17932   17129      74   17934   17143+
+          17142    1480    1479    9693
CTETRA      6671       1   16769    1120      75    1141    8905    9696+
+           9697    9698    9699    9101
CTETRA      6672       1   16769      74      75    1120    9656    1483+
+           9697    8905    9657    9696
CTETRA      6673       1   18098      74   13462     838    1480    9404+
+          13950    6746    9700    9701
CTETRA      6674       1   18098   13193      75     838   13361    8850+
+           1481    6746    6748    9702
CTETRA      6675       1   17506   13461   13645     698   13946   14544+
+          14546    8017    9703    9704
CTETRA      6676       1   13461      53   13645     698    9647    9646+
+          14544    9703    9645    9704
CTETRA      6677       1   13461      54      53     698    9651    9643+
+           9647    9703    9650    9645
CTETRA      6678       1   13192     698      54    1165    5210    9650+
+           9649    9371    9705    9653
CTETRA      6679       1   17505     698   13192    1165    5208    5210+
+          13354    9370    9705    9371
CTETRA      6680       1   17505   13461   17506     698   13945   13946+
+          17551    5208    9703    8017
CTETRA      6681       1   13192      54   13194      76    9649    9648+
+          13364    9706    1485    9707
CTETRA      6682       1   16777      90      76    1178    1551    9708+
+           1547    9482    9484    9709
CTETRA      6683       1   16776      76   16777      90    1548    1547+
+          16797    8313    9708    1551
CTETRA      6684       1   16767      76   16776    1087    8306    1548+
+          16794    8587    9710    8588
CTETRA      6685       1   16767      53      76     999    1411    9075+
+           8306    7984    8311    9711
CTETRA      6686       1   13194      54      53      76    9648    9643+
+           9644    9707    1485    9075
CTETRA      6687       1   13461      54     698    1165    9651    9650+
+           9703    9712    9653    9705
CTETRA      6688       1   13461   13661      54    1165   14616    9652+
+           9651    9712    9713    9653
CTETRA      6689       1   17505   13661   13461    1165   14617   14616+
+          13945    9370    9713    9712
CTETRA      6690       1   17505   13461     698    1165   13945    9703+
+           5208    9370    9712    9705
CTETRA      6691       1   13192      54      76      77    9649    1485+
+           9706    9714    1488    1487
CTETRA      6692       1   13192      54      77     198    9649    1488+
+           9714    1948    9654    9715
CTETRA      6693       1   16769    1184      77     848    9716    9717+
+           8360    6827    9718    8362
CTETRA      6694       1   16769   16778      77    1108   16801    8556+
+           8360    9364    8763    9719
CTETRA      6695       1   16777      77   16778    1108    8567    8556+
+          16799    8762    9719    8763
CTETRA      6696       1   16777      76      77    1178    1547    1487+
+           8567    9482    9709    9720
CTETRA      6697       1   17891   16955   16982      81   16992   17111+
+          17107    1699    9721    9722
CTETRA      6698       1   17890   17891   16982      81   17900   17107+
+          17106    1708    1699    9722
CTETRA      6699       1   17890   16774      81     139   16823    1503+
+           1708    1704    1703    9723
CTETRA      6700       1   16774      20      81     139    1501    1504+
+           1503    1703    7778    9723
CTETRA      6701       1   17833      20   16982      81    1274    8851+
+          17110    5281    1504    9722
CTETRA      6702       1   17833   16982   16955      81   17110   17111+
+          16990    5281    9722    9721
CTETRA      6703       1   16957   16982     141     139   17108    9176+
+           1786    9724    9725    6830
CTETRA      6704       1   16982      20     141     139    8851    3906+
+           9176    9725    7778    6830
CTETRA      6705       1   16982      81      20     139    9722    1504+
+           8851    9725    9723    7778
CTETRA      6706       1   17890      81   16982     139    1708    9722+
+          17106    1704    9723    9725
CTETRA      6707       1   17890   16982   16957     139   17106   17108+
+          17002    1704    9725    9724
CTETRA      6708       1   17790   17791   16359      84   17812   16565+
+          16566    2810    6249    9726
CTETRA      6709       1   17790   16018      84     524   16183    2811+
+           2810    3676    3678    9727
CTETRA      6710       1   16018      82      84     524    2815    1513+
+           2811    3678    7731    9727
CTETRA      6711       1   16359      83      82      84    7732    1510+
+           8993    9726    1514    1513
CTETRA      6712       1   16345      83   16359      84    7214    7732+
+          16562    9728    1514    9726
CTETRA      6713       1   17791   16345   16359      84   16564   16562+
+          16565    6249    9728    9726
CTETRA      6714       1   15615      58      82      85    1529    1516+
+           1531    9729    1520    1519
CTETRA      6715       1   16039      85      58     898    7648    1520+
+           3624    7190    9730    7191
CTETRA      6716       1   17674      85   16039     898    2431    7648+
+          16156    8289    9730    7190
CTETRA      6717       1   17674   15615   17675      85   16002   15979+
+          17708    2431    9729    2432
CTETRA      6718       1   17675   15615   15617      85   15979   15935+
+          15978    2432    9729    9731
CTETRA      6719       1   15615      82   15617      85    1531    3640+
+          15935    9729    1519    9731
CTETRA      6720       1   17603      86   15339      87    4930    4932+
+          15471    5408    1528    9732
CTETRA      6721       1   17603   13463      87     720   13955    5409+
+           5408    8890    5407    9733
CTETRA      6722       1   13463      32      87     720    1329    1527+
+           5409    5407    5406    9733
CTETRA      6723       1   15339      86      32      87    4932    1524+
+           1334    9732    1528    1527
CTETRA      6724       1   16776      90      21    1087    8313    1550+
+           8312    8588    9734    8679
CTETRA      6725       1   16776      76      90    1087    1548    9708+
+           8313    8588    9710    9734
CTETRA      6726       1   13192      76   13194      90    9706    9707+
+          13364    9735    9708    9736
CTETRA      6727       1   13192      90   13194    1139    9735    9736+
+          13364    9077    9737    9078
CTETRA      6728       1   13194      90      21    1139    9736    1550+
+           9083    9078    9737    9085
CTETRA      6729       1   13194      20      21    1087    9390    1275+
+           9083    9738    8589    8679
CTETRA      6730       1   16767    1087      20     999    8587    8589+
+           7738    7984    9739    7985
CTETRA      6731       1   16767      76    1087     999    8306    9710+
+           8587    7984    9711    9739
CTETRA      6732       1   13194      90      76    1087    9736    9708+
+           9707    9738    9734    9710
CTETRA      6733       1   13194      21      90    1087    9083    1550+
+           9736    9738    8679    9734
CTETRA      6734       1   16983      90      21      91    9740    1550+
+           9575    9741    1554    1553
CTETRA      6735       1   13192      91      90    1105    9742    1554+
+           9735    8752    9743    9744
CTETRA      6736       1   16778      91    1108    1142    8761    8764+
+           8763    9108    9745    9746
CTETRA      6737       1   17893      91   16778    1142    9106    8761+
+          16830    9107    9745    9108
CTETRA      6738       1   17893   16983   16955      91   17120   17119+
+          17115    9106    9741    9747
CTETRA      6739       1   16955   16983      21      91   17119    9575+
+           9574    9747    9741    1553
CTETRA      6740       1   16955      91      21    1164    9747    1553+
+           9574    9748    9368    9576
CTETRA      6741       1   17893      91   16955    1164    9106    9747+
+          17115    9366    9368    9748
CTETRA      6742       1   17892   17893   16955    1164   17902   17115+
+          16991    9391    9366    9748
CTETRA      6743       1   17892   16776    1164    1127   16827    9486+
+           9391    8977    8976    9749
CTETRA      6744       1   16776      21    1164    1127    8312    9576+
+           9486    8976    9578    9749
CTETRA      6745       1   16983      21      90    1139    9575    1550+
+           9740    9750    9085    9737
CTETRA      6746       1   17885      21   16983    1139    9084    9575+
+          17118    9076    9085    9750
CTETRA      6747       1   17885   13192    1139    1105   13369    9077+
+           9076    9485    8752    9751
CTETRA      6748       1   13192      90    1139    1105    9735    9737+
+           9077    8752    9744    9751
CTETRA      6749       1   18014   13435   13432      98   13811   13810+
+          13808    6869    9752    9753
CTETRA      6750       1   18115   18014   13432      98   18016   13808+
+          13809    6868    6869    9753
CTETRA      6751       1   17992      98   18115    1113    8942    6868+
+          17993    8835    9754    9231
CTETRA      6752       1   17992      97      98    1113    2991    1574+
+           8942    8835    8837    9754
CTETRA      6753       1   13432      95      97      98    1568    1570+
+           1567    9753    1575    1574
CTETRA      6754       1   13432   13435      95      98   13810    1581+
+           1568    9753    9752    1575
CTETRA      6755       1   13160     111   13173     110    2099    1630+
+          13250    9755    1618    9756
CTETRA      6756       1   18099   13160   13173     110   13255   13250+
+          13253    2097    9755    9756
CTETRA      6757       1   18099     110   13173     114    2097    9756+
+          13253    2096    9757    1628
CTETRA      6758       1   13173     110     111     114    9756    1618+
+           1630    1628    9757    1629
CTETRA      6759       1   13160     111     110     112    2099    1618+
+           9755    9758    1622    1621
CTETRA      6760       1   13160     296     111     112    6337    7469+
+           2099    9758    7912    1622
CTETRA      6761       1   13160   13196     296     112   13374    6338+
+           6337    9758    9759    7912
CTETRA      6762       1   18099   13196   13160     112   13375   13374+
+          13255    9006    9759    9758
CTETRA      6763       1   18099   13160     110     112   13255    9755+
+           2097    9006    9758    1621
CTETRA      6764       1   14787     111     110     114    6343    1618+
+           2098    9760    1629    9757
CTETRA      6765       1   13621     114     111     700    9761    1629+
+           1627    5218    9762    5219
CTETRA      6766       1   13174     700     114    1180    9500    9762+
+           1864    9501    9503    9763
CTETRA      6767       1   17553     114   13174    1133    1863    1864+
+          13259    9513    9764    9026
CTETRA      6768       1   18099   17553   14787     114   17567   15265+
+          15310    2096    1863    9760
CTETRA      6769       1   18099   14787     110     114   15310    2098+
+           2097    2096    9760    9757
CTETRA      6770       1   13621     111     114     115    1627    1629+
+           9761    9765    1633    1632
CTETRA      6771       1   13160     115     111     817    2095    1633+
+           2099    6602    9766    9472
CTETRA      6772       1   17508     115   13160     817    2094    2095+
+          13249    6601    9766    6602
CTETRA      6773       1   17508   13621   17509     115   14458   14457+
+          17533    2094    9765    8446
CTETRA      6774       1   17509   13174     115    1180   13258    9227+
+           8446    9528    9501    9767
CTETRA      6775       1   13174     114     115    1180    1864    1632+
+           9227    9501    9763    9767
CTETRA      6776       1   14787     111     114     700    6343    1629+
+           9760    9768    5219    9762
CTETRA      6777       1   14787     113     111     700    9169    1626+
+           6343    9768    5220    5219
CTETRA      6778       1   13614     700     113     644    9527    5220+
+           4426    4618    9769    4619
CTETRA      6779       1   13174    1133     700    1116    9026    9770+
+           9500    8869    9028    9499
CTETRA      6780       1   13174     114     700    1133    1864    9762+
+           9500    9026    9764    9770
CTETRA      6781       1   11577     120    1175    1008    6775    9463+
+           9462    8042    9771    9772
CTETRA      6782       1   17239     120   11577    1008    1646    6775+
+          11627    8041    9771    8042
CTETRA      6783       1   17239   11779   11783     120   11889   11912+
+          11908    1646    9773    9774
CTETRA      6784       1   17218   11783   11779     120   11911   11912+
+          11887    2162    9774    9773
CTETRA      6785       1   17218     120   11779    1176    2162    9773+
+          11887    9465    9775    9466
CTETRA      6786       1   17239     120   11783     121    1646    9774+
+          11908    1647    1649    9776
CTETRA      6787       1   17239   11575     121     295   11625    9133+
+           1647    7408    2348    9777
CTETRA      6788       1   11575     294     121     295    2347    9778+
+           9133    2348    2350    9777
CTETRA      6789       1   17218   11783     121     294   11911    9776+
+           2161    9451    8283    9778
CTETRA      6790       1   17218   11783     120     121   11911    9774+
+           2162    2161    9776    1649
CTETRA      6791       1   15320    1137     123     785    9059    9779+
+           9780    6281    9074    9781
CTETRA      6792       1   16867     123    1177     786    8801    9782+
+           9480    6282    9783    9784
CTETRA      6793       1   16867      11     123     786    1247    8802+
+           8801    6282    6284    9783
CTETRA      6794       1   15319      11   15320     123    9552    9555+
+          15377    9785    8802    9780
CTETRA      6795       1   15319     123   15320    1137    9785    9780+
+          15377    9058    9779    9059
CTETRA      6796       1   16978     123    1137    1162    9786    9779+
+           9787    9324    9788    9789
CTETRA      6797       1   18113   16978    1137    1162   17085    9787+
+           9061    9322    9324    9789
CTETRA      6798       1   17927   18113   16978    1137   17929   17085+
+          17084    9057    9061    9787
CTETRA      6799       1   17927   15319    1137    1078   15378    9058+
+           9057    8537    8539    9790
CTETRA      6800       1   15319     123    1137    1078    9785    9779+
+           9058    8539    9791    9790
CTETRA      6801       1   16978     122     123    1162    9792    1651+
+           9786    9324    9793    9788
CTETRA      6802       1   15319     122     123    1078    9794    1651+
+           9785    8539    9795    9791
CTETRA      6803       1   15319     122    1078    1185    9794    9795+
+           8539    9796    9797    9798
CTETRA      6804       1   18112   16984   16978     122   17125   17126+
+          17116    6569    9799    9792
CTETRA      6805       1   18112   16978   17916     122   17116   17087+
+          17926    6569    9792    9153
CTETRA      6806       1   17916   16875     122     488   16931    9470+
+           9153    7108    7107    9800
CTETRA      6807       1   16875     122     488    1186    9470    9800+
+           7107    9801    9802    9803
CTETRA      6808       1   15319     123     122     124    9785    1651+
+           9794    9804    1655    1654
CTETRA      6809       1   15319      11     123     124    9552    8802+
+           9785    9804    9534    1655
CTETRA      6810       1   17996     124      11    1063    8498    9534+
+           8787    8448    9805    9544
CTETRA      6811       1   17996     124    1063    1065    8498    9805+
+           8448    8451    9806    8452
CTETRA      6812       1   15319     124     122    1185    9804    1654+
+           9794    9796    9807    9797
CTETRA      6813       1   16978     123     122    1078    9786    1651+
+           9792    9808    9791    9795
CTETRA      6814       1   16978    1137     123    1078    9787    9779+
+           9786    9808    9790    9791
CTETRA      6815       1   17927    1137   16978    1078    9057    9787+
+          17084    8537    9790    9808
CTETRA      6816       1   17927   16978   16984    1078   17084   17126+
+          17123    8537    9808    8889
CTETRA      6817       1   16978     122   16984    1078    9792    9799+
+          17126    9808    9795    8889
CTETRA      6818       1   17938   17131   17939     132   17157   17158+
+          17949    1677    9809    5639
CTETRA      6819       1   17939   17131     350     132   17158    5619+
+           5618    5639    9809    5640
CTETRA      6820       1   17131     326     350     132    9810    5622+
+           5619    9809    5550    5640
CTETRA      6821       1   17127     326   17131     132    8030    9810+
+          17159    9811    5550    9809
CTETRA      6822       1   17938   17127   17131     132   17147   17159+
+          17157    1677    9811    9809
CTETRA      6823       1   17938   17127     132     133   17147    9811+
+           1677    1679    8357    1680
CTETRA      6824       1   17127     326     132     133    8030    5550+
+           9811    8357    5552    1680
CTETRA      6825       1   13400     133     326    1085    4409    5552+
+           2540    9812    9813    8578
CTETRA      6826       1   17937   17938   13400     133   17948   13718+
+          13717    8356    1679    4409
CTETRA      6827       1   17891   16955      81     138   16992    9721+
+           1699    1700    9814    1701
CTETRA      6828       1   17833      81   16955     138    5281    9721+
+          16990    5282    1701    9814
CTETRA      6829       1   17833   16955      20     138   16990    9579+
+           1274    5282    9814    7898
CTETRA      6830       1   16776     138      20    1127    7899    7898+
+           7739    8976    9815    9577
CTETRA      6831       1   17891     138   16776    1127    1700    7899+
+          16826    8975    9815    8976
CTETRA      6832       1   16957     139     141     140    9724    6830+
+           1786    9816    1707    6831
CTETRA      6833       1   17890     139   16957     140    1704    9724+
+          17002    1705    1707    9816
CTETRA      6834       1   17889   17890   16957     140   17899   17002+
+          17003    8963    1705    9816
CTETRA      6835       1   17889   16957      52     140   17003    9641+
+           1404    8963    9816    9642
CTETRA      6836       1   16957     141      52     140    1786    9088+
+           9641    9816    6831    9642
CTETRA      6837       1   16313     144      56     143    7493    1739+
+           7492    9817    1715    8598
CTETRA      6838       1   16313   16394     144     143   16700    6285+
+           7493    9817    9818    1715
CTETRA      6839       1   17852   16394   16313     143   16701   16700+
+          16578    1744    9818    9817
CTETRA      6840       1   17852   16219     143    1128   16267    8349+
+           1744    8984    8983    9819
CTETRA      6841       1   16219      56     143    1128    4535    8598+
+           8349    8983    9335    9819
CTETRA      6842       1   16394     144     143     145    6285    1715+
+           9818    9820    1719    1718
CTETRA      6843       1   17853     144   16394     145    1733    6285+
+          16702    6286    1719    9820
CTETRA      6844       1   17852   17853   16394     145   17867   16702+
+          16701    1745    6286    9820
CTETRA      6845       1   17852   16394     143     145   16701    9818+
+           1744    1745    9820    1718
CTETRA      6846       1   12608     148     146    1170    7661    1728+
+           1763    9425    9821    9426
CTETRA      6847       1   18092   12608   17363     148   12627   12624+
+          17364    7090    7661    7091
CTETRA      6848       1   18092   11992   11988     148   12228   12229+
+          12212    7090    7092    9822
CTETRA      6849       1   11988   11992     147     148   12229    7016+
+           7693    9822    7092    1727
CTETRA      6850       1   11992     146     147     148    1722    1724+
+           7016    7092    1728    1727
CTETRA      6851       1   17854   16391   16392     149   16691   16693+
+          16696    2765    9823    9824
CTETRA      6852       1   17853   17854   16392     149   17869   16696+
+          16697    1735    2765    9824
CTETRA      6853       1   17853   16392     144     149   16697    2111+
+           1733    1735    9824    1736
CTETRA      6854       1   16392      23     144     149    7323    2757+
+           2111    9824    6151    1736
CTETRA      6855       1   16391      23   16392     149    4113    7323+
+          16693    9823    6151    9824
CTETRA      6856       1   17737   16217   16219     150   16270   16269+
+          16271    4525    9825    9826
CTETRA      6857       1   16217      56   16219     150    8597    4535+
+          16269    9825    1742    9826
CTETRA      6858       1   16217     144      56     150    1716    1739+
+           8597    9825    1743    1742
CTETRA      6859       1   15608     150     144     841    8355    1743+
+           5296    6772    9827    8347
CTETRA      6860       1   17737     150   15608     841    4525    8355+
+          15895    6771    9827    6772
CTETRA      6861       1   11987     412     146     154    7924    7097+
+           1721    9828    7098    1757
CTETRA      6862       1   11987   12010     412     154   12314    3041+
+           7924    9828    9829    7098
CTETRA      6863       1   17362   12010   11987     154   12313   12314+
+          12310    6565    9829    9828
CTETRA      6864       1   17362   11987   17363     154   12310   12232+
+          17372    6565    9828    1756
CTETRA      6865       1   17363   11987     146     154   12232    1721+
+           1720    1756    9828    1757
CTETRA      6866       1   17559   17560   14699     177   17581   14937+
+          14939    1928    1865    9830
CTETRA      6867       1   17559   14699     175     177   14939    7434+
+           1927    1928    9830    1848
CTETRA      6868       1   14699     176     175     177    1858    1845+
+           7434    9830    1849    1848
CTETRA      6869       1   17560     176   14699     177    1856    1858+
+          14937    1865    1849    9830
CTETRA      6870       1   17516   13477   17517     179   13973   13974+
+          17548    8424    9831    9232
CTETRA      6871       1   17517   13477     178     179   13974    3783+
+           3760    9232    9831    1854
CTETRA      6872       1   13477     176     178     179    7976    1851+
+           3783    9831    1855    1854
CTETRA      6873       1   17516     176   13477     179    1859    7976+
+          13973    8424    1855    9831
CTETRA      6874       1   13476     175     176     180    1943    1845+
+           9054    9832    1941    1861
CTETRA      6875       1   17515     175   13476     180    1929    1943+
+          13965    1940    1941    9832
CTETRA      6876       1   17515   13476   17516     180   13965   13966+
+          17547    1940    9832    1860
CTETRA      6877       1   17516   13476     176     180   13966    9054+
+           1859    1860    9832    1861
CTETRA      6878       1   13614    1133     700     644    9833    9770+
+           9527    4618    9834    9769
CTETRA      6879       1   13614    1133     644     645    9833    9834+
+           4618    4620    9025    4621
CTETRA      6880       1   17553   14753   14787    1133   15167   15264+
+          15265    9513    9835    9836
CTETRA      6881       1   17553   14787     114    1133   15265    9760+
+           1863    9513    9836    9764
CTETRA      6882       1   14787     700     114    1133    9768    9762+
+           9760    9836    9770    9764
CTETRA      6883       1   13431     189     190     723    5466    1897+
+           9837    5469    5468    9838
CTETRA      6884       1   11672     190     189    1187    8525    1897+
+           5233    9839    9840    9841
CTETRA      6885       1   11662     190   11672    1188    8524    8525+
+          11688    9842    9843    9844
CTETRA      6886       1   11662     190     723    1155    8524    9838+
+           9293    9262    9845    9295
CTETRA      6887       1   17197   11513     189     723   11561    7297+
+           5465    5467    9846    5468
CTETRA      6888       1   11513     190     189     723    9847    1897+
+           7297    9846    9838    5468
CTETRA      6889       1   11662     723     190    1188    9293    9838+
+           8524    9842    9848    9843
CTETRA      6890       1   11662     723     789     791    9293    9849+
+           6361    6364    9294    6365
CTETRA      6891       1   17198     723   13658     789    7328    7329+
+          14604    9259    9849    9260
CTETRA      6892       1   17197   17198   11513     723   17209   11562+
+          11561    5467    7328    9846
CTETRA      6893       1   13431     190     189     191    9837    1897+
+           5466    9850    1901    1900
CTETRA      6894       1   11662     191     190    1155    8918    1901+
+           8524    9262    9851    9845
CTETRA      6895       1   18027     191   11662    1155    8804    8918+
+          11750    9261    9851    9262
CTETRA      6896       1   18027   13431   18028     191   13804   13805+
+          18041    8804    9850    8805
CTETRA      6897       1   18028   13431   13445     191   13805   13863+
+          13861    8805    9850    9852
CTETRA      6898       1   13431     189   13445     191    5466    7596+
+          13863    9850    1900    9852
CTETRA      6899       1   13520     107     108     193    1922    1606+
+           4945    9853    1911    4837
CTETRA      6900       1   13520     185     107     193    1923    1885+
+           1922    9853    1912    1911
CTETRA      6901       1   13520   13543     185     193   14201    7123+
+           1923    9853    9854    1912
CTETRA      6902       1   13520     108   13543     193    4945    5927+
+          14201    9853    4837    9854
CTETRA      6903       1   15322      19      42     194    9855    1363+
+           9856    9857    9569    9636
CTETRA      6904       1   13663     194      19    1110    1915    9569+
+           9567    8774    9858    9570
CTETRA      6905       1   17583     194   13663    1110    1913    1915+
+          14634    8773    9858    8774
CTETRA      6906       1   17583   15322   17584     194   15383   15385+
+          17609    1913    9857    4477
CTETRA      6907       1   17584   15322     352     194   15385    7019+
+           4286    4477    9857    4478
CTETRA      6908       1   15322      42     352     194    9856    4489+
+           7019    9857    9636    4478
CTETRA      6909       1   15322    1109    1016    1110    9572    9562+
+           9573    9859    8775    9563
CTETRA      6910       1   17583    1109   15322    1110    8772    9572+
+          15383    8773    8775    9859
CTETRA      6911       1   17583   15322     194    1110   15383    9857+
+           1913    8773    9859    9858
CTETRA      6912       1   15322      19     194    1110    9855    9569+
+           9857    9859    9570    9858
CTETRA      6913       1   15322    1016      19    1110    9573    8568+
+           9855    9859    9563    9570
CTETRA      6914       1   13543     193     108     195    9854    4837+
+           5927    9860    4839    4838
CTETRA      6915       1   13543     185     193     195    7123    1912+
+           9854    9860    1919    4839
CTETRA      6916       1   13543     137     185     195    5925    1916+
+           7123    9860    1920    1919
CTETRA      6917       1   13543     108     137     195    5927    5926+
+           5925    9860    4838    1920
CTETRA      6918       1   18097   15342   15341     200   15489   15488+
+          15485    1957    9861    9862
CTETRA      6919       1   18097   15341     199     200   15485    1961+
+           1954    1957    9862    1958
CTETRA      6920       1   15341     105     199     200    4111    1970+
+           1961    9862    1972    1958
CTETRA      6921       1   15341   15342     105     200   15488    4112+
+           4111    9862    9861    1972
CTETRA      6922       1   18032   13538   18033     201   14185   14182+
+          18036    9132    9863    7032
CTETRA      6923       1   18033   13538      32     201   14182    1523+
+           1337    7032    9863    1964
CTETRA      6924       1   13538      86      32     201    1525    1524+
+           1523    9863    1965    1964
CTETRA      6925       1   11667     201      86     680    8024    1965+
+           4937    5035    9864    5036
CTETRA      6926       1   18032     201   11667     680    9132    8024+
+          11740    7914    9864    5035
CTETRA      6927       1   17601   15341   17602     202   15478   15476+
+          17617    1967    9865    7261
CTETRA      6928       1   17602   15341     105     202   15476    4111+
+           4170    7261    9865    4038
CTETRA      6929       1   15341     199     105     202    1961    1970+
+           4111    9865    1969    4038
CTETRA      6930       1   17601     199   15341     202    1959    1961+
+          15478    1967    1969    9865
CTETRA      6931       1   17732   16215     203     204   16249    3597+
+           1973    1975    9866    1976
CTETRA      6932       1   16215     153     203     204    4158    4157+
+           3597    9866    6150    1976
CTETRA      6933       1   15626     204     153     964    6149    6150+
+           6148    7728    9867    7729
CTETRA      6934       1   17732     204   15626     964    1975    6149+
+          15966    9005    9867    7728
CTETRA      6935       1   18026   13464   13658     205   13962   14628+
+          14602    1978    9868    9869
CTETRA      6936       1   18026   11662     205     791   11753    8183+
+           1978    8934    6364    9870
CTETRA      6937       1   11662     790     205     791    6363    9871+
+           8183    6364    6366    9870
CTETRA      6938       1   17199   13658     205     790   14605    9869+
+           8916    9257    9256    9871
CTETRA      6939       1   17199   13658   13464     205   14605   14628+
+          13960    8916    9869    9868
CTETRA      6940       1   18026   13464     205     206   13962    9868+
+           1978    1980    9872    1981
CTETRA      6941       1   17199     205   13464     206    8916    9868+
+          13960    8169    1981    9872
CTETRA      6942       1   17199     206   13464     812    8169    9872+
+          13960    9250    9873    6560
CTETRA      6943       1   11660     206     812     919    8526    9873+
+           8900    7377    9874    8901
CTETRA      6944       1   18025     206   11660     919    8534    8526+
+          11713    7376    9874    7377
CTETRA      6945       1   18025   13464   18026     206   13961   13962+
+          18043    8534    9872    1980
CTETRA      6946       1   17732     203   16214     207    1973    2397+
+          16245    3621    3622    9875
CTETRA      6947       1   17731   17732   16214     207   17757   16245+
+          16244    1985    3621    9875
CTETRA      6948       1   17731   16214   16213     207   16244   16243+
+          16240    1985    9875    9876
CTETRA      6949       1   16213   16214     302     207   16243    3623+
+           2402    9876    9875    7943
CTETRA      6950       1   16214     203     302     207    2397    4524+
+           3623    9875    3622    7943
CTETRA      6951       1   17731     207   16213     208    1985    9876+
+          16240    1986    1988    9877
CTETRA      6952       1   17731   15624     208     807   15952    7428+
+           1986    6520    6519    9878
CTETRA      6953       1   15624     302     208     807    8351    7944+
+           7428    6519    9879    9878
CTETRA      6954       1   16213     207     302     208    9876    7943+
+           2402    9877    1988    7944
CTETRA      6955       1   17521   13497     210     212   14052    2016+
+           2005    2007    9880    2008
CTETRA      6956       1   13497     213     210     212    2013    2010+
+           2016    9880    2012    2008
CTETRA      6957       1   17520     213   13497     212    2520    2013+
+          14050    6857    2012    9880
CTETRA      6958       1   17520   13497   17521     212   14050   14052+
+          17541    6857    9880    2007
CTETRA      6959       1   16039      58     214     899    3624    2022+
+           7631    7192    7194    9881
CTETRA      6960       1   15585      59      58     214    8232    1429+
+           7779    9882    2023    2022
CTETRA      6961       1   15585   15602      59     214   15863    1535+
+           8232    9882    9883    2023
CTETRA      6962       1   17673   15602   15585     214   15899   15863+
+          15901    8323    9883    9882
CTETRA      6963       1   17673   16039     214     899   16157    7631+
+           8323    8328    7192    9881
CTETRA      6964       1   16311      59   16396     215    1428    2427+
+          16717    9884    2034    9885
CTETRA      6965       1   16311      58      59     215    1423    1429+
+           1428    9884    2035    2034
CTETRA      6966       1   16019     215      58     518    6544    2035+
+           2414    3643    9886    3644
CTETRA      6967       1   17788     215   16019     518    6543    6544+
+          16182    8516    9886    3643
CTETRA      6968       1   17788   16311   16396     215   16716   16717+
+          16712    6543    9884    9885
CTETRA      6969       1   18106     217   16401     218    2053    4669+
+          16730    8447    2043    9887
CTETRA      6970       1   18106   16401   17858     218   16730   16729+
+          17874    8447    9887    4667
CTETRA      6971       1   17858   16401     220     218   16729    4652+
+           4651    4667    9887    4668
CTETRA      6972       1   16401     217     220     218    4669    4671+
+           4652    9887    2043    4668
CTETRA      6973       1   17633   17634   15333     222   17653   15442+
+          15441    2056    5915    9888
CTETRA      6974       1   17633   15333     221     222   15441    3380+
+           2054    2056    9888    2057
CTETRA      6975       1   15333     383     221     222    9521    2854+
+           3380    9888    5916    2057
CTETRA      6976       1   17634     383   15333     222    3067    9521+
+          15442    5915    5916    9888
CTETRA      6977       1   17589   15332     221     224   15444    3379+
+           3377    8127    9889    9504
CTETRA      6978       1   15332     223     221     224    7938    3382+
+           3379    9889    2064    9504
CTETRA      6979       1   17588     223   15332     224    2061    7938+
+          15440    2062    2064    9889
CTETRA      6980       1   17588   15332   17589     224   15440   15444+
+          17628    2062    9889    8127
CTETRA      6981       1   11568    1081     228     706    8552    9890+
+           2077    5262    8553    9891
CTETRA      6982       1   11568     980     228    1081    7848    9612+
+           2077    8552    9613    9890
CTETRA      6983       1   17527     980   13452     228    9238    9614+
+          13896    8952    9612    9892
CTETRA      6984       1   17527   13452   13453     228   13896   13901+
+          13900    8952    9892    9893
CTETRA      6985       1   11568     228     227     706    2077    2076+
+           2075    5262    9891    9894
CTETRA      6986       1   17527     228   13453     227    8952    9893+
+          13900    8953    2076    9895
CTETRA      6987       1   18083   17527   13453     227   17529   13900+
+          13902    9096    8953    9895
CTETRA      6988       1   18083     227   13453    1154    9096    9895+
+          13902    9233    9896    9234
CTETRA      6989       1   11568     706     227     910    5262    9894+
+           2075    7302    9091    7303
CTETRA      6990       1   11577     940     229    1174    9452    9897+
+           8555    9453    9455    9898
CTETRA      6991       1   13168     229     227     940    9899    2079+
+           8954    7542    9897    9140
CTETRA      6992       1   13168     228     227     229    8951    2076+
+           8954    9899    2080    2079
CTETRA      6993       1   13168     980     228     229    9239    9612+
+           8951    9899    7847    2080
CTETRA      6994       1   13167     980   13168     229    9240    9239+
+          13224    9900    7847    9899
CTETRA      6995       1   11578     229    1040    1041    8249    9901+
+           8268    8271    9902    8272
CTETRA      6996       1   11577     229   11578    1041    8555    8249+
+          11596    9237    9902    8271
CTETRA      6997       1   13452     228     980    1081    9892    9612+
+           9614    9903    9890    9613
CTETRA      6998       1   13452   13453     228    1081   13901    9893+
+           9892    9903    9904    9890
CTETRA      6999       1   18009   13453   13452    1081   13904   13901+
+          13898    8551    9904    9903
CTETRA      7000       1   18009   13452     705    1081   13898    9611+
+           5254    8551    9903    9610
CTETRA      7001       1   13452     980     705    1081    9614    9608+
+           9611    9903    9613    9610
CTETRA      7002       1   13453     228    1081     706    9893    9890+
+           9904    9905    9891    8553
CTETRA      7003       1   13453     227     228     706    9895    2076+
+           9893    9905    9894    9891
CTETRA      7004       1   13453     227     706    1154    9895    9894+
+           9905    9234    9896    9906
CTETRA      7005       1   11567     706    1154    1058    9090    9906+
+           9907    8415    9908    9909
CTETRA      7006       1   18008     706   11567    1058    5260    9090+
+          11655    8414    9908    8415
CTETRA      7007       1   18008   13453   18009     706   13905   13904+
+          18022    5260    9905    5261
CTETRA      7008       1   18009   13453    1081     706   13904    9904+
+           8551    5261    9905    8553
CTETRA      7009       1   14796     225     332     230    2072    2577+
+           2576    9910    2084    2579
CTETRA      7010       1   14796     226     225     230    2074    2069+
+           2072    9910    2085    2084
CTETRA      7011       1   14796   14797     226     230   15303    2652+
+           2074    9910    9911    2085
CTETRA      7012       1   14796     332   14797     230    2576    5921+
+          15303    9910    2579    9911
CTETRA      7013       1   12606     231     102     934    2088    2090+
+           2087    7495    9912    8246
CTETRA      7014       1   17472     231   12606     934    6306    2088+
+          12656    7494    9912    7495
CTETRA      7015       1   17471   17472   12709     231   17487   12974+
+          12973    6305    6306    9913
CTETRA      7016       1   17471   12709   12757     231   12973   12978+
+          12977    6305    9913    8460
CTETRA      7017       1   12709     102   12757     231    8695    8255+
+          12978    9913    2090    8460
CTETRA      7018       1   12709     102     231     934    8695    2090+
+           9913    9914    8246    9912
CTETRA      7019       1   12709     646     102     934    8466    5686+
+           8695    9914    8247    8246
CTETRA      7020       1   12709   12790     646     934   13096    6657+
+           8466    9914    9915    8247
CTETRA      7021       1   17472   12790   12709     934   13097   13096+
+          12974    7494    9915    9914
CTETRA      7022       1   17472   12709     231     934   12974    9913+
+           6306    7494    9914    9912
CTETRA      7023       1   13621   13629     111     817   14484    6334+
+           1627    9916    9917    9472
CTETRA      7024       1   17508   13629   13621     817   14482   14484+
+          14458    6601    9917    9916
CTETRA      7025       1   17508   13621     115     817   14458    9765+
+           2094    6601    9916    9766
CTETRA      7026       1   13621     111     115     817    1627    1633+
+           9765    9916    9472    9766
CTETRA      7027       1   17396   13164     232     233   13206    2965+
+           2100    2102    9918    2103
CTETRA      7028       1   13164     394     232     233    2966    2930+
+           2965    9918    4754    2103
CTETRA      7029       1   12732     233     394     766    4755    4754+
+           4753    6105    9919    6111
CTETRA      7030       1   17395     233   12732     766    5072    4755+
+          12852    6104    9919    6105
CTETRA      7031       1   17395   13164   17396     233   13203   13206+
+          17401    5072    9918    2102
CTETRA      7032       1   14797     230     332     234    9911    2579+
+           5921    9920    2113    2733
CTETRA      7033       1   14797     226     230     234    2652    2085+
+           9911    9920    2114    2113
CTETRA      7034       1   14797     223     226     234    2093    2654+
+           2652    9920    4282    2114
CTETRA      7035       1   14777     223   14797     234    2091    2093+
+          15304    9921    4282    9920
CTETRA      7036       1   14777   14797     332     234   15304    5921+
+           3159    9921    9920    2733
CTETRA      7037       1   17396     232   13163     244    2100    7837+
+          13208    2748    2150    9922
CTETRA      7038       1   17396   13163   17397     244   13208   13209+
+          17400    2748    9922    2749
CTETRA      7039       1   17397   12713     244    1092   12884    2964+
+           2749    9192    8625    9923
CTETRA      7040       1   12713     243     244    1092    7621    2149+
+           2964    8625    8624    9923
CTETRA      7041       1   13163     232     243     244    7837    2145+
+           7713    9922    2150    2149
CTETRA      7042       1   11995   12003     425     245   12271    6383+
+           3114    9924    9925    8712
CTETRA      7043       1   12612     245     425     247    8713    8712+
+           6623    2157    9926    6625
CTETRA      7044       1   17359     245   12612     247    9072    8713+
+          12653    2156    9926    2157
CTETRA      7045       1   17359   12003   17360     245   12277   12272+
+          17368    9072    9925    2152
CTETRA      7046       1   17360   12003   11995     245   12272   12271+
+          12270    2152    9925    9924
CTETRA      7047       1   11995     245     425     246    9924    8712+
+           3114    9927    2155    6621
CTETRA      7048       1   17360     245   11995     246    2152    9924+
+          12270    2153    2155    9927
CTETRA      7049       1   17360   12610     246     562   12638    6620+
+           2153    8721    3978    9928
CTETRA      7050       1   12610     425     246     562    6618    6621+
+           6620    3978    6622    9928
CTETRA      7051       1   12003     646     425     247    4633    4886+
+           6383    9929    6626    6625
CTETRA      7052       1   12003   12004     646     247   12280    4634+
+           4633    9929    9930    6626
CTETRA      7053       1   17359   12004   12003     247   12278   12280+
+          12277    2156    9930    9929
CTETRA      7054       1   17359   12003     245     247   12277    9925+
+           9072    2156    9929    9926
CTETRA      7055       1   12003     425     245     247    6383    8712+
+           9925    9929    6625    9926
CTETRA      7056       1   12004     646     247     248    4634    6626+
+           9930    9931    8694    2159
CTETRA      7057       1   12606     248     646     824    6658    8694+
+           6650    6653    9932    6654
CTETRA      7058       1   17358     248   12606     824    6617    6658+
+          12646    8480    9932    6653
CTETRA      7059       1   17358   12004   17359     248   12279   12278+
+          17369    6617    9931    2158
CTETRA      7060       1   17359   12004     247     248   12278    9930+
+           2156    2158    9931    2159
CTETRA      7061       1   11755     255     256    1075    9933    2186+
+           9586    8519    9934    9935
CTETRA      7062       1   11755     255    1075    1076    9933    9934+
+           8519    8522    9936    8523
CTETRA      7063       1   11661     255    1026    1189    8789    8790+
+           8528    9937    9938    9939
CTETRA      7064       1   11661   11671     255     697   11684    7227+
+           8789    8769    5199    9940
CTETRA      7065       1   11671      29     255     697    1315    7228+
+           7227    5199    5203    9940
CTETRA      7066       1   11511     256      29     255    9941    9585+
+           9942    9943    2186    7228
CTETRA      7067       1   11755     256     255     257    9586    2186+
+           9933    9944    2190    2189
CTETRA      7068       1   17257     256   11755     257    5212    9586+
+          11794    5213    2190    9944
CTETRA      7069       1   17256   17257   11755     257   17266   11794+
+          11795    8052    5213    9944
CTETRA      7070       1   17256   11669     257     865   11717    8053+
+           8052    6959    6958    9945
CTETRA      7071       1   11669    1076     257     865    9946    9947+
+           8053    6958    9948    9945
CTETRA      7072       1   11755     257     255    1076    9944    2189+
+           9933    8522    9947    9936
CTETRA      7073       1   11755     256     932    1075    9586    9588+
+           8794    8519    9935    9949
CTETRA      7074       1   11511      29     256     932    9942    9585+
+           9941    9950    9584    9588
CTETRA      7075       1   11781     932      29    1073    8518    9584+
+           9583    8509    9951    9952
CTETRA      7076       1   17211     932   11781    1073    7488    8518+
+          11900    8508    9951    8509
CTETRA      7077       1   17210   17211   11511     932   17228   11563+
+          11552    7486    7488    9950
CTETRA      7078       1   17210   11755     932    1075   11788    8794+
+           7486    8520    8519    9949
CTETRA      7079       1   11511     256     255    1075    9941    2186+
+           9943    9953    9935    9934
CTETRA      7080       1   11511     932     256    1075    9950    9588+
+           9941    9953    9949    9935
CTETRA      7081       1   17210     932   11511    1075    7486    9950+
+          11552    8520    9949    9953
CTETRA      7082       1   17210   11511   11512    1075   11552   11551+
+          11550    8520    9953    9954
CTETRA      7083       1   11511     255   11512    1075    9943    9955+
+          11551    9953    9934    9954
CTETRA      7084       1   16405      24      23     258    2747    1283+
+           4114    9956    5742    5741
CTETRA      7085       1   17856      24   16405     258    2194    2747+
+          16750    6367    5742    9956
CTETRA      7086       1   17855   17856   16405     258   17871   16750+
+          16749    2191    6367    9956
CTETRA      7087       1   17855   16221     258     269   16282    2192+
+           2191    2252    2251    9957
CTETRA      7088       1   16221      23     258     269    3561    5741+
+           2192    2251    3562    9957
CTETRA      7089       1   17855   16405   16391     269   16749   16748+
+          16692    2252    9958    9959
CTETRA      7090       1   16391   16405      23     269   16748    4114+
+           4113    9959    9958    3562
CTETRA      7091       1   16405     258      23     269    9956    5741+
+           4114    9958    9957    3562
CTETRA      7092       1   17855     258   16405     269    2191    9956+
+          16749    2252    9957    9958
CTETRA      7093       1   16028      68     267     845    9004    2250+
+           6185    6799    9960    8808
CTETRA      7094       1   17685      68   16028     845    1462    9004+
+          16134    6798    9960    6799
CTETRA      7095       1   17685   15557   17686      68   15681   15680+
+          17693    1462    9961    1463
CTETRA      7096       1   17686   15557   15546      68   15680   15685+
+          15660    1463    9961    9962
CTETRA      7097       1   15546   15557     268      68   15685    5959+
+           8115    9962    9961    2249
CTETRA      7098       1   15557     267     268      68    5957    2246+
+           5959    9961    2250    2249
CTETRA      7099       1   15546     268   15548     273    8115    2266+
+          15655    9963    2274    9964
CTETRA      7100       1   17687   15546   15548     273   15659   15655+
+          15661    8274    9963    9964
CTETRA      7101       1   17687   16025     273     815   16129    8275+
+           8274    8941    6587    9965
CTETRA      7102       1   16025     272     273     815    6586    2273+
+           8275    6587    6589    9965
CTETRA      7103       1   15548     268     272     273    2266    2269+
+           2268    9964    2274    2273
CTETRA      7104       1   16372   16388     268     274   16687    8204+
+           6944    9966    9967    2278
CTETRA      7105       1   16388     272     268     274    6162    2269+
+           8204    9967    2279    2278
CTETRA      7106       1   16005     274     272     770    8429    2279+
+           8106    6164    9968    8987
CTETRA      7107       1   17803     274   16005     770    9333    8429+
+          16124    6163    9968    6164
CTETRA      7108       1   17802   17803   16388     274   17824   16690+
+          16689    9332    9333    9967
CTETRA      7109       1   17802   16388   16372     274   16689   16687+
+          16610    9332    9967    9966
CTETRA      7110       1   11667     280     277     275    2292    2295+
+           2294    2282    7597    9969
CTETRA      7111       1   13536     278     280     277    6261    6252+
+           6264    9970    2287    2295
CTETRA      7112       1   13419     278   13536     277    6257    6261+
+          14177    9971    2287    9970
CTETRA      7113       1   18031   13419   13536     277   13837   14177+
+          14178    7395    9971    9970
CTETRA      7114       1   18031   11667     277     275   11743    2294+
+           7395    2280    2282    9969
CTETRA      7115       1   13419     278     277     279    6257    2287+
+           9971    9972    2291    2290
CTETRA      7116       1   11665     279     278     590    6008    2291+
+           4229    4230    9973    4231
CTETRA      7117       1   18030     279   11665     590    6007    6008+
+          11744    9122    9973    4230
CTETRA      7118       1   18030   13419   18031     279   13836   13837+
+          18038    6007    9972    7388
CTETRA      7119       1   18031   13419     277     279   13837    9971+
+           7395    7388    9972    2290
CTETRA      7120       1   18032   13536   13537     275   14179   14175+
+          14180    2281    9974    9975
CTETRA      7121       1   13536     280   13537     275    6264    6350+
+          14175    9974    7597    9975
CTETRA      7122       1   13536     277     280     275    9970    2295+
+           6264    9974    9969    7597
CTETRA      7123       1   18031     277   13536     275    7395    9970+
+          14178    2280    9969    9974
CTETRA      7124       1   18031   13536   18032     275   14178   14179+
+          18037    2280    9974    2281
CTETRA      7125       1   17663   15616   18102     284   15925   15926+
+          17667    8603    9976    4809
CTETRA      7126       1   18102   17769     284    1031   17771    2311+
+           4809    8217    8216    9977
CTETRA      7127       1   17769     211     284    1031    2309    2312+
+           2311    8216    8322    9977
CTETRA      7128       1   15536     211   15616     284    2234    8214+
+          15923    9978    2312    9976
CTETRA      7129       1   17663   15536   15616     284   15922   15923+
+          15925    8603    9978    9976
CTETRA      7130       1   15616     284     211    1031    9976    2312+
+           8214    9979    9977    8322
CTETRA      7131       1   18102     284   15616    1031    4809    9976+
+          15926    8217    9977    9979
CTETRA      7132       1   18102   15616   15632    1031   15926   15983+
+          15982    8217    9979    9980
CTETRA      7133       1   15616     211   15632    1031    8214    6521+
+          15983    9979    8322    9980
CTETRA      7134       1   16336     287     286     289    7366    2326+
+           7365    9981    2332    8823
CTETRA      7135       1   17775     287   16336     289    6482    7366+
+          16456    8405    2332    9981
CTETRA      7136       1   18107   17775   16336     289   17779   16456+
+          16459    9498    8405    9981
CTETRA      7137       1   18107   16336   17833     289   16459   16460+
+          17839    9498    9981    8822
CTETRA      7138       1   17833   16336     286     289   16460    7365+
+           6328    8822    9981    8823
CTETRA      7139       1   13196     296     112     291    6338    7912+
+           9759    9982    2353    8803
CTETRA      7140       1   13196     286     296     291    9983    2352+
+           6338    9982    2340    2353
CTETRA      7141       1   13187     286   13196     291    9984    9983+
+          13376    9985    2340    9982
CTETRA      7142       1   18099   13187   13196     291   13371   13376+
+          13375    6373    9985    9982
CTETRA      7143       1   18099   13196     112     291   13375    9759+
+           9006    6373    9982    8803
CTETRA      7144       1   13187     286     291     292    9984    2340+
+           9985    9354    2344    2343
CTETRA      7145       1   15584     292     286     290    8398    2344+
+           2322    2337    9986    2338
CTETRA      7146       1   17660   18099   15584     292   17668   15811+
+          15809    9353    6374    8398
CTETRA      7147       1   18099   13187     291     292   13371    9985+
+           6373    6374    9354    2343
CTETRA      7148       1   11575     121     294    1160    9133    9778+
+           2347    9309    9316    9987
CTETRA      7149       1   17218     121   11506     294    2161    9988+
+          11521    9451    9778    9989
CTETRA      7150       1   17217   17218   11506     294   17220   11521+
+          11522    8284    9451    9989
CTETRA      7151       1   17217   11506   11508     294   11522   11537+
+          11535    8284    9989    9990
CTETRA      7152       1   11575    1160     294    1161    9309    9987+
+           2347    9312    9311    9991
CTETRA      7153       1   11575     294     293    1161    2347    2346+
+           2345    9312    9991    9992
CTETRA      7154       1   17217     294   11508     293    8284    9990+
+          11535    2680    2346    9993
CTETRA      7155       1   17217   11759     293     849   11805    2681+
+           2680    6843    6842    9994
CTETRA      7156       1   11575    1161     293     297    9312    9992+
+           2345    2369    9456    8040
CTETRA      7157       1   11783     121     294     295    9776    9778+
+           8283    9995    9777    2350
CTETRA      7158       1   17239     121   11783     295    1647    9776+
+          11908    7408    9777    9995
CTETRA      7159       1   17238   17239   11783     295   17248   11908+
+          11907    2367    7408    9995
CTETRA      7160       1   17238   11783   11759     295   11907   11909+
+          11807    2367    9995    9996
CTETRA      7161       1   11759   11783     293     295   11909    2682+
+           2681    9996    9995    2349
CTETRA      7162       1   11783     294     293     295    8283    2346+
+           2682    9995    2350    2349
CTETRA      7163       1   11506     294     121    1160    9989    9778+
+           9988    9997    9987    9316
CTETRA      7164       1   11506   11508     294    1160   11537    9990+
+           9989    9997    9998    9987
CTETRA      7165       1   11566    1160    1190     998    9308    9999+
+          10000    7979   10001   10002
CTETRA      7166       1   11566   11576    1160     998   11589    9315+
+           9308    7979    7981   10001
CTETRA      7167       1   11576     121    1160    1011    1648    9316+
+           9315    8955    8050   10003
CTETRA      7168       1   11508     294    1160    1161    9990    9987+
+           9998   10004    9991    9311
CTETRA      7169       1   11508     293     294    1161    9993    2346+
+           9990   10004    9992    9991
CTETRA      7170       1   11759    1161     293     849   10005    9992+
+           2681    6842   10006    9994
CTETRA      7171       1   11759    1161     849     298   10005   10006+
+           6842    2364   10007    9459
CTETRA      7172       1   11565    1161   11574    1173    9313    9314+
+          11583    9447   10008    9448
CTETRA      7173       1   11565   11566    1161    1190   11587    9310+
+           9313   10009   10000   10010
CTETRA      7174       1   11566    1160    1161    1190    9308    9311+
+           9310   10000    9999   10010
CTETRA      7175       1   11759     293    1161     297    2681    9992+
+          10005    2363    8040    9456
CTETRA      7176       1   11759     295     293     297    9996    2349+
+           2681    2363    2370    8040
CTETRA      7177       1   17238     295   11759     297    2367    9996+
+          11807    2368    2370    2363
CTETRA      7178       1   17237   11574   17238     297   11622   11623+
+          17247    6490    9422    2368
CTETRA      7179       1   11759     297    1161     298    2363    9456+
+          10005    2364    2366   10007
CTETRA      7180       1   16873     299     361     979    7787    7786+
+           5059    7843   10011    9087
CTETRA      7181       1   16873   16874     299     979   16898    2715+
+           7787    7843    7842   10011
CTETRA      7182       1   16874     299     357     360    2715   10012+
+           6723    2701    2716    6722
CTETRA      7183       1   17955     299   16981     357    2374    2376+
+          17104    2692   10012    2693
CTETRA      7184       1   17955   17136   17956     299   17185   17184+
+          17965    2374   10013    8067
CTETRA      7185       1   17956   17136   17133     299   17184   17183+
+          17180    8067   10013   10014
CTETRA      7186       1   17133   17136     361     299   17183   10015+
+          10016   10014   10013    7786
CTETRA      7187       1   16874     357    1138     832    6723   10017+
+           9065    6724    6726   10018
CTETRA      7188       1   17955   17134   17136     357   17186   17187+
+          17185    2692   10019   10020
CTETRA      7189       1   17955   17136     299     357   17185   10013+
+           2374    2692   10020   10012
CTETRA      7190       1   16874     357     299    1138    6723   10012+
+           2715    9065   10017   10021
CTETRA      7191       1   16215     151     203     155    1983    2398+
+           3597    1760   10022    4159
CTETRA      7192       1   17847     151   16215     155    1748    1983+
+          16246    1759   10022    1760
CTETRA      7193       1   17846   17847   16357     151   17862   16552+
+          16556    1746    1748   10023
CTETRA      7194       1   17846   16357   16356     151   16556   16555+
+          16557    1746   10023   10024
CTETRA      7195       1   16356   16357     203     151   16555    4519+
+           2396   10024   10023    2398
CTETRA      7196       1   16356     151     203     303   10024    2398+
+           2396   10025    2401    2400
CTETRA      7197       1   17846     151   16356     303    1746   10024+
+          16557    7290    2401   10025
CTETRA      7198       1   17846   16356     302     303   16557    2395+
+           2403    7290   10025    6063
CTETRA      7199       1   16356     203     302     303    2396    4524+
+           2395   10025    2400    6063
CTETRA      7200       1   17846     302   16355     304    2403    2394+
+          16546    2404    2406   10026
CTETRA      7201       1   17845   17846   16355     304   17860   16546+
+          16545    3538    2404   10026
CTETRA      7202       1   17845   16211     304    1047   16237    3539+
+           3538    8333    8332   10027
CTETRA      7203       1   16211     302     304    1047    4453    2406+
+           3539    8332    8604   10027
CTETRA      7204       1   17789   17790   16358     308   17811   16567+
+          16568    2814    3675   10028
CTETRA      7205       1   17789   16019     308     517   16181    2422+
+           2814    9493    3642   10029
CTETRA      7206       1   16019      58     308     517    2414    2423+
+           2422    3642    3641   10029
CTETRA      7207       1   16358      82      58     308    6548    1516+
+           6546   10028    4150    2423
CTETRA      7208       1   16358   16359      82     308   16569    8993+
+           6548   10028   10030    4150
CTETRA      7209       1   17790   16359   16358     308   16566   16569+
+          16567    3675   10030   10028
CTETRA      7210       1   17789   16358   16311     517   16568   16570+
+          16571    9493   10031   10032
CTETRA      7211       1   16311   16358      58     517   16570    6546+
+           1423   10032   10031    3641
CTETRA      7212       1   16358     308      58     517   10028    2423+
+           6546   10031   10029    3641
CTETRA      7213       1   17789     308   16358     517    2814   10028+
+          16568    9493   10029   10031
CTETRA      7214       1   11942     126   11944     312    4365    6704+
+          12051   10033    2446   10034
CTETRA      7215       1   17307   11942   11944     312   12055   12051+
+          12057    3442   10033   10034
CTETRA      7216       1   17307   11944   17308     312   12057   12058+
+          17311    3442   10034    5172
CTETRA      7217       1   17308   12420     312     365   12567    5642+
+           5172    5164    2728   10035
CTETRA      7218       1   12420     311     312     365    2727    2445+
+           5642    2728    2730   10035
CTETRA      7219       1   11944     126     311     312    6704    2442+
+           5709   10034    2446    2445
CTETRA      7220       1   17422   12784   12768     313   13085   13083+
+          13006    5609   10036   10037
CTETRA      7221       1   12768   12784     126     313   13083    7058+
+           7718   10037   10036    2454
CTETRA      7222       1   12784     311     126     313    2724    2442+
+           7058   10036    2455    2454
CTETRA      7223       1   12440     313     311     734    5610    2455+
+           6068    5654   10038    8907
CTETRA      7224       1   17422     313   12440     734    5609    5610+
+          12561    7500   10038    5654
CTETRA      7225       1   12417     315     127     880    8641    2466+
+           3554    7047   10039    7048
CTETRA      7226       1   17306     315   12417     880    7683    8641+
+          12574    7577   10039    7047
CTETRA      7227       1   17306   11953   11942     315   12076   12081+
+          12056    7683   10040   10041
CTETRA      7228       1   11942   11953     126     315   12081    6070+
+           4365   10041   10040    2465
CTETRA      7229       1   11953     127     126     315    6069    1665+
+           6070   10040    2466    2465
CTETRA      7230       1   17520   13486     213     323   14013    2539+
+           2520    2522   10042    2523
CTETRA      7231       1   13486     324     213     323    2840    2526+
+           2539   10042    6315    2523
CTETRA      7232       1   17519     324   13486     323    5455    2840+
+          14012    6856    6315   10042
CTETRA      7233       1   17519   13486   17520     323   14012   14013+
+          17542    6856   10042    2522
CTETRA      7234       1   14666     213     324     325    2546    2526+
+           2545   10043    2529    2528
CTETRA      7235       1   17564     213   14666     325    7689    2546+
+          14801    6860    2529   10043
CTETRA      7236       1   17563   17564   14666     325   17576   14801+
+          14800    6859    6860   10043
CTETRA      7237       1   17563   14666     324     325   14800    2545+
+           3933    6859   10043    2528
CTETRA      7238       1   13391     326   13406     327    7327    2542+
+          13732   10044    2534   10045
CTETRA      7239       1   18052   13391   13406     327   13668   13732+
+          13733    8099   10044   10045
CTETRA      7240       1   18002     327   18052     874    8098    8099+
+          16843    7008   10046    8295
CTETRA      7241       1   18002     326     327     874    2532    2534+
+           8098    7008    7010   10046
CTETRA      7242       1   13391     326     327     328    7327    2534+
+          10044   10047    2537    2536
CTETRA      7243       1   13391     883     328    1191    8166   10048+
+          10047   10049   10050   10051
CTETRA      7244       1   16771     328    1088    1019    8599    8601+
+           8600    8103   10052    8921
CTETRA      7245       1   18051     328   16771    1019    8931    8599+
+          16844    8102   10052    8103
CTETRA      7246       1   18051   13391   18052     328   13667   13668+
+          18053    8931   10047    8932
CTETRA      7247       1   18052   13391     327     328   13668   10044+
+           8099    8932   10047    2536
CTETRA      7248       1   12408     337     335     456    2606    2608+
+           2605    3310   10053    6055
CTETRA      7249       1   17297     337   12408     456    6663    2606+
+          12592    6054   10053    3310
CTETRA      7250       1   17297   12027   12025     337   12367   12366+
+          12364    6663   10054   10055
CTETRA      7251       1   12025   12027     335     337   12366    2594+
+           2593   10055   10054    2608
CTETRA      7252       1   12013     339   12027     456    2612    2614+
+          12376   10056    3311   10057
CTETRA      7253       1   17296   12013   12027     456   12377   12376+
+          12373    6053   10056   10057
CTETRA      7254       1   17296   12027   17297     456   12373   12367+
+          17326    6053   10057    6054
CTETRA      7255       1   17297   12027     337     456   12367   10054+
+           6663    6054   10057   10053
CTETRA      7256       1   12027     335     337     456    2594    2608+
+          10054   10057    6055   10053
CTETRA      7257       1   12027     339     335     456    2614    3725+
+           2594   10057    3311    6055
CTETRA      7258       1   17383   11949   11958     345   12080   12118+
+          12117    5420   10058   10059
CTETRA      7259       1   17383   15324     345     568   15404    2636+
+           5420    8168    8167   10060
CTETRA      7260       1   15324     344     345     568    2634    2637+
+           2636    8167    9524   10060
CTETRA      7261       1   11949     344   11958     345    7501    9114+
+          12118   10058    2637   10059
CTETRA      7262       1   11958     344     346     568    9114    6662+
+           5077   10061    9524    4018
CTETRA      7263       1   11958     345     344     568   10059    2637+
+           9114   10061   10060    9524
CTETRA      7264       1   17383     345   11958     568    5420   10059+
+          12117    8168   10060   10061
CTETRA      7265       1   18089   17383   11958     568   17386   12117+
+          12116    5354    8168   10061
CTETRA      7266       1   18089   11958   17330     568   12116   12115+
+          17339    5354   10061    4017
CTETRA      7267       1   17330   11958     346     568   12115    5077+
+           4014    4017   10061    4018
CTETRA      7268       1   18097   15324   15342     347   15491   15490+
+          15489    6392   10062   10063
CTETRA      7269       1   15324     346   15342     347    9523   10064+
+          15490   10062    2650   10063
CTETRA      7270       1   12780     347     346     715    2651    2650+
+           2648    5349   10065    9306
CTETRA      7271       1   18097     347   12780     715    6392    2651+
+          13059    6643   10065    5349
CTETRA      7272       1   15324     344     346     715    2634    6662+
+           9523   10066    5350    9306
CTETRA      7273       1   15324   15326     344     715   15406    2635+
+           2634   10066   10067    5350
CTETRA      7274       1   17498   15326   15324     715   15407   15406+
+          15408    6644   10067   10066
CTETRA      7275       1   18097   17498   15324     715   17502   15408+
+          15491    6643    6644   10066
CTETRA      7276       1   18097   15324     347     715   15491   10062+
+           6392    6643   10066   10065
CTETRA      7277       1   15324     346     347     715    9523    2650+
+          10062   10066    9306   10065
CTETRA      7278       1   17631   17632   15331     348   17657   15432+
+          15431    8651    8081   10068
CTETRA      7279       1   17631   15331   15330     348   15431   15433+
+          15427    8651   10068   10069
CTETRA      7280       1   15330   15331     226     348   15433   10070+
+          10071   10069   10068    2656
CTETRA      7281       1   15331     223     226     348    7937    2654+
+          10070   10068    2657    2656
CTETRA      7282       1   17632     223   15331     348    6036    7937+
+          15432    8081    2657   10068
CTETRA      7283       1   15320      11      18     349    9555    9535+
+           9556   10072    9537    2661
CTETRA      7284       1   15320      12      11     349   10073    1249+
+           9555   10072    9541    9537
CTETRA      7285       1   13411     349      12     908    8667    9541+
+           9542    7288   10074    9046
CTETRA      7286       1   17582     349   13411     908    2660    8667+
+          13757    8666   10074    7288
CTETRA      7287       1   17582   15320      18     349   15381    9556+
+           2658    2660   10072    2661
CTETRA      7288       1   17958     350   17131     351    2664    5619+
+          17161    2665    2667   10075
CTETRA      7289       1   17958   17131   17959     351   17161   17160+
+          17967    2665   10075    5425
CTETRA      7290       1   17959   16963     351     731   17015    5426+
+           5425    8593    5624   10076
CTETRA      7291       1   16963     350     351     731    5623    2667+
+           5426    5624    5626   10076
CTETRA      7292       1   11508     293    1161     849    9993    9992+
+          10004   10077    9994   10006
CTETRA      7293       1   17217     293   11508     849    2680    9993+
+          11535    6843    9994   10077
CTETRA      7294       1   17216   17217   11508     849   17222   11535+
+          11534    6841    6843   10077
CTETRA      7295       1   17216   11508     401     849   11534    8279+
+           6865    6841   10077    6867
CTETRA      7296       1   11574     401    1192     298    7948   10078+
+          10079   10080    8282   10081
CTETRA      7297       1    1161    1192     849     298   10082   10083+
+          10006   10007   10081    9459
CTETRA      7298       1   17914   16981   16958     359   17101   17103+
+          17006    2697   10084   10085
CTETRA      7299       1   17913   17914   16958     359   17923   17006+
+          17007    2712    2697   10085
CTETRA      7300       1   17913   16873     359     683   16926    2713+
+           2712    6719    5061   10086
CTETRA      7301       1   16873     299     359     683    7787    2714+
+           2713    5061    7788   10086
CTETRA      7302       1   16958   16981     299     359   17103    2376+
+           2375   10085   10084    2714
CTETRA      7303       1   17914   16981     359     360   17101   10084+
+           2697    2699   10087    2700
CTETRA      7304       1   16981     299     359     360    2376    2714+
+          10084   10087    2716    2700
CTETRA      7305       1   16981     357     299     360    2693   10012+
+           2376   10087    6722    2716
CTETRA      7306       1   16981     357     360     358    2693    6722+
+          10087    2696    2695   10088
CTETRA      7307       1   16875     487     360    1069    8853   10089+
+           2732    8483   10090    9492
CTETRA      7308       1   17915     360   16875     487    2731    2732+
+          16930    8852   10089    8853
CTETRA      7309       1   17914   17915   16981     360   17924   17102+
+          17101    2699    2731   10087
CTETRA      7310       1   17956     299   17133     362    8067   10014+
+          17180    8581    8066   10091
CTETRA      7311       1   17956   16970     362     486   17051    2710+
+           8581    9384    3500   10092
CTETRA      7312       1   16970     361     362     486    2707    2711+
+           2710    3500    6071   10092
CTETRA      7313       1   17133     299     361     362   10014    7786+
+          10016   10091    8066    2711
CTETRA      7314       1   17956   17133   17957     486   17180   17170+
+          17970    9384   10093    3498
CTETRA      7315       1   17957   17133     426     486   17170    7686+
+           3497    3498   10093    3499
CTETRA      7316       1   17133     361     426     486   10016    3120+
+           7686   10093    6071    3499
CTETRA      7317       1   17133     362     361     486   10091    2711+
+          10016   10093   10092    6071
CTETRA      7318       1   17956     362   17133     486    8581   10091+
+          17180    9384   10092   10093
CTETRA      7319       1   17913   16958   16973     683   17007   17066+
+          17068    6719   10094   10095
CTETRA      7320       1   16958     361   16973     683    2708    5047+
+          17066   10094    5060   10095
CTETRA      7321       1   16958     299     361     683    2375    7786+
+           2708   10094    7788    5060
CTETRA      7322       1   16958     359     299     683   10085    2714+
+           2375   10094   10086    7788
CTETRA      7323       1   17913     359   16958     683    2712   10085+
+          17007    6719   10086   10094
CTETRA      7324       1   11944     311     364     365    5709    2725+
+           5650   10096    2730    2729
CTETRA      7325       1   11944     312     311     365   10034    2445+
+           5709   10096   10035    2730
CTETRA      7326       1   17308     312   11944     365    5172   10034+
+          12058    5164   10035   10096
CTETRA      7327       1   17308   11944   11931     365   12058   12045+
+          12053    5164   10096   10097
CTETRA      7328       1   11931   11944     364     365   12045    5650+
+           5649   10097   10096    2729
CTETRA      7329       1   16981     360     487     358   10087   10089+
+          10098    2696   10088   10099
CTETRA      7330       1   17954   16981     487     358   17105   10098+
+           3501    9476    2696   10099
CTETRA      7331       1   17954   16981   16978     487   17105   17112+
+          17086    3501   10098   10100
CTETRA      7332       1   17915   16978   16981     487   17088   17112+
+          17102    8852   10100   10098
CTETRA      7333       1   17915   16981     360     487   17102   10087+
+           2731    8852   10098   10089
CTETRA      7334       1   17854   16391     149     371   16691    9823+
+           2765    2766   10101    2767
CTETRA      7335       1   16391      23     149     371    4113    6151+
+           9823   10101    6153    2767
CTETRA      7336       1   16221     371      23     270    6768    6153+
+           3561    2254   10102    3563
CTETRA      7337       1   17854     371   16221     270    2766    6768+
+          16281    5305   10102    2254
CTETRA      7338       1   16014     374     266    1151    2805    5872+
+           4891    9208   10103    9209
CTETRA      7339       1   17793     374   16014     717    2775    2805+
+          16192    5356   10104    5357
CTETRA      7340       1   17793   16364   16344     374   16595   16594+
+          16593    2775   10105   10106
CTETRA      7341       1   16344   16364     266     374   16594    2230+
+           7727   10106   10105    5872
CTETRA      7342       1   16344     374     266     375   10106    5872+
+           7727   10107    2778    4148
CTETRA      7343       1   17793     374   16344     375    2775   10106+
+          16593    2776    2778   10107
CTETRA      7344       1   17792   17793   16344     375   17814   16593+
+          16561    4517    2776   10107
CTETRA      7345       1   17792   16016     375     521   16187    4147+
+           4517    8396    3659   10108
CTETRA      7346       1   16016     266     375     521    4145    4148+
+           4147    3659    9355   10108
CTETRA      7347       1   17448     379   12723     677    7617   10109+
+          12806    5004    9434    7222
CTETRA      7348       1   17333   12723     378     379    7773    2807+
+           7674    9115   10109    2803
CTETRA      7349       1   12723     300     378     379    2808    2800+
+           2807   10109    2804    2803
CTETRA      7350       1   17448     300   12723     379    4494    2808+
+          12806    7617    2804   10109
CTETRA      7351       1   17790   16359     308     524   16566   10030+
+           3675    3676   10110    3677
CTETRA      7352       1   16359      82     308     524    8993    4150+
+          10030   10110    7731    3677
CTETRA      7353       1   16359      84      82     524    9726    1513+
+           8993   10110    9727    7731
CTETRA      7354       1   17790      84   16359     524    2810    9726+
+          16566    3676    9727   10110
CTETRA      7355       1   17558   14698     368     382   14944    3818+
+           3806    3807   10111    2848
CTETRA      7356       1   14698     175     368     382    7435    2846+
+           3818   10111    2849    2848
CTETRA      7357       1   17559     175   14698     382    1927    7435+
+          14940    7307    2849   10111
CTETRA      7358       1   17558   17559   14698     382   17579   14940+
+          14944    3807    7307   10111
CTETRA      7359       1   14697     210     135     384    5288    5257+
+           5393   10112    5259    5258
CTETRA      7360       1   14677     210   14697     384    2000    5288+
+          14932   10113    5259   10112
CTETRA      7361       1   14677   14697     169     384   14932    2889+
+           2887   10113   10112    2873
CTETRA      7362       1   14696     169   14697     384    2360    2889+
+          14931   10114    2873   10112
CTETRA      7363       1   14696   14697     135     384   14931    5393+
+           1686   10114   10112    5258
CTETRA      7364       1   14696     384     135     343   10114    5258+
+           1686   10115    2874    2633
CTETRA      7365       1   14696     169     384     343    2360    2873+
+          10114   10115    2875    2874
CTETRA      7366       1   14696     134     169     343    1683    2361+
+           2360   10115    2632    2875
CTETRA      7367       1   14696     135     134     343    1686    1685+
+           1683   10115    2633    2632
CTETRA      7368       1   17932   17129     840     835   17143   10116+
+           8844    6733    9685    8843
CTETRA      7369       1   17932   17129      74     840   17143    9693+
+           1479    8844   10116    9695
CTETRA      7370       1   17129      69      74     840    9659    9655+
+           9693   10116    9660    9695
CTETRA      7371       1   17962      69   17129     840    1466    9659+
+          17144    6757    9660   10116
CTETRA      7372       1   17962     840   17129     831    6757   10116+
+          17144    6712    6758    9686
CTETRA      7373       1   16769      70      71     386    9661    1472+
+           9672   10117    2891    6711
CTETRA      7374       1   16769      69      70     386    9214    1469+
+           9661   10117    2892    2891
CTETRA      7375       1   16769     840      69     386    9694    9660+
+           9214   10117    6756    2892
CTETRA      7376       1   16769   16778     840     386   16801   10118+
+           9694   10117   10119    6756
CTETRA      7377       1   16769      71   16778     386    9672    9674+
+          16801   10117    6711   10119
CTETRA      7378       1   13643      20   13644     387    3904    1508+
+          14538   10120    2894   10121
CTETRA      7379       1   18046   13643   13644     387   14542   14538+
+          14543    8304   10120   10121
CTETRA      7380       1   18046   13644   13645     387   14543   14549+
+          14548    8304   10121   10122
CTETRA      7381       1   13644      20   13645     387    1508    3900+
+          14549   10121    2894   10122
CTETRA      7382       1   13643      20     387     388    3904    2894+
+          10120   10123    2898    2897
CTETRA      7383       1   16765     388      20     389    5733    2898+
+           3889    2906   10124    7754
CTETRA      7384       1   18045     388   16765     389    2904    5733+
+          16856    9008   10124    2906
CTETRA      7385       1   18045   13643   18046     388   14541   14542+
+          18059    2904   10123    2905
CTETRA      7386       1   18046   13643     387     388   14542   10120+
+           8304    2905   10123    2897
CTETRA      7387       1   18045   13379   13643     389   13700   14540+
+          14541    9008   10125   10126
CTETRA      7388       1   18045   13643     388     389   14541   10123+
+           2904    9008   10126   10124
CTETRA      7389       1   13643      20     388     389    3904    2898+
+          10123   10126    7754   10124
CTETRA      7390       1   13643     141      20     389    3907    3906+
+           3904   10126    2907    7754
CTETRA      7391       1   13379     141   13643     389    8978    3907+
+          14540   10125    2907   10126
CTETRA      7392       1   18045   13379     389     390   13700   10125+
+           9008    9009   10127    2910
CTETRA      7393       1   13379     141     389     390    8978    2907+
+          10125   10127    2911    2910
CTETRA      7394       1   16764     390     141    1067    9166    2911+
+           7797    8468   10128    8469
CTETRA      7395       1   18044     390   16764    1067    9165    9166+
+          16817    9478   10128    8468
CTETRA      7396       1   18044   13379   18045     390   13699   13700+
+          18054    9165   10127    9009
CTETRA      7397       1   17244   17245   11776     396   17254   11872+
+          11871    5990    4949   10129
CTETRA      7398       1   17244   11581     396     767   11636    5991+
+           5990    9396    9395   10130
CTETRA      7399       1   11581      94     396     767    8057    8886+
+           5991    9395    9126   10130
CTETRA      7400       1   11776      95      94     396    1564    1563+
+           1561   10129    2952    8886
CTETRA      7401       1   11776   11777      95     396   11877    7845+
+           1564   10129   10131    2952
CTETRA      7402       1   17245   11777   11776     396   11879   11877+
+          11872    4949   10131   10129
CTETRA      7403       1   17245   11777     396     397   11879   10131+
+           4949    4950   10132    2954
CTETRA      7404       1   11777      95     396     397    7845    2952+
+          10131   10132    2955    2954
CTETRA      7405       1   11777      97      95     397    4366    1570+
+           7845   10132    6042    2955
CTETRA      7406       1   17991     397      97    1144    5913    6042+
+           2998    9123   10133    9124
CTETRA      7407       1   17991   17245     397    1144   11639    4950+
+           5913    9123    9439   10133
CTETRA      7408       1   11979   11980     394     398   12206    5067+
+           6110   10134    4770    5570
CTETRA      7409       1   13162     398     394    1193    5569    5570+
+           5568   10135   10136   10137
CTETRA      7410       1   17280   13162   18086     398   13197   13198+
+          17286    2957    5569    4769
CTETRA      7411       1   17280   11980   11979     398   12205   12206+
+          12202    2957    4770   10134
CTETRA      7412       1   11979     398     394     399   10134    5570+
+           6110   10138    2960    2968
CTETRA      7413       1   17280     398   11979     399    2957   10134+
+          12202    2958    2960   10138
CTETRA      7414       1   17280   11979   17281     399   12202   12201+
+          17285    2958   10138    5069
CTETRA      7415       1   17281   11979     232     399   12201    2962+
+           2961    5069   10138    2967
CTETRA      7416       1   11979     394     232     399    6110    2930+
+           2962   10138    2968    2967
CTETRA      7417       1   18014   13435      98     400   13811    9752+
+           6869    8855   10139    8859
CTETRA      7418       1   13435      95      98     400    1581    1575+
+           9752   10139    2971    8859
CTETRA      7419       1   13435      94      95     400    1578    1563+
+           1581   10139    2972    2971
CTETRA      7420       1   13430      94   13435     400    8827    1578+
+          13812   10140    2972   10139
CTETRA      7421       1   18014   13430   13435     400   13806   13812+
+          13811    8855   10140   10139
CTETRA      7422       1   12614     402     793     794    2985   10141+
+           6431    6433    7659    6434
CTETRA      7423       1   11994     102   12006     402    5682    7871+
+          12288   10142    9174   10143
CTETRA      7424       1   17356   11994   12006     402   12245   12288+
+          12289    2984   10142   10143
CTETRA      7425       1   17356   12614     402     793   12658    2985+
+           2984    8690    6431   10141
CTETRA      7426       1   12005   12006     102     793   12287    7871+
+           6940   10144   10145   10146
CTETRA      7427       1   12006     402     102     793   10143    9174+
+           7871   10145   10141   10146
CTETRA      7428       1   17356     402   12006     793    2984   10143+
+          12289    8690   10141   10145
CTETRA      7429       1   17356   12006   17357     793   12289   12290+
+          17370    8690   10145    8691
CTETRA      7430       1   17357   12006   12005     793   12290   12287+
+          12292    8691   10145   10144
CTETRA      7431       1   12005     793     102     403   10144   10146+
+           6940   10147    6432    9249
CTETRA      7432       1   17357     793   12005     403    8691   10144+
+          12292    2987    6432   10147
CTETRA      7433       1   17357   12606     403     823   12647    2988+
+           2987    8686    6652   10148
CTETRA      7434       1   12606     102     403     823    2087    9249+
+           2988    6652    8462   10148
CTETRA      7435       1   12005     102     646     823    6940    5686+
+           6942   10149    8462    6651
CTETRA      7436       1   12005     403     102     823   10147    9249+
+           6940   10149   10148    8462
CTETRA      7437       1   17357     403   12005     823    2987   10147+
+          12292    8686   10148   10149
CTETRA      7438       1   17357   12005   12004     823   12292   12285+
+          12291    8686   10149   10150
CTETRA      7439       1   12004   12005     646     823   12285    6942+
+           4634   10150   10149    6651
CTETRA      7440       1   11565     401     404     552    6056    2993+
+           6057    3915    8402   10151
CTETRA      7441       1   13451      97     401     404    2973    2977+
+           2976   10152    2994    2993
CTETRA      7442       1   13432      97   13451     404    1567    2973+
+          13890   10153    2994   10152
CTETRA      7443       1   18115   13432   13451     404   13809   13890+
+          13893    8197   10153   10152
CTETRA      7444       1   18115   11565     404     552   11617    6057+
+           8197    3913    3915   10151
CTETRA      7445       1   11775     401      97     405    2997    2977+
+           2979   10154    3002    3001
CTETRA      7446       1   11774     401   11775     405    7949    2997+
+          11868   10155    3002   10154
CTETRA      7447       1   18087   11774   11775     405   11870   11868+
+          11880    9412   10155   10154
CTETRA      7448       1   18087   11775   11777     405   11880   11878+
+          11881    9412   10154   10156
CTETRA      7449       1   11775      97   11777     405    2979    4366+
+          11878   10154    3001   10156
CTETRA      7450       1   11774     401     405     406    7949    3002+
+          10155   10157    3005    3004
CTETRA      7451       1   11574     406     401     298    3097    3005+
+           7948   10080   10158    8282
CTETRA      7452       1   17237   11774     406     298   11869   10157+
+           3095   10159    2365   10158
CTETRA      7453       1   18087   17237   11774     406   17246   11869+
+          11870    3096    3095   10157
CTETRA      7454       1   18087   11774     405     406   11870   10155+
+           9412    3096   10157    3004
CTETRA      7455       1   16361      56      55     407    1417    1416+
+           1415   10160    4533    3009
CTETRA      7456       1   16219     407      56    1150    4536    4533+
+           4535    9195   10161    9334
CTETRA      7457       1   17851     407   16219    1150    8985    4536+
+          16268    9194   10161    9195
CTETRA      7458       1   17850   17851   16361     407   17866   16581+
+          16579    3008    8985   10160
CTETRA      7459       1   17850   16361      55     407   16579    1415+
+           3006    3008   10160    3009
CTETRA      7460       1   16218      56      55     408    4532    1416+
+           3007   10162    9341    3013
CTETRA      7461       1   15610     408      56     955    4538    9341+
+           4529    7653   10163    8319
CTETRA      7462       1   17736     408   15610     955    4537    4538+
+          15893    7652   10163    7653
CTETRA      7463       1   17735   17736   16218     408   17745   16273+
+          16264    3012    4537   10162
CTETRA      7464       1   17735   16218      55     408   16264    3007+
+           3011    3012   10162    3013
CTETRA      7465       1   17734   17735   16210     409   17746   16260+
+          16256    7813    3021   10164
CTETRA      7466       1   17734   16210     519     409   16256    7242+
+           6237    7813   10164    7814
CTETRA      7467       1   16210      55     519     409    8352    6228+
+           7242   10164    3023    7814
CTETRA      7468       1   17735      55   16210     409    3011    8352+
+          16260    3021    3023   10164
CTETRA      7469       1   17590   15333     383     418   15456    9521+
+           9517    9516   10165    3071
CTETRA      7470       1   15333     221     383     418    3380    2854+
+           9521   10165    3072    3071
CTETRA      7471       1   17589     221   15333     418    3377    3380+
+          15445    3378    3072   10165
CTETRA      7472       1   17589   15333   17590     418   15445   15456+
+          17627    3378   10165    9516
CTETRA      7473       1   11942     126     312     419    4365    2446+
+          10033   10166    4665    3443
CTETRA      7474       1   12418     419     126     611    3076    4665+
+           2462    4361   10167    4362
CTETRA      7475       1   17307     419   12418     611    3074    3076+
+          12572    8675   10167    4361
CTETRA      7476       1   17307   11942     312     419   12055   10033+
+           3442    3074   10166    3443
CTETRA      7477       1   17306     315   11942     611    7683   10041+
+          12056    7684    4363   10168
CTETRA      7478       1   17306   11942   17307     611   12056   12055+
+          17310    7684   10168    8675
CTETRA      7479       1   17307   11942     419     611   12055   10166+
+           3074    8675   10168   10167
CTETRA      7480       1   11942     126     419     611    4365    4665+
+          10166   10168    4362   10167
CTETRA      7481       1   11942     315     126     611   10041    2465+
+           4365   10168    4363    4362
CTETRA      7482       1   15629   15631      83     429   15970    1542+
+           4894   10169   10170    7864
CTETRA      7483       1   16037     429      83      89    3137    7864+
+           1521    1544   10171    1545
CTETRA      7484       1   17676     429   16037      89    3135    3137+
+          16152    4520   10171    1544
CTETRA      7485       1   17676   15631   17677     429   15977   15971+
+          17706    3135   10170    7963
CTETRA      7486       1   17677   15631   15629     429   15971   15970+
+          15968    7963   10170   10169
CTETRA      7487       1   15617      82   15631      89    3640    1543+
+          15980   10172    1546   10173
CTETRA      7488       1   17676   15617   15631      89   15981   15980+
+          15977    4520   10172   10173
CTETRA      7489       1   17676   15631     429      89   15977   10170+
+           3135    4520   10173   10171
CTETRA      7490       1   15631      83     429      89    1542    7864+
+          10170   10173    1545   10171
CTETRA      7491       1   15631      82      83      89    1543    1510+
+           1542   10173    1546    1545
CTETRA      7492       1   15617      85      82     307    9731    1519+
+           3640   10174    3143    3142
CTETRA      7493       1   17675      85   15617     307    2432    9731+
+          15978    2418    3143   10174
CTETRA      7494       1   17675   16037     307     306   16153    2419+
+           2418    2415    2417   10175
CTETRA      7495       1   16037      82     307     306    1522    3142+
+           2419    2417    7866   10175
CTETRA      7496       1   14745     369     318     441    8350    4027+
+           4998   10176    3234    4028
CTETRA      7497       1   17557     369   14745     441    3231    8350+
+          15100    3232    3234   10176
CTETRA      7498       1   17556   17557   14745     441   17572   15100+
+          15102    4171    3232   10176
CTETRA      7499       1   17556   14745     318     441   15102    4998+
+           3251    4171   10176    4028
CTETRA      7500       1   13439     401     445     976    7946    8285+
+           3255    8277    8206   10177
CTETRA      7501       1   11505     401   11508     445    8280    8279+
+          11533    7829    8285   10178
CTETRA      7502       1   17193   11505   11508     445   11532   11533+
+          11530    3254    7829   10178
CTETRA      7503       1   17193   13439     445     976   13843    3255+
+           3254    8278    8277   10177
CTETRA      7504       1   17192   13660     976    1059   14614    9460+
+           8276    8633    8632   10179
CTETRA      7505       1   11566    1059     976     975    8419   10179+
+           7826    7824    8420    7825
CTETRA      7506       1   11565     976   11566    1190    8205    7826+
+          11587   10009   10180   10000
CTETRA      7507       1   11565     401     976    1173    6056    8206+
+           8205    9447    9449   10181
CTETRA      7508       1   11508     445     401     976   10178    8285+
+           8279   10182   10177    8206
CTETRA      7509       1   17193     445   11508     976    3254   10178+
+          11530    8278   10177   10182
CTETRA      7510       1   17192   17193   11508     976   17202   11530+
+          11531    8276    8278   10182
CTETRA      7511       1   18068   13395   13392     448   13674   13677+
+          13675    5477   10183   10184
CTETRA      7512       1   13392   13395     423     448   13677    6477+
+           6484   10184   10183    4068
CTETRA      7513       1   13395      34     423     448    7177    3304+
+           6477   10183    3271    4068
CTETRA      7514       1   13390      34   13395     448    7178    7177+
+          13669   10185    3271   10183
CTETRA      7515       1   18068   13390   13395     448   13672   13669+
+          13674    5477   10185   10183
CTETRA      7516       1   18068   13390     448     449   13672   10185+
+           5477    5478   10186    3274
CTETRA      7517       1   13390      34     448     449    7178    3271+
+          10185   10186    3275    3274
CTETRA      7518       1   16861     449      34     452    5763    3275+
+           3292    3290   10187    3291
CTETRA      7519       1   18069     449   16861     452    8566    5763+
+          16949    5479   10187    3290
CTETRA      7520       1   18068   18069   13390     449   18072   13673+
+          13672    5478    8566   10186
CTETRA      7521       1   16870     450      34     665   10188    8088+
+           5471    4805   10189    5766
CTETRA      7522       1   16870      35      34     450    8077    1342+
+           5471   10188    3277    8088
CTETRA      7523       1   16869      35   16870     450    6873    8077+
+          16884   10190    3277   10188
CTETRA      7524       1   16869     450   16870     664   10190   10188+
+          16884    8966   10191    4802
CTETRA      7525       1   16870     664     450     665    4802   10191+
+          10188    4805    4804   10189
CTETRA      7526       1   16869      35     450     451    6873    3277+
+          10190   10192    3280    3279
CTETRA      7527       1   16869      35     451     852    6873    3280+
+          10192    6874    6876   10193
CTETRA      7528       1   16869     451    1013     852   10192   10194+
+           8073    6874   10193    8076
CTETRA      7529       1   16869     451     450    1013   10192    3279+
+          10190    8073   10194   10195
CTETRA      7530       1   13390   13412      34     452   13773    1339+
+           7178   10196   10197    3291
CTETRA      7531       1   18069   13412   13390     452   13772   13773+
+          13673    5479   10197   10196
CTETRA      7532       1   18069   13390     449     452   13673   10186+
+           8566    5479   10196   10187
CTETRA      7533       1   13390      34     449     452    7178    3275+
+          10186   10196    3291   10187
CTETRA      7534       1   13412      34     452     453    1339    3291+
+          10197   10198    3295    3294
CTETRA      7535       1   13412      35      34     453    1340    1342+
+           1339   10198    6475    3295
CTETRA      7536       1   16860     453      35     757    8550    6475+
+           5899    5900   10199    5901
CTETRA      7537       1   18070     453   16860     757    8078    8550+
+          16951    8071   10199    5900
CTETRA      7538       1   18069   18070   13412     453   18079   13774+
+          13772    5480    8078   10198
CTETRA      7539       1   18069   13412     452     453   13772   10197+
+           5479    5480   10198    3294
CTETRA      7540       1   12013     339     456     457    2612    3311+
+          10056   10200    3315    3314
CTETRA      7541       1   12407     457     339     925    5157    3315+
+           5137    7439   10201    7440
CTETRA      7542       1   17296     457   12407     925    5156    5157+
+          12594    9183   10201    7439
CTETRA      7543       1   17296   12013     456     457   12377   10056+
+           6053    5156   10200    3314
CTETRA      7544       1   12618     458     460     890    6092    3320+
+           9105    7132    7134   10202
CTETRA      7545       1   12753     459     458     460    7581    3317+
+           7122   10203    3321    3320
CTETRA      7546       1   12749     459   12753     460    7086    7581+
+          12949   10204    3321   10203
CTETRA      7547       1   17468   12749   12753     460   12938   12949+
+          12947    7646   10204   10203
CTETRA      7548       1   17467   17468   12753     460   17490   12947+
+          12948    8481    7646   10203
CTETRA      7549       1   17467   12618     460     890   12685    9105+
+           8481    8879    7132   10202
CTETRA      7550       1   17412   12740   12741     463   12957   12915+
+          12956    6044   10205   10206
CTETRA      7551       1   17412   12428     463     728   12539    8664+
+           6044    9270    5534   10207
CTETRA      7552       1   12428     335     463     728    5796    3332+
+           8664    5534    6043   10207
CTETRA      7553       1   12740     335   12741     463    4992    7642+
+          12915   10205    3332   10206
CTETRA      7554       1   17412   12740     463     464   12957   10205+
+           6044    6045   10208    3335
CTETRA      7555       1   12740     335     463     464    4992    3332+
+          10205   10208    3336    3335
CTETRA      7556       1   12740     454     335     464    4993    4994+
+           4992   10208    6671    3336
CTETRA      7557       1   12430     464     454     943    6672    6671+
+           6669    7558   10209    7559
CTETRA      7558       1   17413     464   12430     943    7571    6672+
+          12542    9264   10209    7558
CTETRA      7559       1   17412   17413   12740     464   17433   12989+
+          12957    6045    7571   10208
CTETRA      7560       1   17292   12008   11998     466   12303   12304+
+          12296    4352   10210   10211
CTETRA      7561       1   17292   11998   17293     466   12296   12295+
+          17322    4352   10211    4353
CTETRA      7562       1   17293   12405     466     605   12597    3346+
+           4353    8248    4319   10212
CTETRA      7563       1   12405     100     466     605    3026    3347+
+           3346    4319    4318   10212
CTETRA      7564       1   11998   12008     100     466   12304    6614+
+           6974   10211   10210    3347
CTETRA      7565       1   17293   11998   11981     605   12295   12259+
+          12297    8248   10213   10214
CTETRA      7566       1   11981   11998     100     605   12259    6974+
+           6616   10214   10213    4318
CTETRA      7567       1   11998     466     100     605   10211    3347+
+           6974   10213   10212    4318
CTETRA      7568       1   17293     466   11998     605    4353   10211+
+          12295    8248   10212   10213
CTETRA      7569       1   17671     467   16042     879    9141    3880+
+          16162    7044   10215    7045
CTETRA      7570       1   17671   15612   17672     467   15905   15907+
+          17704    9141   10216    3353
CTETRA      7571       1   17672   15612   15602     467   15907   15908+
+          15900    3353   10216   10217
CTETRA      7572       1   15602   15612      59     467   15908    7499+
+           1535   10217   10216    6209
CTETRA      7573       1   15612      14      59     467    3404    6208+
+           7499   10216    3879    6209
CTETRA      7574       1   16042     467      14     879    3880    3879+
+           3878    7045   10215    7665
CTETRA      7575       1   17672     467   15602     468    3353   10217+
+          15900    3354    3356   10218
CTETRA      7576       1   17672   16040     468    1046   16159    8192+
+           3354    8327    8326   10219
CTETRA      7577       1   16040      59     468    1046    2020    6210+
+           8192    8326    8329   10219
CTETRA      7578       1   15602     467      59     468   10217    6209+
+           1535   10218    3356    6210
CTETRA      7579       1   17633     221   15332     470    2054    3379+
+          15437    3392    3386   10220
CTETRA      7580       1   17632   17633   15332     470   17656   15437+
+          15436    6037    3392   10220
CTETRA      7581       1   17632   15332     223     470   15436    7938+
+           6036    6037   10220    3385
CTETRA      7582       1   15332     221     223     470    3379    3382+
+           7938   10220    3386    3385
CTETRA      7583       1   13581     318     369     473    6229    4027+
+           3402   10221    6929    3407
CTETRA      7584       1   17512     318   13581     473    6927    6229+
+          14331    6928    6929   10221
CTETRA      7585       1   17512   13581   17513     473   14331   14330+
+          17535    6928   10221    3406
CTETRA      7586       1   17513   13581     369     473   14330    3402+
+           3405    3406   10221    3407
CTETRA      7587       1   11578     474    1169    1094    8270   10222+
+           9418    8636   10223    9420
CTETRA      7588       1   17233   11779   11784     474   11885   11920+
+          11919    3416   10224   10225
CTETRA      7589       1   17233   13167     474    1038   13225    3417+
+           3416    9416    9415   10226
CTETRA      7590       1   11578    1038     474    1040    8262   10226+
+           8270    8268   10227    8269
CTETRA      7591       1   17232    1038     960     997    8258   10228+
+           9242    7973    8260    9244
CTETRA      7592       1   11578    1038   11579     960    8262    8261+
+          11600    7710   10228    7711
CTETRA      7593       1   11578     474    1038    1169    8270   10226+
+           8262    9418   10222   10229
CTETRA      7594       1   17233     474   11784    1038    3416   10225+
+          11919    9416   10226   10230
CTETRA      7595       1   17232   17233   11784    1038   17236   11919+
+          11918    8258    9416   10230
CTETRA      7596       1   17557   17558   14642     475   17570   14942+
+          14943    8685    8072   10231
CTETRA      7597       1   17557   14642     369     475   14943    2743+
+           3231    8685   10231    3430
CTETRA      7598       1   14642     368     369     475    2740    2744+
+           2743   10231    3431    3430
CTETRA      7599       1   17558     368   14642     475    3806    2740+
+          14942    8072    3431   10231
CTETRA      7600       1   12420     476     364     689    3433    9283+
+           2726    5166   10232    7311
CTETRA      7601       1   17308     476   12420     689    3434    3433+
+          12567    5165   10232    5166
CTETRA      7602       1   18091   17308   11931     476   17309   12053+
+          12054    5162    3434   10233
CTETRA      7603       1   18091   11931   11989     476   12054   12218+
+          12216    5162   10233   10234
CTETRA      7604       1   11931     547   11989     476    6058    6060+
+          12218   10233    5659   10234
CTETRA      7605       1   11931     364     547     476    5649    5653+
+           6058   10233    9283    5659
CTETRA      7606       1   11931     365     364     689   10097    2729+
+           5649   10235    5167    7311
CTETRA      7607       1   17308     365   11931     689    5164   10097+
+          12053    5165    5167   10235
CTETRA      7608       1   17308   11931     476     689   12053   10233+
+           3434    5165   10235   10232
CTETRA      7609       1   11931     364     476     689    5649    9283+
+          10233   10235    7311   10232
CTETRA      7610       1   17598     477   15344     478    7399    7401+
+          15509    8659    3452   10236
CTETRA      7611       1   17598   15344   17599     478   15509   15501+
+          17614    8659   10236    8656
CTETRA      7612       1   17599   15344     363     478   15501    3437+
+           3444    8656   10236    3451
CTETRA      7613       1   15344     477     363     478    7401    3449+
+           3437   10236    3452    3451
CTETRA      7614       1   15344     363     477     479    3437    3449+
+           7401   10237    3456    7391
CTETRA      7615       1   17643     363   15344     479    3435    3437+
+          15502    3454    3456   10237
CTETRA      7616       1   17642   17643   15344     479   17646   15502+
+          15503    7390    3454   10237
CTETRA      7617       1   17642   15344     477     479   15503    7401+
+           7389    7390   10237    7391
CTETRA      7618       1   17263   11756   11782     480   11793   11913+
+          11903    8213    6139   10238
CTETRA      7619       1   17263   11675     480     484   11730    3473+
+           8213    8915    3477   10239
CTETRA      7620       1   11675     280     480     484    3471    3460+
+           3473    3477    7218   10239
CTETRA      7621       1   17330     280   11782     480    3459    6253+
+          11906    3461    3460   10238
CTETRA      7622       1   17330   11782   11756     480   11906   11913+
+          11791    3461   10238    6139
CTETRA      7623       1   11676     481      86    1090   10240    5895+
+           5392    8611   10241    9401
CTETRA      7624       1   11676     280      86     481    3472    4938+
+           5392   10240    3463    5895
CTETRA      7625       1   11676     480     280     481    3474    3460+
+           3472   10240    3464    3463
CTETRA      7626       1   11676     480     481    1090    3474    3464+
+          10240    8611    9402   10241
CTETRA      7627       1   11782     278      39     484    6251    3475+
+           9630   10242    3479    3478
CTETRA      7628       1   11782     280     278     484    6253    6252+
+           6251   10242    7218    3479
CTETRA      7629       1   11782     480     280     484   10238    3460+
+           6253   10242   10239    7218
CTETRA      7630       1   17263     480   11782     484    8213   10238+
+          11903    8915   10239   10242
CTETRA      7631       1   17262   17263   11782     484   17272   11903+
+          11902    4040    8915   10242
CTETRA      7632       1   17262   11782      39     484   11902    9630+
+           1351    4040   10242    3478
CTETRA      7633       1   13396     161     485    1049    8305    7011+
+           7103   10243   10244   10245
CTETRA      7634       1   16961     165     161     485    1807    1809+
+           1806   10246    3489    7011
CTETRA      7635       1   16961     350     165     485    7001    3486+
+           1807   10246    3490    3489
CTETRA      7636       1   16961     422     350     485    7000    3125+
+           7001   10246    7104    3490
CTETRA      7637       1   13396     485     422    1049    7103    7104+
+           4360   10243   10245    8343
CTETRA      7638       1   17954     487   16978     488    3501   10100+
+          17086    3503    3502   10247
CTETRA      7639       1   17954     488   16978    1162    3503   10247+
+          17086    9323   10248    9324
CTETRA      7640       1   16978     488     122    1162   10247    9800+
+           9792    9324   10248    9793
CTETRA      7641       1   17916     122   16978     488    9153    9792+
+          17087    7108    9800   10247
CTETRA      7642       1   17915   17916   16978     488   17925   17087+
+          17088    7106    7108   10247
CTETRA      7643       1   17915   16978     487     488   17088   10100+
+           8852    7106   10247    3502
CTETRA      7644       1   16875     489     487    1069   10249    3505+
+           8853    8483   10250   10090
CTETRA      7645       1   16875     488     487     489    7107    3502+
+           8853   10249    3506    3505
CTETRA      7646       1   16875     488     489    1186    7107    3506+
+          10249    9801    9803   10251
CTETRA      7647       1   16875     489    1069    1186   10249   10250+
+           8483    9801   10251   10252
CTETRA      7648       1   13479     178     491     492    3525    3528+
+           3517   10253    3520    5458
CTETRA      7649       1   17517     178   13479     492    3760    3525+
+          13981    3761    3520   10253
CTETRA      7650       1   17517   13479   17518     492   13981   13982+
+          17545    3761   10253    5457
CTETRA      7651       1   17518   13479     491     492   13982    3517+
+           3516    5457   10253    5458
CTETRA      7652       1   16355     304     302    1047   10026    2406+
+           2394   10254   10027    8604
CTETRA      7653       1   17845     304   16355    1047    3538   10026+
+          16545    8333   10027   10254
CTETRA      7654       1   17845   16355   16351    1047   16545   16543+
+          16541    8333   10254   10255
CTETRA      7655       1   16351   16355     302    1047   16543    2394+
+           3537   10255   10254    8604
CTETRA      7656       1   11938   11967     495     498   12141    7248+
+           7247   10256   10257    3547
CTETRA      7657       1   17303   11967   11938     498   12142   12141+
+          12066    8831   10257   10256
CTETRA      7658       1   17303   11938   17304     498   12066   12065+
+          17312    8831   10256    8504
CTETRA      7659       1   17304   12416     498    1101   12575    8505+
+           8504    9184    8702   10258
CTETRA      7660       1   12416     494     498    1101    7612    3546+
+           8505    8702    8701   10258
CTETRA      7661       1   11938     495     494     498    7247    3532+
+           8500   10256    3547    3546
CTETRA      7662       1   12416     500     494     933    7578    3558+
+           7612    7491   10259    8703
CTETRA      7663       1   17305     500   12416     933    7443    7578+
+          12576    7490   10259    7491
CTETRA      7664       1   17305   11945   11953     500   12092   12095+
+          12077    7443   10260   10261
CTETRA      7665       1   11945     127   11953     500    6703    6069+
+          12095   10260    3557   10261
CTETRA      7666       1   11945     494     127     500    6702    3549+
+           6703   10260    3558    3557
CTETRA      7667       1   17740   17741   16222     501   17747   16290+
+          16289    8221    5743   10262
CTETRA      7668       1   17740   16222   16221     501   16289   16288+
+          16285    8221   10262   10263
CTETRA      7669       1   16221   16222      23     501   16288    5740+
+           3561   10263   10262    3564
CTETRA      7670       1   16222      24      23     501    2195    1283+
+           5740   10262    5744    3564
CTETRA      7671       1   17741      24   16222     501    2256    2195+
+          16290    5743    5744   10262
CTETRA      7672       1   17740     501   16221     502    8221   10263+
+          16285    8222    3568   10264
CTETRA      7673       1   17740   15607     502     504   15876    3575+
+           8222    8795    3576   10265
CTETRA      7674       1   15607      23     502     504    2756    3567+
+           3575    3576    5300   10265
CTETRA      7675       1   16221     501      23     502   10263    3564+
+           3561   10264    3568    3567
CTETRA      7676       1   12706   12769     127     503   13009    4701+
+           7682   10266   10267    3571
CTETRA      7677       1   17420   12769   12706     503   13008   13009+
+          13007    5579   10267   10266
CTETRA      7678       1   17420   12436     503     829   12555    7673+
+           5579    8871    6693   10268
CTETRA      7679       1   12436     494     503     829    6692    3570+
+           7673    6693    6695   10268
CTETRA      7680       1   12706     127     494     503    7682    3549+
+           7675   10266    3571    3570
CTETRA      7681       1   17739   17740   16221     504   17748   16285+
+          16284    3577    8795   10269
CTETRA      7682       1   17739   16221   16220     504   16284   16283+
+          16280    3577   10269   10270
CTETRA      7683       1   16220   16221      23     504   16283    3561+
+           6152   10270   10269    5300
CTETRA      7684       1   16221     502      23     504   10264    3567+
+           3561   10269   10265    5300
CTETRA      7685       1   17740     502   16221     504    8222   10264+
+          16285    8795   10265   10269
CTETRA      7686       1   17739     504   16220     505    3577   10270+
+          16280    3578    3580   10271
CTETRA      7687       1   17739   15608     505     965   15882    5297+
+           3578    7744    7743   10272
CTETRA      7688       1   15608     144     505     965    5296    5298+
+           5297    7743    8346   10272
CTETRA      7689       1   16220      23     144     505    6152    2757+
+           1734   10271    5301    5298
CTETRA      7690       1   16220     504      23     505   10270    5300+
+           6152   10271    3580    5301
CTETRA      7691       1   16403     220      13     506    4653    5292+
+           6241   10273    5295    3582
CTETRA      7692       1   17858     220   16403     506    4651    4653+
+          16739    5294    5295   10273
CTETRA      7693       1   17857   17858   16403     506   17873   16739+
+          16740    8375    5294   10273
CTETRA      7694       1   17857   16223     506     769   16292    4085+
+           8375    8374    6160   10274
CTETRA      7695       1   16223     506     769     574    4085   10274+
+           6160    4086    4088   10275
CTETRA      7696       1   16403      13      24     506    6241    1295+
+           6347   10273    3582   10276
CTETRA      7697       1   15348     393     667     509    2926    6845+
+           7394   10277    3593    6854
CTETRA      7698       1   17596     393   15348     509    2924    2926+
+          15531    3591    3593   10277
CTETRA      7699       1   17596   15348   17597     509   15531   15521+
+          17622    3591   10277    3729
CTETRA      7700       1   17597   15348     667     509   15521    7394+
+           6817    3729   10277    6854
CTETRA      7701       1   17596   15349     393     392   15528    2925+
+           2924    2922   10278    3595
CTETRA      7702       1   15349     392     508    1004   10278    3596+
+           3759   10279    8012    9280
CTETRA      7703       1   17595     508   15349     392    3731    3759+
+          15527    2921    3596   10278
CTETRA      7704       1   17595   15349   17596     392   15527   15528+
+          17621    2921   10278    2922
CTETRA      7705       1   17730   16213   16211     510   16239   16238+
+          16227    8330   10280   10281
CTETRA      7706       1   17729   17730   16211     510   17754   16227+
+          16226    5799    8330   10281
CTETRA      7707       1   17729   16211   16212     510   16226   16230+
+          16233    5799   10281   10282
CTETRA      7708       1   16211     512   16212     510    4451    7078+
+          16230   10281    7074   10282
CTETRA      7709       1   16211     302     512     510    4453    4452+
+           4451   10281    3599    7074
CTETRA      7710       1   16211   16213     302     510   16238    2402+
+           4453   10281   10280    3599
CTETRA      7711       1   17730   16213     510     511   16239   10280+
+           8330    6512   10283    3602
CTETRA      7712       1   16213     302     510     511    2402    3599+
+          10280   10283    3603    3602
CTETRA      7713       1   15624     511     302     807    6513    3603+
+           8351    6519   10284    9879
CTETRA      7714       1   17730     511   15624     807    6512    6513+
+          15943    6518   10284    6519
CTETRA      7715       1   17635   17636   15334     513   17654   15452+
+          15458    8182    7201   10285
CTETRA      7716       1   17635   15334     483     513   15458    9526+
+           7932    8182   10285    3611
CTETRA      7717       1   15334     482     483     513    7175    3470+
+           9526   10285    3612    3611
CTETRA      7718       1   17636     482   15334     513    7200    7175+
+          15452    7201    3612   10285
CTETRA      7719       1   11963     342     300     514    2816    2819+
+           2813   10286    3626    8621
CTETRA      7720       1   11963     378     342     514    2812    3414+
+           2816   10286    3627    3626
CTETRA      7721       1   11963     300     378     514    2813    2800+
+           2812   10286    8621    3627
CTETRA      7722       1   15611       9      14     516    1241    1286+
+           1257   10287    8387    8307
CTETRA      7723       1   15589       9   15611     516    1242    1241+
+          15909   10288    8387   10287
CTETRA      7724       1   17670   15589   15611     516   15831   15909+
+          15906    3635   10288   10287
CTETRA      7725       1   17670   16042     516     878   16163    3636+
+           3635    8233    7042   10289
CTETRA      7726       1   16042      14     516     878    3878    8307+
+           3636    7042    7664   10289
CTETRA      7727       1   17671   15611   15612     878   15904   15902+
+          15905    7043   10290   10291
CTETRA      7728       1   15611      14   15612     878    1257    3404+
+          15902   10290    7664   10291
CTETRA      7729       1   15611     516      14     878   10287    8307+
+           1257   10290   10289    7664
CTETRA      7730       1   17670     516   15611     878    3635   10287+
+          15906    8233   10289   10290
CTETRA      7731       1   17670   15611   17671     878   15906   15904+
+          17703    8233   10290    7043
CTETRA      7732       1   17789     517   16311     518    9493   10032+
+          16571    8517    3645   10292
CTETRA      7733       1   17788   17789   16311     518   17810   16571+
+          16716    8516    8517   10292
CTETRA      7734       1   17788   16311     215     518   16716    9884+
+           6543    8516   10292    9886
CTETRA      7735       1   16311      58     215     518    1423    2035+
+           9884   10292    3644    9886
CTETRA      7736       1   16311     517      58     518   10032    3641+
+           1423   10292    3645    3644
CTETRA      7737       1   17792   16344   16345     521   16561   16519+
+          16560    8396   10293   10294
CTETRA      7738       1   16344      83   16345     521    7726    7214+
+          16519   10293    3658   10294
CTETRA      7739       1   16344     266      83     521    7727    4896+
+           7726   10293    9355    3658
CTETRA      7740       1   16344     375     266     521   10107    4148+
+           7727   10293   10108    9355
CTETRA      7741       1   17792     375   16344     521    4517   10107+
+          16561    8396   10108   10293
CTETRA      7742       1   17792     521   16345     522    8396   10294+
+          16560    8397    3662   10295
CTETRA      7743       1   17791   17792   16345     522   17813   16560+
+          16564    3671    8397   10295
CTETRA      7744       1   17791   16017     522     627   16185    3672+
+           3671    6250    4512   10296
CTETRA      7745       1   16017      83     522     627    1511    3661+
+           3672    4512    4514   10296
CTETRA      7746       1   16345     521      83     522   10294    3658+
+           7214   10295    3662    3661
CTETRA      7747       1   17791   16345      84     627   16564    9728+
+           6249    6250   10297    4513
CTETRA      7748       1   16345      83      84     627    7214    1514+
+           9728   10297    4514    4513
CTETRA      7749       1   16345     522      83     627   10295    3661+
+           7214   10297   10296    4514
CTETRA      7750       1   17791     522   16345     627    3671   10295+
+          16564    6250   10296   10297
CTETRA      7751       1   16036     525     266     714    4162    3680+
+           4149    5334   10298    5335
CTETRA      7752       1   17677     525   16036     714    4161    4162+
+          16150    8996   10298    5334
CTETRA      7753       1   17677   15629   17678     525   15968   15969+
+          17705    4161   10299    4163
CTETRA      7754       1   17678   15629   15539     525   15969   15993+
+          15725    4163   10299   10300
CTETRA      7755       1   15539   15629     266     525   15993    2786+
+           2785   10300   10299    3680
CTETRA      7756       1   15539     525     266     526   10300    3680+
+           2785   10301    3684    3683
CTETRA      7757       1   17678     525   15539     526    4163   10300+
+          15725    4892    3684   10301
CTETRA      7758       1   17678   16034     526     752   16147    4893+
+           4892    5869    5871   10302
CTETRA      7759       1   16034     266     526     752    4890    3683+
+           4893    5871    8815   10302
CTETRA      7760       1   17595   15347     508     529   15518    3758+
+           3731    3733   10303    3734
CTETRA      7761       1   15347     529     531     533   10303    6820+
+           5304    3764   10304    3803
CTETRA      7762       1   17594     531   15347     529    5302    5304+
+          15517    6819    6820   10303
CTETRA      7763       1   17594   15347   17595     529   15517   15518+
+          17620    6819   10303    3733
CTETRA      7764       1   14653     178     176     535    6332    1851+
+           1857   10305    3771    9014
CTETRA      7765       1   17561     178   14653     535    3768    6332+
+          14798    3769    3771   10305
CTETRA      7766       1   17560   17561   14653     535   17580   14798+
+          14799    9015    3769   10305
CTETRA      7767       1   17560   14653     176     535   14799    1857+
+           1856    9015   10305    9014
CTETRA      7768       1   18109   15323   15321     536   15401   15400+
+          15395    8137   10306   10307
CTETRA      7769       1   18109   15321     352     536   15395    7018+
+           4603    8137   10307    3773
CTETRA      7770       1   15321      41     352     536    4253    2668+
+           7018   10307    3774    3773
CTETRA      7771       1   15321   15323      41     536   15400    8652+
+           4253   10307   10306    3774
CTETRA      7772       1   15345     531     541     542    5303    4121+
+           8096   10308    4123    3823
CTETRA      7773       1   17638     531   15345     542    3801    5303+
+          15514    5299    4123   10308
CTETRA      7774       1   17637   17638   15345     542   17651   15514+
+          15505    3822    5299   10308
CTETRA      7775       1   17637   15345     541     542   15505    8096+
+           3820    3822   10308    3823
CTETRA      7776       1   13475     368     175     543    3836    2846+
+           7436   10309    3833    8065
CTETRA      7777       1   17514     368   13475     543    3811    3836+
+          13964    3831    3833   10309
CTETRA      7778       1   17514   13475   17515     543   13964   13963+
+          17546    3831   10309    7873
CTETRA      7779       1   17515   13475     175     543   13963    7436+
+           1929    7873   10309    8065
CTETRA      7780       1   17671     878   15612     879    7043   10291+
+          15905    7044    7046   10310
CTETRA      7781       1   17671   15612     467     879   15905   10216+
+           9141    7044   10310   10215
CTETRA      7782       1   15612      14     467     879    3404    3879+
+          10216   10310    7665   10215
CTETRA      7783       1   15612     878      14     879   10291    7664+
+           3404   10310    7046    7665
CTETRA      7784       1   13396     548     161    1049   10311    6319+
+           8305   10243   10312   10244
CTETRA      7785       1   13396     163     161     548    3874    6317+
+           8305   10311    6320    6319
CTETRA      7786       1   17829     548     163     708    3886    6320+
+           1788    5268   10313    9529
CTETRA      7787       1   17829    1049     548     708    8344   10312+
+           3886    5268    8345   10313
CTETRA      7788       1   16961     161     548    1049    1806    6319+
+           3887   10314   10244   10312
CTETRA      7789       1   16961     485     161    1049   10246    7011+
+           1806   10314   10245   10244
CTETRA      7790       1   16961     422     485    1049    7000    7104+
+          10246   10314    8343   10245
CTETRA      7791       1   17829     422   16961    1049    3099    7000+
+          17045    8344    8343   10314
CTETRA      7792       1   17829   16961     548    1049   17045    3887+
+           3886    8344   10314   10312
CTETRA      7793       1   13394     163   13396     708    3875    3874+
+          13690   10315    9529   10316
CTETRA      7794       1   13394   13396     422     708   13690    4360+
+           7580   10315   10316    5267
CTETRA      7795       1   13396    1049     422     708   10243    8343+
+           4360   10316    8345    5267
CTETRA      7796       1   13396     548    1049     708   10311   10312+
+          10243   10316   10313    8345
CTETRA      7797       1   13396     163     548     708    3874    6320+
+          10311   10316    9529   10313
CTETRA      7798       1   13645     387      20     550   10122    2894+
+           3900   10317    3899    3898
CTETRA      7799       1   18046     387   13645     550    8304   10122+
+          14548    8308    3899   10317
CTETRA      7800       1   18046   16767     550     496   16855    8309+
+           8308    6011    3536   10318
CTETRA      7801       1   16767      20     550     496    7738    3898+
+           8309    3536   10319   10318
CTETRA      7802       1   17522   13525   13427     555   14133   14134+
+          13921    6887   10320   10321
CTETRA      7803       1   13427   13525     210     555   14134    6889+
+           8003   10321   10320    3929
CTETRA      7804       1   17521     210   13525     555    2005    6889+
+          14131    3927    3929   10320
CTETRA      7805       1   17521   13525   17522     555   14131   14133+
+          17540    3927   10320    6887
CTETRA      7806       1   14673     210     213     556    1999    2010+
+           7695   10322    3932    3931
CTETRA      7807       1   17565     210   14673     556    5495    1999+
+          14834    6863    3932   10322
CTETRA      7808       1   17564   17565   14673     556   17575   14834+
+          14833    6862    6863   10322
CTETRA      7809       1   17564   14673     213     556   14833    7695+
+           7689    6862   10322    3931
CTETRA      7810       1   13171     655     559     560   10323    4957+
+           3954   10324    4724    6904
CTETRA      7811       1   13162     655   13171     560   10325   10323+
+          13243   10326    4724   10324
CTETRA      7812       1   18086   13162   13171     560   13198   13243+
+          13248    3955   10326   10324
CTETRA      7813       1   18086   13171   13169     560   13248   13247+
+          13242    3955   10324   10327
CTETRA      7814       1   13169   13171     559     560   13247    3954+
+           3953   10327   10324    6904
CTETRA      7815       1   13162     655     560     561   10325    4724+
+          10326   10328    4726    3958
CTETRA      7816       1   13162     394     655     561    5568    4717+
+          10325   10328    5464    4726
CTETRA      7817       1   11980     561     394    1193    5121    5464+
+           5067   10329   10330   10137
CTETRA      7818       1   18086     561   11980    1193    3957    5121+
+          12207   10331   10330   10329
CTETRA      7819       1   13162     561     560    1193   10328    3958+
+          10326   10135   10330   10332
CTETRA      7820       1   11995     425     411     562    3114    3116+
+           3038   10333    6622    3977
CTETRA      7821       1   11995     246     425     562    9927    6621+
+           3114   10333    9928    6622
CTETRA      7822       1   17360     246   11995     562    2153    9927+
+          12270    8721    9928   10333
CTETRA      7823       1   17360   11995   17361     562   12270   12273+
+          17367    8721   10333    3976
CTETRA      7824       1   17361   11995     411     562   12273    3038+
+           3037    3976   10333    3977
CTETRA      7825       1   18094   17392   15328     563   17394   15423+
+          15425    7863    9171   10334
CTETRA      7826       1   18094   15328   17495     563   15425   15424+
+          17503    7863   10334    3980
CTETRA      7827       1   17495   15328     558     563   15424    3973+
+           3979    3980   10334    3981
CTETRA      7828       1   17392     558   15328     563    6705    3973+
+          15423    9171    3981   10334
CTETRA      7829       1   12799     146     412     564    7256    7097+
+           3984   10335    7688    5674
CTETRA      7830       1   17478     146   12799     564    1762    7256+
+          13135    7591    7688   10335
CTETRA      7831       1   17477   17478   12799     564   17479   13135+
+          13136    7590    7591   10335
CTETRA      7832       1   17477   12609     564    1168   12635    3989+
+           7590    9427    9410   10336
CTETRA      7833       1   12609     411     564    1168    3986    3990+
+           3989    9410    9409   10336
CTETRA      7834       1   12799     412     411     564    3984    3043+
+           3985   10335    5674    3990
CTETRA      7835       1   17476   17477   12799    1168   17481   13136+
+          13142    9408    9427   10337
CTETRA      7836       1   17476   12799     411    1168   13142    3985+
+           3047    9408   10337    9409
CTETRA      7837       1   12799     564     411    1168   10335    3990+
+           3985   10337   10336    9409
CTETRA      7838       1   17477     564   12799    1168    7590   10335+
+          13136    9427   10336   10337
CTETRA      7839       1   12010     412     154     567    3041    7098+
+           9829   10338    7167    6566
CTETRA      7840       1   12010     411     412     567    3039    3043+
+           3041   10338    7908    7167
CTETRA      7841       1   12609     567     411    1102    4004    7908+
+           3986    8726   10339    8728
CTETRA      7842       1   17362     567   12609    1102    4002    4004+
+          12631    8725   10339    8726
CTETRA      7843       1   17362   12010     154     567   12313    9829+
+           6565    4002   10338    6566
CTETRA      7844       1   17361     411   12010    1102    3037    3039+
+          12311    8724    8728   10340
CTETRA      7845       1   17361   12010   17362    1102   12311   12313+
+          17373    8724   10340    8725
CTETRA      7846       1   17362   12010     567    1102   12313   10338+
+           4002    8725   10340   10339
CTETRA      7847       1   12010     411     567    1102    3039    7908+
+          10338   10340    8728   10339
CTETRA      7848       1   18089   15342   15324     569   15492   15490+
+          15405    4464   10341   10342
CTETRA      7849       1   18089   15324     568     569   15405    8167+
+           5354    4464   10342    4020
CTETRA      7850       1   15324     346     568     569    9523    4018+
+           8167   10342    4021    4020
CTETRA      7851       1   15324   15342     346     569   15490   10064+
+           9523   10342   10341    4021
CTETRA      7852       1   11510     189     635     571    7296    5563+
+          10343   10344    5567    5566
CTETRA      7853       1   13440     571     189    1143    4049    5567+
+           7407    9117   10345    9118
CTETRA      7854       1   17196     571   13440    1143    4047    4049+
+          13850    9399   10345    9117
CTETRA      7855       1   17196   11510   11509     571   11544   11546+
+          11543    4047   10344   10346
CTETRA      7856       1   11509   11510     635     571   11546   10343+
+          10347   10346   10344    5566
CTETRA      7857       1   17197     189   11510    1143    5465    7296+
+          11545    9116    9118   10348
CTETRA      7858       1   17196   17197   11510    1143   17206   11545+
+          11544    9399    9116   10348
CTETRA      7859       1   17196   11510     571    1143   11544   10344+
+           4047    9399   10348   10345
CTETRA      7860       1   11510     189     571    1143    7296    5567+
+          10344   10348    9118   10345
CTETRA      7861       1   18068     448   13392     572    5477   10184+
+          13675    5486    4071   10349
CTETRA      7862       1   18068   16863     572     725   16948    7655+
+           5486    8968    5494   10350
CTETRA      7863       1   16863     423     572     725    6494    4070+
+           7655    5494    6496   10350
CTETRA      7864       1   13392     448     423     572   10184    4068+
+           6484   10349    4071    4070
CTETRA      7865       1   16403     506      24     769   10273   10276+
+           6347   10351   10274    6159
CTETRA      7866       1   17857     506   16403     769    8375   10273+
+          16740    8374   10274   10351
CTETRA      7867       1   17856   17857   16403     769   17872   16740+
+          16746    6158    8374   10351
CTETRA      7868       1   17856   16403      24     769   16746    6347+
+           2194    6158   10351    6159
CTETRA      7869       1   11932     462   12012     575    4109    8718+
+          12319   10352    4096   10353
CTETRA      7870       1   17283   11932   12012     575   12318   12319+
+          12321    7345   10352   10353
CTETRA      7871       1   18090   17283   12012     575   17288   12321+
+          12322    7344    7345   10353
CTETRA      7872       1   18090   17389     575     958   17390    4095+
+           7344    7702    7701   10354
CTETRA      7873       1   17389     462     575     958    4093    4096+
+           4095    7701    8705   10354
CTETRA      7874       1   12012     462   12028     958    8718    9442+
+          12379   10355    8705   10356
CTETRA      7875       1   12012     575     462     958   10353    4096+
+           8718   10355   10354    8705
CTETRA      7876       1   18090     575   12012     958    7344   10353+
+          12322    7702   10354   10355
CTETRA      7877       1   18090   12012   12028     958   12322   12379+
+          12378    7702   10355   10356
CTETRA      7878       1   11932     462     575     576    4109    4096+
+          10352   10357    9161    7557
CTETRA      7879       1   11932     243     462     576    2168    4107+
+           4109   10357    4102    9161
CTETRA      7880       1   13165     576     243     909    4100    4102+
+           4099    7299   10358    7300
CTETRA      7881       1   17283     576   13165     909    7556    4100+
+          13214    7623   10358    7299
CTETRA      7882       1   17283   11932     575     576   12318   10352+
+           7345    7556   10357    7557
CTETRA      7883       1   11932     243     576     909    2168    4102+
+          10357   10359    7300   10358
CTETRA      7884       1   17282     243   11932     909    2166    2168+
+          12182    7298    7300   10359
CTETRA      7885       1   17282   11932   17283     909   12182   12318+
+          17287    7298   10359    7623
CTETRA      7886       1   17283   11932     576     909   12318   10357+
+           7556    7623   10359   10358
CTETRA      7887       1   16317     166   16339     577    4824    4471+
+          16484   10360    4879   10361
CTETRA      7888       1   17777   16317   16339     577   16488   16484+
+          16486    4295   10360   10361
CTETRA      7889       1   17776   17777   16339     577   17781   16486+
+          16487    4128    4295   10361
CTETRA      7890       1   17776   16339   16322     577   16487   16491+
+          16492    4128   10361   10362
CTETRA      7891       1   15580     577     917     918   10363   10364+
+           7367    7369   10365    7370
CTETRA      7892       1   15580     166     577     918    1811    4879+
+          10363    7369    7935   10365
CTETRA      7893       1   15580     577     264     917   10363    4131+
+          10366    7367   10364   10367
CTETRA      7894       1   17776     577   16322     264    4128   10362+
+          16492    4129    4131    2222
CTETRA      7895       1   17775   13189   17776     264   13335   13338+
+          17780    2221    4462    4129
CTETRA      7896       1   16322     264     287     265    2222    4290+
+           4683    2225    2224    6483
CTETRA      7897       1   15580     264     287     917   10366    4290+
+           7120    7367   10367    9012
CTETRA      7898       1   15629     429      83     714   10169    7864+
+           4894   10368    7865    5336
CTETRA      7899       1   17677     429   15629     714    7963   10169+
+          15968    8996    7865   10368
CTETRA      7900       1   17677   15629     525     714   15968   10299+
+           4161    8996   10368   10298
CTETRA      7901       1   15629     266     525     714    2786    3680+
+          10299   10368    5335   10298
CTETRA      7902       1   15629      83     266     714    4894    4896+
+           2786   10368    5336    5335
CTETRA      7903       1   17680   16032     582     810   16143    5846+
+           8210    7021    6540   10369
CTETRA      7904       1   16032     162     582     810    5845    4189+
+           5846    6540    6542   10369
CTETRA      7905       1   15570     156     162     582    4239    4182+
+           4236   10370    4190    4189
CTETRA      7906       1   15563     156   15570     582    5875    4239+
+          15754   10371    4190   10370
CTETRA      7907       1   17680   15563   15570     582   15727   15754+
+          15753    8210   10371   10370
CTETRA      7908       1   18089   15340   15342     584   15487   15493+
+          15492    7264   10372   10373
CTETRA      7909       1   15340     105   15342     584    4110    4112+
+          15493   10372    4201   10373
CTETRA      7910       1   15340     584      86     583   10372    7260+
+           4931    4198   10374    5422
CTETRA      7911       1   18089      86   15340     584    4933    4931+
+          15487    7264    7260   10372
CTETRA      7912       1   18089     584   15342     585    7264   10373+
+          15492    4465    4205   10375
CTETRA      7913       1   18089   15342     569     585   15492   10341+
+           4464    4465   10375    4227
CTETRA      7914       1   15342     346     569     585   10064    4021+
+          10341   10375    4228    4227
CTETRA      7915       1   15342     105     346     585    4112    5753+
+          10064   10375    4204    4228
CTETRA      7916       1   15342     584     105     585   10373    4201+
+           4112   10375    4205    4204
CTETRA      7917       1   11766   11767     678     589   11833    9634+
+           9633   10376   10377    5024
CTETRA      7918       1   11766     588   11767     589    5222    5224+
+          11833   10376    4222   10377
CTETRA      7919       1   11766     278     588     589    7381    4219+
+           5222   10376    4223    4222
CTETRA      7920       1   11766     678     278     589    9633    5022+
+           7381   10376    5024    4223
CTETRA      7921       1   18030   13438   13419     590   13838   13840+
+          13836    9122   10378   10379
CTETRA      7922       1   18030   13419     279     590   13836    9972+
+           6007    9122   10379    9973
CTETRA      7923       1   13419     278     279     590    6257    2291+
+           9972   10379    4231    9973
CTETRA      7924       1   13419   13438     278     590   13840    6258+
+           6257   10379   10378    4231
CTETRA      7925       1   18030   13438     590     591   13838   10378+
+           9122    8817   10380    4233
CTETRA      7926       1   13438     278     590     591    6258    4231+
+          10378   10380    4234    4233
CTETRA      7927       1   13438     588     278     591    6246    4219+
+           6258   10380    5039    4234
CTETRA      7928       1   11664     591     588     867    7406    5039+
+           6446    6967   10381    7362
CTETRA      7929       1   18029     591   11664     867    8816    7406+
+          11746    6966   10381    6967
CTETRA      7930       1   18029   13438   18030     591   13839   13838+
+          18039    8816   10380    8817
CTETRA      7931       1   17710     642     592     643    4614   10382+
+           8148    4617    4616   10383
CTETRA      7932       1   17586   15313   15330     592   15429   15428+
+          15430    4240   10384   10385
CTETRA      7933       1   17586   13387     592     554   13775    4612+
+           4240    3923    3925   10386
CTETRA      7934       1   13387     226     592     554    4274    8140+
+           4612    3925    8800   10386
CTETRA      7935       1   17710     592     226     643    8148    8140+
+           2108    4617   10383    4947
CTETRA      7936       1   17710     593     592     642    5917    4243+
+           8148    4614   10387   10382
CTETRA      7937       1   17710      41     593     642    5918    5904+
+           5917    4614    8150   10387
CTETRA      7938       1   17585      41   15313     593    4252    4254+
+          15389    5903    5904   10388
CTETRA      7939       1   17585   15313   17586     593   15389   15429+
+          17611    5903   10388    4242
CTETRA      7940       1   17586   15313     592     593   15429   10384+
+           4240    4242   10388    4243
CTETRA      7941       1   17682   15569   15571     594   15759   15751+
+          15755    8135   10389   10390
CTETRA      7942       1   17682   16030     594     982   16139    7968+
+           8135    8136    7855   10391
CTETRA      7943       1   16030     173     594     982    4312    4250+
+           7968    7855    8336   10391
CTETRA      7944       1   15571     172     173     594    8819    1832+
+           4303   10390    4251    4250
CTETRA      7945       1   15569     172   15571     594    4237    8819+
+          15751   10389    4251   10390
CTETRA      7946       1   17798   16323   16331     595   16440   16441+
+          16442    9358   10392   10393
CTETRA      7947       1   16323     173   16331     595    6198    6551+
+          16441   10392    4259   10393
CTETRA      7948       1   16323      92     173     595    6197    4256+
+           6198   10392    4260    4259
CTETRA      7949       1   16009     595      92     622    7967    4260+
+           4482    4480   10394    4481
CTETRA      7950       1   17798     595   16009     622    9358    7967+
+          16202    9497   10394    4480
CTETRA      7951       1   13387     598     226     597    4275    4277+
+           4274    4272   10395    8799
CTETRA      7952       1   17587     598   13387     597    4289    4275+
+          13778    4271   10395    4272
CTETRA      7953       1   17587   15331   17588     598   15435   15439+
+          17629    4289   10396    4508
CTETRA      7954       1   17588   15331     223     598   15439    7937+
+           2061    4508   10396    6035
CTETRA      7955       1   15331     226     223     598   10070    2654+
+           7937   10396    4277    6035
CTETRA      7956       1   15331     226     598     597   10070    4277+
+          10396   10397    8799   10395
CTETRA      7957       1   15330     226   15331     597   10071   10070+
+          15433   10398    8799   10397
CTETRA      7958       1   17587   15330   15331     597   15434   15433+
+          15435    4271   10398   10397
CTETRA      7959       1   17587   15331     598     597   15435   10396+
+           4289    4271   10397   10395
CTETRA      7960       1   14777     234     332     599    9921    2733+
+           3159   10399    4284    6298
CTETRA      7961       1   14777     223     234     599    2091    4282+
+           9921   10399    4285    4284
CTETRA      7962       1   14777     282     223     599    3161    6031+
+           2091   10399    9351    4285
CTETRA      7963       1   14777     332     282     599    3159    3162+
+           3161   10399    6298    9351
CTETRA      7964       1   16322     287     264     917    4683    4290+
+           2222   10400    9012   10367
CTETRA      7965       1   16322     314     287     917    4681    4684+
+           4683   10400    7368    9012
CTETRA      7966       1   16322   16339     314     917   16491    8399+
+           4681   10400   10401    7368
CTETRA      7967       1   16322     577   16339     917   10362   10361+
+          16491   10400   10364   10401
CTETRA      7968       1   16322     264     577     917    2222    4131+
+          10362   10400   10367   10364
CTETRA      7969       1   15580     264     577     600   10366    4131+
+          10363   10402    4293    4881
CTETRA      7970       1   15580     287     264     600    7120    4290+
+          10366   10402    4294    4293
CTETRA      7971       1   15580   15583     287     600   15807    7740+
+           7120   10402   10403    4294
CTETRA      7972       1   17661   15583   15580     600   15805   15807+
+          15785    5960   10403   10402
CTETRA      7973       1   17661   15580   17662     600   15785   15784+
+          17665    5960   10402    5961
CTETRA      7974       1   17662   15580     166     600   15784    1811+
+           7934    5961   10402    4880
CTETRA      7975       1   15580     577     166     600   10363    4879+
+           1811   10402    4881    4880
CTETRA      7976       1   16317     166     577     601    4824    4879+
+          10360   10404    7936    4297
CTETRA      7977       1   13190     601     166     668    4461    7936+
+           4901    4826   10405    7966
CTETRA      7978       1   17777     601   13190     668    4296    4461+
+          13342    4825   10405    4826
CTETRA      7979       1   17777   16317     577     601   16488   10360+
+           4295    4296   10404    4297
CTETRA      7980       1   15583     287     600     602    7740    4294+
+          10403   10406    6473    8219
CTETRA      7981       1   13189     602     287     803    4301    6473+
+           4463    6480   10407    6481
CTETRA      7982       1   17661     602   13189     803    4299    4301+
+          13330    9352   10407    6480
CTETRA      7983       1   17661   15583     600     602   15805   10403+
+           5960    4299   10406    8219
CTETRA      7984       1   17660   15583   17661     803   15806   15805+
+          17664    6479   10408    9352
CTETRA      7985       1   17661   15583     602     803   15805   10406+
+           4299    9352   10408   10407
CTETRA      7986       1   15583     287     602     803    7740    6473+
+          10406   10408    6481   10407
CTETRA      7987       1   17660     287   15583     803    6478    7740+
+          15806    6479    6481   10408
CTETRA      7988       1   17381     442   11939     604    5697    3235+
+          12032    8683    5702   10409
CTETRA      7989       1   17381   11939   17382     604   12032   12033+
+          17384    8683   10409    4315
CTETRA      7990       1   17382   11939     443     604   12033    3238+
+           4313    4315   10409    4316
CTETRA      7991       1   11939     442     443     604    3235    3239+
+           3238   10409    5702    4316
CTETRA      7992       1   17293     605   11981     472    8248   10214+
+          12297    3393    4321   10410
CTETRA      7993       1   17293   11981   17294     472   12297   12399+
+          17329    3393   10410    3394
CTETRA      7994       1   17294   12406     472     927   12595    6403+
+           3394    8650    7448   10411
CTETRA      7995       1   12406      99     472     927    5153    6404+
+           6403    7448    7450   10411
CTETRA      7996       1   11981     100      99     472    6616    1583+
+           4676   10410    4320    6404
CTETRA      7997       1   11981     605     100     472   10214    4318+
+           6616   10410    4321    4320
CTETRA      7998       1   11989     476     547     606   10234    5659+
+           6060   10412    5163    4328
CTETRA      7999       1   18091     476   11989     606    5162   10234+
+          12216    5158    5163   10412
CTETRA      8000       1   18091   11989   17289     606   12216   12217+
+          17320    5158   10412    5159
CTETRA      8001       1   17289   12401     606    1157   12520    4327+
+           5159    9285    9284   10413
CTETRA      8002       1   12401     547     606    1157    4324    4328+
+           4327    9284    9435   10413
CTETRA      8003       1   11989     547     471    1157    6060    5607+
+           9211   10414    9435    9330
CTETRA      8004       1   11989     606     547    1157   10412    4328+
+           6060   10414   10413    9435
CTETRA      8005       1   17289     606   11989    1157    5159   10412+
+          12217    9285   10413   10414
CTETRA      8006       1   17289   11989   11985    1157   12217   12234+
+          12226    9285   10414   10415
CTETRA      8007       1   11985   11989     471    1157   12234    9211+
+           7250   10415   10414    9330
CTETRA      8008       1   17405   12794   12793     238   13122   13123+
+          13120    5641    9441   10416
CTETRA      8009       1   17405   12421     238     690   12525    4331+
+           5641    6423    5177   10417
CTETRA      8010       1   12421     471     238     690    4329    4332+
+           4331    5177    5176   10417
CTETRA      8011       1   12793   12794     471     238   13123    5633+
+           5632   10416    9441    4332
CTETRA      8012       1   12764   12793     471     690   13119    5632+
+           5605   10418   10419    5176
CTETRA      8013       1   12793     238     471     690   10416    4332+
+           5632   10419   10417    5176
CTETRA      8014       1   17405     238   12793     690    5641   10416+
+          13120    6423   10417   10419
CTETRA      8015       1   17404   17405   12793     690   17425   13120+
+          13118    6422    6423   10419
CTETRA      8016       1   17404   12793   12764     690   13118   13119+
+          13025    6422   10419   10418
CTETRA      8017       1   17292   12008     466     608   12303   10210+
+           4352    8495   10420    4345
CTETRA      8018       1   12008     100     466     608    6614    3347+
+          10210   10420    4346    4345
CTETRA      8019       1   12008     241     100     608    6615    3369+
+           6614   10420    8245    4346
CTETRA      8020       1   12403     608     241     827    8496    8245+
+           4343    6686   10421    6687
CTETRA      8021       1   17292     608   12403     827    8495    8496+
+          12602    8432   10421    6686
CTETRA      8022       1   17291   12007   12008     609   12300   12298+
+          12301    4354   10422   10423
CTETRA      8023       1   12007     241   12008     609    3388    6615+
+          12298   10422    4731   10423
CTETRA      8024       1   12402     609     241     990    4356    4731+
+           4342    7915   10424    9319
CTETRA      8025       1   17291     609   12402     990    4354    4356+
+          12604    8732   10424    7915
CTETRA      8026       1   17290   11985   12007     990   12227   12305+
+          12302    7953   10425   10426
CTETRA      8027       1   17290   12007   17291     990   12302   12300+
+          17323    7953   10426    8732
CTETRA      8028       1   17291   12007     609     990   12300   10422+
+           4354    8732   10426   10424
CTETRA      8029       1   12007     241     609     990    3388    4731+
+          10422   10426    9319   10424
CTETRA      8030       1   12007     471     241     990    3389    3391+
+           3388   10426    7916    9319
CTETRA      8031       1   11985     471   12007     990    7250    3389+
+          12305   10425    7916   10426
CTETRA      8032       1   17216     401   11505     612    6865    8280+
+          11515    9411    6205   10427
CTETRA      8033       1   17215   17216   11505     612   17219   11515+
+          11514    4376    9411   10427
CTETRA      8034       1   17215   11760     612     977   11810    4369+
+           4376    7831    7830   10428
CTETRA      8035       1   11760     319     612     977    4367    4370+
+           4369    7830    8622   10428
CTETRA      8036       1   11505     401     319     612    8280    6203+
+          10429   10427    6205    4370
CTETRA      8037       1   11504   11505     319     977   11518   10429+
+          10430   10431   10432    8622
CTETRA      8038       1   11505     612     319     977   10427    4370+
+          10429   10432   10428    8622
CTETRA      8039       1   17215     612   11505     977    4376   10427+
+          11514    7831   10428   10432
CTETRA      8040       1   17215   11505   11504     977   11514   11518+
+          11519    7831   10432   10431
CTETRA      8041       1   17214   11504   11509     613   11540   11541+
+          11538    5711   10433   10434
CTETRA      8042       1   11504     319   11509     613   10430   10435+
+          11541   10433    4375   10434
CTETRA      8043       1   11760     613     319     978    4373    4375+
+           4367    7833   10436    8623
CTETRA      8044       1   17214     613   11760     978    5711    4373+
+          11809    8617   10436    7833
CTETRA      8045       1   11504     977     319     978   10431    8622+
+          10430   10437    7834    8623
CTETRA      8046       1   17215     977   11504     978    7831   10431+
+          11519    7832    7834   10437
CTETRA      8047       1   17214   17215   11504     978   17224   11519+
+          11540    8617    7832   10437
CTETRA      8048       1   17214   11504     613     978   11540   10433+
+           5711    8617   10437   10436
CTETRA      8049       1   11504     319     613     978   10430    4375+
+          10433   10437    8623   10436
CTETRA      8050       1   16780     616     798     912    6462    6461+
+           6451    7332   10438    8423
CTETRA      8051       1   16780   16781     616     912   16811    8251+
+           6462    7332    8580   10438
CTETRA      8052       1   16781     326     616    1179    8231    4400+
+           8251    9489    9488   10439
CTETRA      8053       1   17960     326   17130     616    4397    8029+
+          17148    4398    4400   10440
CTETRA      8054       1   17960   17130   17961     616   17148   17149+
+          17969    4398   10440    8384
CTETRA      8055       1   17961   16979     616    1055   17094    8385+
+           8384    8391    8393   10441
CTETRA      8056       1   17769     618     211     953    5198    7933+
+           2309    7636   10442    7637
CTETRA      8057       1   18105     618   17769     953    4432    5198+
+          17770    7645   10442    7636
CTETRA      8058       1   17778   18105   16362     618   17783   16590+
+          16588    4417    4432   10443
CTETRA      8059       1   17778   13190     618     669   13343    4418+
+           4417    4832    4831   10444
CTETRA      8060       1   13190     166     618     669    4901    4903+
+           4418    4831    7965   10444
CTETRA      8061       1   16362     211     166     618    2004    2237+
+           4843   10443    7933    4903
CTETRA      8062       1   16317   16362     166     669   16589    4843+
+           4824   10445   10446    7965
CTETRA      8063       1   16362     618     166     669   10443    4903+
+           4843   10446   10444    7965
CTETRA      8064       1   17778     618   16362     669    4417   10443+
+          16588    4832   10444   10446
CTETRA      8065       1   17778   16362   16317     669   16588   16589+
+          16587    4832   10446   10445
CTETRA      8066       1   16351     302     512     621    3537    4452+
+           7056   10447    4456    4455
CTETRA      8067       1   16351    1047     302     621   10255    8604+
+           3537   10447    8335    4456
CTETRA      8068       1   17845    1047   16351     621    8333   10255+
+          16541    8334    8335   10447
CTETRA      8069       1   17844   17845   16351     621   17861   16541+
+          16523    6514    8334   10447
CTETRA      8070       1   17844   16212     621     886   16228    6515+
+           6514    8744    7079   10448
CTETRA      8071       1   16212     512     621     886    7078    4455+
+           6515    7079    7081   10448
CTETRA      8072       1   17798   17799   16323     622   17820   16420+
+          16440    9497    8107   10449
CTETRA      8073       1   17798   16323     595     622   16440   10392+
+           9358    9497   10449   10394
CTETRA      8074       1   16323      92     595     622    6197    4260+
+          10392   10449    4481   10394
CTETRA      8075       1   16310      92   16323     622    4476    6197+
+          16418   10450    4481   10449
CTETRA      8076       1   17799   16310   16323     622   16419   16418+
+          16420    8107   10450   10449
CTETRA      8077       1   17799   16310     622     623   16419   10450+
+           8107    8108   10451    4484
CTETRA      8078       1   16310      92     622     623    4476    4481+
+          10450   10451    4485    4484
CTETRA      8079       1   16008     623      92     777    9185    4485+
+           5778    6194   10452    6195
CTETRA      8080       1   17799     623   16008     777    8108    9185+
+          16204    8969   10452    6194
CTETRA      8081       1   18071      42   13414     853    1361    9635+
+          13771    8080    9637   10453
CTETRA      8082       1   18070   18071   13414     853   18078   13771+
+          13770    8070    8080   10453
CTETRA      8083       1   18070   13414   13412     853   13770   13768+
+          13774    8070   10453   10454
CTETRA      8084       1   13412   13414     352     853   13768    4288+
+           4479   10454   10453    6877
CTETRA      8085       1   13414      42     352     853    9635    4489+
+           4288   10453    9637    6877
CTETRA      8086       1   17334     300     130     624    2801    2829+
+           2828   10455    4497    4496
CTETRA      8087       1   17334     379     300     624    2802    2804+
+           2801   10455    7618    4497
CTETRA      8088       1   17333     379   17334     624    9115    2802+
+          17342   10456    7618   10455
CTETRA      8089       1   17333   17334     130     624   17342    2828+
+           5951   10456   10455    4496
CTETRA      8090       1   16396     215      59     625    9885    2034+
+           2427   10457    8980    4506
CTETRA      8091       1   17788     215   16396     625    6543    9885+
+          16712    5324    8980   10457
CTETRA      8092       1   17787   17788   16396     625   17809   16712+
+          16711    4507    5324   10457
CTETRA      8093       1   17787   16021     625    1130   16177    4505+
+           4507    8998    8997   10458
CTETRA      8094       1   16021      59     625    1130    4503    4506+
+           4505    8997    9339   10458
CTETRA      8095       1   17787   16396   16389    1130   16711   16713+
+          16715    8998   10459   10460
CTETRA      8096       1   16389   16396      59    1130   16713    2427+
+           2036   10460   10459    9339
CTETRA      8097       1   16396     625      59    1130   10457    4506+
+           2427   10459   10458    9339
CTETRA      8098       1   17787     625   16396    1130    4507   10457+
+          16711    8998   10458   10459
CTETRA      8099       1   15536     211     284     626    2234    2312+
+           9978   10461    4877    4876
CTETRA      8100       1   15536     166     211     626    2235    2237+
+           2234   10461    5797    4877
CTETRA      8101       1   13190     626     166     993    4511    5797+
+           4901    7940   10462    7941
CTETRA      8102       1   17663     626   13190     993    4509    4511+
+          13346    7964   10462    7940
CTETRA      8103       1   17663   15536     284     626   15922    9978+
+           8603    4509   10461    4876
CTETRA      8104       1   15536     166     626     993    2235    5797+
+          10461   10463    7941   10462
CTETRA      8105       1   17662     166   15536     993    7934    2235+
+          15786    7939    7941   10463
CTETRA      8106       1   17662   15536   17663     993   15786   15922+
+          17666    7939   10463    7964
CTETRA      8107       1   17663   15536     626     993   15922   10461+
+           4509    7964   10463   10462
CTETRA      8108       1   17737     150   16219     628    4525    9826+
+          16271    4526    4528   10464
CTETRA      8109       1   17737   15610     628     748   15894    4530+
+           4526    5820    5819   10465
CTETRA      8110       1   15610      56     628     748    4529    4531+
+           4530    5819    8318   10465
CTETRA      8111       1   16219     150      56     628    9826    1742+
+           4535   10464    4528    4531
CTETRA      8112       1   17737     628   16219     748    4526   10464+
+          16271    5820   10465   10466
CTETRA      8113       1   17736   17737   16219     748   17750   16271+
+          16272    5818    5820   10466
CTETRA      8114       1   17736   16219   16218     748   16272   16274+
+          16273    5818   10466   10467
CTETRA      8115       1   16218   16219      56     748   16274    4535+
+           4532   10467   10466    8318
CTETRA      8116       1   16219     628      56     748   10464    4531+
+           4535   10466   10465    8318
CTETRA      8117       1   16361      56     407    1150    1417    4533+
+          10160   10468    9334   10161
CTETRA      8118       1   16313      56   16361    1150    7492    1417+
+          16582   10469    9334   10468
CTETRA      8119       1   17851   16313   16361    1150   16577   16582+
+          16581    9194   10469   10468
CTETRA      8120       1   17851   16361     407    1150   16581   10160+
+           8985    9194   10468   10161
CTETRA      8121       1   17736     748   16218     955    5818   10467+
+          16273    7652    7654   10470
CTETRA      8122       1   17736   16218     408     955   16273   10162+
+           4537    7652   10470   10163
CTETRA      8123       1   16218      56     408     955    4532    9341+
+          10162   10470    8319   10163
CTETRA      8124       1   16218     748      56     955   10467    8318+
+           4532   10470    7654    8319
CTETRA      8125       1   16383      46     630     631    6022    6016+
+           6021   10471    9346    4549
CTETRA      8126       1   16383   16384      46     631   16662    8563+
+           6022   10471   10472    9346
CTETRA      8127       1   17878   16384   16383     631   16661   16662+
+          16654    8434   10472   10471
CTETRA      8128       1   17877   17878   16383     631   17880   16654+
+          16653    4548    8434   10471
CTETRA      8129       1   17877   16383     630     631   16653    6021+
+           4546    4548   10471    4549
CTETRA      8130       1   15532     750     262     634    7861    5859+
+           2211   10473    5850    4573
CTETRA      8131       1   17760     750   15532     634    5848    7861+
+          15819    5849    5850   10473
CTETRA      8132       1   17760   15532   17761     634   15819   15641+
+          17766    5849   10473    4572
CTETRA      8133       1   17761   15532     262     634   15641    2211+
+           2210    4572   10473    4573
CTETRA      8134       1   15321     352      41     640    7018    2668+
+           4253   10474    6881    4601
CTETRA      8135       1   17584     352   15321     640    4286    7018+
+          15386    6880    6881   10474
CTETRA      8136       1   17584   15321   17585     640   15386   15388+
+          17608    6880   10474    4600
CTETRA      8137       1   17585   15321      41     640   15388    4253+
+           4252    4600   10474    4601
CTETRA      8138       1   18109   15323     536     641   15401   10306+
+           8137    7819   10475    5914
CTETRA      8139       1   15323      41     536     641    8652    3774+
+          10306   10475    4606    5914
CTETRA      8140       1   15323      40      41     641   10476    1355+
+           8652   10475    4607    4606
CTETRA      8141       1   15314      40   15323     641   10477   10476+
+          15396   10478    4607   10475
CTETRA      8142       1   18109   15314   15323     641   15351   15396+
+          15401    7819   10478   10475
CTETRA      8143       1   15313     592     593     642   10384    4243+
+          10388   10479   10382   10387
CTETRA      8144       1   15313   15330     592     642   15428   10385+
+          10384   10479   10480   10382
CTETRA      8145       1   18101   15330   15313     642   15426   15428+
+          15399    4613   10480   10479
CTETRA      8146       1   18101   15313   15323     642   15399   15398+
+          15397    4613   10479   10481
CTETRA      8147       1   15313      41   15323     642    4254    8652+
+          15398   10479    8150   10481
CTETRA      8148       1   15313     593      41     642   10388    5904+
+           4254   10479   10387    8150
CTETRA      8149       1   15330     592     642     643   10385   10382+
+          10480   10482   10383    4616
CTETRA      8150       1   15330     226     592     643   10071    8140+
+          10385   10482    4947   10383
CTETRA      8151       1   14778     643     226     994    4948    4947+
+           2653    7957   10483    7958
CTETRA      8152       1   18101     643   14778     994    4615    4948+
+          15312    8139   10483    7957
CTETRA      8153       1   18101   15330     642     643   15426   10480+
+           4613    4615   10482    4616
CTETRA      8154       1   14787     700    1133     644    9768    9770+
+           9836   10484    9769    9834
CTETRA      8155       1   14787     113     700     644    9169    5220+
+           9768   10484    4619    9769
CTETRA      8156       1   14753     113   14787     644    5877    9169+
+          15264   10485    4619   10484
CTETRA      8157       1   14753   14787    1133     644   15264    9836+
+           9835   10485   10484    9834
CTETRA      8158       1   14753     644    1133     645   10485    9834+
+           9835   10486    4621    9025
CTETRA      8159       1   14753     113     644     645    5877    4619+
+          10485   10486    4622    4621
CTETRA      8160       1   14753     619     113     645    5876    4423+
+           5877   10486    5221    4622
CTETRA      8161       1   13174     645     619    1131    9024    5221+
+           7224    9019   10487    9020
CTETRA      8162       1   13174    1133     645    1131    9026    9025+
+           9024    9019    9515   10487
CTETRA      8163       1   17977     637     647     773    8320    4642+
+           8592    6172    8321   10488
CTETRA      8164       1   16368       9     637     647    4648    4631+
+           4647   10489    4643    4642
CTETRA      8165       1   16368   16397       9     647   16723    7745+
+           4648   10489   10490    4643
CTETRA      8166       1   17784   16397   16368     647   16722   16723+
+          16629    8590   10490   10489
CTETRA      8167       1   17977     647   17784     773    8592    8590+
+          16172    6172   10488    7075
CTETRA      8168       1   16224     648      13     507   10491    8235+
+           3581    3584   10492    3585
CTETRA      8169       1   16224     220      13     648    5293    5292+
+           3581   10491    4661    8235
CTETRA      8170       1   17743     220   16224     648    4658    5293+
+          16300    4659    4661   10491
CTETRA      8171       1   17742   17743   16224     648   17752   16300+
+          16299    8386    4659   10491
CTETRA      8172       1   17742   15614     648     507   15917    9336+
+           8386   10493    6353   10492
CTETRA      8173       1   12437     127     652     729    3560    4703+
+           8707    5582    9191   10494
CTETRA      8174       1   12768     127   12769     652    4700    4701+
+          13011   10495    4703   10496
CTETRA      8175       1   17421   12768   12769     652   13005   13011+
+          13010    8678   10495   10496
CTETRA      8176       1   17421   12437     652     729   12557    8707+
+           8678    7083    5582   10494
CTETRA      8177       1   12768     127     652     653    4700    4703+
+          10495   10497    4707    4706
CTETRA      8178       1   12768     126     127     653    7718    1665+
+           4700   10497    7258    4707
CTETRA      8179       1   12439     653     126     726    6437    7258+
+           2451    5521   10498    6752
CTETRA      8180       1   17421     653   12439     726    6436    6437+
+          12559    5520   10498    5521
CTETRA      8181       1   17421   12768     652     653   13005   10495+
+           8678    6436   10497    4706
CTETRA      8182       1   12732     655     656     658    4720    7952+
+           4722    4758    4760   10499
CTETRA      8183       1   13162   13171     655     656   13243   10323+
+          10325   10500   10501    7952
CTETRA      8184       1   18095   13171   13162     656   13244   13243+
+          13240    4721   10501   10500
CTETRA      8185       1   18095   12732     656     658   12855    4722+
+           4721    8497    4758   10499
CTETRA      8186       1   13162     656     655     658   10500    7952+
+          10325   10502   10499    4760
CTETRA      8187       1   18095     656   13162     658    4721   10500+
+          13240    8497   10499   10502
CTETRA      8188       1   17395   18095   13162     658   17399   13240+
+          13202    6103    8497   10502
CTETRA      8189       1   17395   13162   13164     658   13202   13201+
+          13203    6103   10502   10503
CTETRA      8190       1   13162     394   13164     658    5568    2966+
+          13201   10502    4759   10503
CTETRA      8191       1   13162     655     394     658   10325    4717+
+           5568   10502    4760    4759
CTETRA      8192       1   13164     658     394     766   10503    4759+
+           2966   10504    6106    6111
CTETRA      8193       1   17395     658   13164     766    6103   10503+
+          13203    6104    6106   10504
CTETRA      8194       1   17395   13164     233     766   13203    9918+
+           5072    6104   10504    9919
CTETRA      8195       1   13164     394     233     766    2966    4754+
+           9918   10504    6111    9919
CTETRA      8196       1   13444     401     662    1042    3258    6206+
+           8595    8286    8288   10505
CTETRA      8197       1   11505     319     401     662   10429    6203+
+           8280   10506    4797    6206
CTETRA      8198       1   11504     319   11505     662   10430   10429+
+          11518   10507    4797   10506
CTETRA      8199       1   17194   11504   11505     662   11516   11518+
+          11520    7838   10507   10506
CTETRA      8200       1   13444     662     446    1042    8595   10508+
+           3265    8286   10505   10509
CTETRA      8201       1   11504     319     662     663   10430    4797+
+          10507   10510    4800    4799
CTETRA      8202       1   13442     663     319    1167    7427    4800+
+           2484    9393   10511    9407
CTETRA      8203       1   17195     663   13442    1167    7316    7427+
+          13858    9392   10511    9393
CTETRA      8204       1   17194   17195   11504     663   17200   11517+
+          11516    7315    7316   10510
CTETRA      8205       1   17194   11504     662     663   11516   10507+
+           7838    7315   10510    4799
CTETRA      8206       1   16975     450   16980     664    8967    4806+
+          17096   10512   10191   10513
CTETRA      8207       1   17910   16975   16980     664   17070   17096+
+          17098    4801   10512   10513
CTETRA      8208       1   17909   17910   16980     664   17919   17098+
+          17099    7505    4801   10513
CTETRA      8209       1   17909   16869     664    1013   16918    8966+
+           7505    8074    8073   10514
CTETRA      8210       1   16869     450     664    1013   10190   10191+
+           8966    8073   10195   10514
CTETRA      8211       1   16975     450     664     665    8967   10191+
+          10512   10515   10189    4804
CTETRA      8212       1   16975      34     450     665    3302    8088+
+           8967   10515    5766   10189
CTETRA      8213       1   16871     665      34     905    5767    5766+
+           5470    7276   10516    8792
CTETRA      8214       1   17910     665   16871     905    4803    5767+
+          16921    8557   10516    7276
CTETRA      8215       1   17910   16975     664     665   17070   10512+
+           4801    4803   10515    4804
CTETRA      8216       1   16980     450     451    1013    4806    3279+
+           4807   10517   10195   10194
CTETRA      8217       1   16980     664     450    1013   10513   10191+
+           4806   10517   10514   10195
CTETRA      8218       1   17909     664   16980    1013    7505   10513+
+          17099    8074   10514   10517
CTETRA      8219       1   17909   16980   16977    1013   17099   17100+
+          17089    8074   10517   10518
CTETRA      8220       1   16977   16980     451    1013   17100    4807+
+           6871   10518   10517   10194
CTETRA      8221       1   16339     917     577     918   10401   10364+
+          10361   10519    7370   10365
CTETRA      8222       1   16339     314     917     918    8399    7368+
+          10401   10519    7371    7370
CTETRA      8223       1   16339     166     314     918    4471    5864+
+           8399   10519    7935    7371
CTETRA      8224       1   16339     577     166     918   10361    4879+
+           4471   10519   10365    7935
CTETRA      8225       1   15539     266     156     752    2785    3909+
+           3908   10520    8815    7808
CTETRA      8226       1   15539     526     266     752   10301    3683+
+           2785   10520   10302    8815
CTETRA      8227       1   17678     526   15539     752    4892   10301+
+          15725    5869   10302   10520
CTETRA      8228       1   17678   15539   17679     752   15725   15724+
+          17695    5869   10520    5870
CTETRA      8229       1   17679   15539   15563     752   15724   15728+
+          15726    5870   10520   10521
CTETRA      8230       1   15539     156   15563     752    3908    5875+
+          15728   10520    7808   10521
CTETRA      8231       1   18089      86   11756     672    4933    5892+
+          11790    4934    4936   10522
CTETRA      8232       1   17275   18089   11756     672   17278   11790+
+          11789    9307    4934   10522
CTETRA      8233       1   11756     756     672    1172   10523   10524+
+          10522   10525    9445   10526
CTETRA      8234       1   17986   11677     672    1119   11735    6891+
+           9251    8897    8899   10527
CTETRA      8235       1   11677      86     672    1119    4923    4936+
+           6891    8899   10528   10527
CTETRA      8236       1   18032     275   13537     673    2281    9975+
+          14180    7913    7598   10529
CTETRA      8237       1   18032   13537   13538     673   14180   14186+
+          14185    7913   10529   10530
CTETRA      8238       1   13537      86   13538     673    7274    1525+
+          14186   10529    4940   10530
CTETRA      8239       1   13537     280      86     673    6350    4938+
+           7274   10529    4941    4940
CTETRA      8240       1   13537     275     280     673    9975    7597+
+           6350   10529    7598    4941
CTETRA      8241       1   17631     348   15330     994    8651   10069+
+          15427    8138    7959   10531
CTETRA      8242       1   17631   15330   18101     994   15427   15426+
+          17659    8138   10531    8139
CTETRA      8243       1   18101   15330     643     994   15426   10482+
+           4615    8139   10531   10483
CTETRA      8244       1   15330     226     643     994   10071    4947+
+          10482   10531    7958   10483
CTETRA      8245       1   15330     348     226     994   10069    2656+
+          10071   10531    7959    7958
CTETRA      8246       1   17523   13457   17524     675   13919   13922+
+          17538    6890   10532    6641
CTETRA      8247       1   17524   13457     559     675   13922    5117+
+           6640    6641   10532    4954
CTETRA      8248       1   13457     674     559     675    5118    4951+
+           5117   10532    4955    4954
CTETRA      8249       1   13179     675     674     856    6639    4955+
+           6638    6899   10533    8229
CTETRA      8250       1   17523     675   13179     856    6890    6639+
+          13285    6898   10533    6899
CTETRA      8251       1   13560     369     368     676    2752    2744+
+           2751   10534    5002    5811
CTETRA      8252       1   17513     369   13560     676    3405    2752+
+          14234    5000    5002   10534
CTETRA      8253       1   17513   13560   17514     676   14234   14233+
+          17544    5000   10534    7872
CTETRA      8254       1   17514   13560     368     676   14233    2751+
+           3811    7872   10534    5811
CTETRA      8255       1   17333     624     130     677   10456    4496+
+           5951   10535    5006    5005
CTETRA      8256       1   17333     379     624     677    9115    7618+
+          10456   10535    9434    5006
CTETRA      8257       1   17333   12723     379     677    7773   10109+
+           9115   10535    7222    9434
CTETRA      8258       1   17333     329   12723     677    2555    6039+
+           7773   10535    6598    7222
CTETRA      8259       1   17333     136     329     677    6314    2573+
+           2555   10535    5956    6598
CTETRA      8260       1   17333     130     136     677    5951    1694+
+           6314   10535    5005    5956
CTETRA      8261       1   17300   11959   11966     679   12123   12150+
+          12149    7475   10536   10537
CTETRA      8262       1   17300   11966   17301     679   12149   12152+
+          17318    7475   10537    9277
CTETRA      8263       1   17301   12413     679     895   12581    5028+
+           9277    7484    7180   10538
CTETRA      8264       1   12413     596     679     895    5025    5029+
+           5028    7180    7179   10538
CTETRA      8265       1   11966     461     596     679    6806    4611+
+           6807   10537    6777    5029
CTETRA      8266       1   11959     461   11966     679    7480    6806+
+          12150   10536    6777   10537
CTETRA      8267       1   17301     679   11966     895    9277   10537+
+          12152    7484   10538   10539
CTETRA      8268       1   17301   11966   11965     895   12152   12154+
+          12153    7484   10539   10540
CTETRA      8269       1   11965   11966     596     895   12154    6807+
+           6780   10540   10539    7179
CTETRA      8270       1   11966     679     596     895   10537    5029+
+           6807   10539   10538    7179
CTETRA      8271       1   18032     673   13538     680    7913   10530+
+          14185    7914    5037   10541
CTETRA      8272       1   18032   13538     201     680   14185    9863+
+           9132    7914   10541    9864
CTETRA      8273       1   13538      86     201     680    1525    1965+
+           9863   10541    5036    9864
CTETRA      8274       1   13538     673      86     680   10530    4940+
+           1525   10541    5037    5036
CTETRA      8275       1   13399   13405     361     681   13729    4065+
+           8131   10542   10543    7651
CTETRA      8276       1   16863     681     361     724    7650    7651+
+           6493    5491   10544    9067
CTETRA      8277       1   18067     681   16863     724    9066    7650+
+          16945    5490   10544    5491
CTETRA      8278       1   18066   18067   13405     681   18075   13730+
+          13731    5055    9066   10543
CTETRA      8279       1   18066   13405   13399     681   13731   13729+
+          13708    5055   10543   10542
CTETRA      8280       1   13399     681     361     682   10542    7651+
+           8131   10545    5058    8199
CTETRA      8281       1   18066     681   13399     682    5055   10542+
+          13708    5056    5058   10545
CTETRA      8282       1   18066   16865     682     966   16944    9226+
+           5056    7762    7761   10546
CTETRA      8283       1   16865    1023     682     966    9069   10547+
+           9226    7761    9071   10546
CTETRA      8284       1   13399     682     361    1023   10545    8199+
+           8131    8129   10547    8130
CTETRA      8285       1   17913     683   16973     684    6719   10095+
+          17068    6720    5064   10548
CTETRA      8286       1   17912   17913   16973     684   17922   17068+
+          17069    9146    6720   10548
CTETRA      8287       1   17912   16872     684    1134   16924    8492+
+           9146    9031    9033   10549
CTETRA      8288       1   16872     361     684    1134    6506    5063+
+           8492    9033    9062   10549
CTETRA      8289       1   16973     683     361     684   10095    5060+
+           5047   10548    5064    5063
CTETRA      8290       1   17497   15326   17498     685   15409   15407+
+          17501    5701   10550    6642
CTETRA      8291       1   17498   12780     685     716   13057    5100+
+           6642    9303    5351   10551
CTETRA      8292       1   12780     344     685     716    5099    5097+
+           5100    5351    5353   10551
CTETRA      8293       1   15326     443     344     685    8023    5095+
+           2635   10550    5098    5097
CTETRA      8294       1   17497     443   15326     685    5092    8023+
+          15409    5701    5098   10550
CTETRA      8295       1   15326     344     715     716    2635    5350+
+          10067   10552    5353    5352
CTETRA      8296       1   15326     685     344     716   10550    5097+
+           2635   10552   10551    5353
CTETRA      8297       1   17498     685   15326     716    6642   10550+
+          15407    9303   10551   10552
CTETRA      8298       1   17498   15326     715     716   15407   10067+
+           6644    9303   10552    5352
CTETRA      8299       1   12738     687     528     951   10553    7671+
+           3755    7624   10554    7633
CTETRA      8300       1   17389     959     687     885    7704   10555+
+           5130    7071    8491    9199
CTETRA      8301       1   18090     687   17389     959    5128    5130+
+          17390    7703   10555    7704
CTETRA      8302       1   17349   18090   12028     687   17379   12378+
+          12380    7699    5128   10556
CTETRA      8303       1   17349   12620     687     949   12693    7670+
+           7699    7603    7602   10557
CTETRA      8304       1   12620     528     687     949    7668    7671+
+           7670    7602    9200   10557
CTETRA      8305       1   12028     958     462     959   10356    8705+
+           9442   10558    7705    8490
CTETRA      8306       1   18090     958   12028     959    7702   10356+
+          12378    7703    7705   10558
CTETRA      8307       1   18090   12028     687     959   12378   10556+
+           5128    7703   10558   10555
CTETRA      8308       1   12738     959     687     951   10559   10555+
+          10553    7624   10560   10554
CTETRA      8309       1   12738     462     959     951    4988    8490+
+          10559    7624    8864   10560
CTETRA      8310       1   12755     339      99     688    5151    6399+
+           7660   10561    5542    5142
CTETRA      8311       1   12428     688     339     727    5543    5542+
+           5138    5532   10562    5533
CTETRA      8312       1   17411     688   12428     727    6248    5543+
+          12538    9271   10562    5532
CTETRA      8313       1   17410   17411   12755     688   17431   12961+
+          12962    5548    6248   10561
CTETRA      8314       1   17410   12755   12754     688   12962   12965+
+          12963    5548   10561   10563
CTETRA      8315       1   12754   12755      99     688   12965    7660+
+           4699   10563   10561    5142
CTETRA      8316       1   12754     688      99     586   10563    5142+
+           4699    4214    5145    5144
CTETRA      8317       1   17410     688   12754     586    5548   10563+
+          12963    4662    5145    4214
CTETRA      8318       1   17409   12426   17410     586   12534   12535+
+          17430    4213    4663    4662
CTETRA      8319       1   12754     586      99     650    4214    5144+
+           4699    6397   10564    4863
CTETRA      8320       1   17294   11981   12011     603   12399   12400+
+          12398    4308   10565   10566
CTETRA      8321       1   17294   12011   17295     603   12398   12375+
+          17328    4308   10566    4309
CTETRA      8322       1   17295   12407     603     926   12593    5154+
+           4309    8657    7446   10567
CTETRA      8323       1   12407      99     603     926    5152    5155+
+           5154    7446    7445   10567
CTETRA      8324       1   11981      99   12011     603    4676    7504+
+          12400   10565    5155   10566
CTETRA      8325       1   17295   12011   12013     926   12375   12331+
+          12374    8657   10568   10569
CTETRA      8326       1   12011      99   12013     926    7504    7525+
+          12331   10568    7445   10569
CTETRA      8327       1   12011     603      99     926   10566    5155+
+           7504   10568   10567    7445
CTETRA      8328       1   17295     603   12011     926    4309   10566+
+          12375    8657   10567   10568
CTETRA      8329       1   17295     926   12013     925    8657   10569+
+          12374    8658    7447   10570
CTETRA      8330       1   17295   12013   17296     925   12374   12377+
+          17327    8658   10570    9183
CTETRA      8331       1   17296   12013     457     925   12377   10200+
+           5156    9183   10570   10201
CTETRA      8332       1   12013     339     457     925    2612    3315+
+          10200   10570    7440   10201
CTETRA      8333       1   12013      99     339     925    7525    6399+
+           2612   10570    7441    7440
CTETRA      8334       1   12013     926      99     925   10569    7445+
+           7525   10570    7447    7441
CTETRA      8335       1   12764     690     471     691   10418    5176+
+           5605   10571    5180    5179
CTETRA      8336       1   17404     690   12764     691    6422   10418+
+          13025    6026    5180   10571
CTETRA      8337       1   18096   17404   12764     691   17424   13025+
+          13024    6025    6026   10571
CTETRA      8338       1   17981     691   18096     736    8860    6025+
+          17985    5665   10572    6079
CTETRA      8339       1   17981     547     691     736    7672    8861+
+           8860    5665    7685   10572
CTETRA      8340       1   12764     471     547     691    5605    5607+
+           5604   10571    5179    8861
CTETRA      8341       1   11985    1157     471     692   10415    9330+
+           7250   10573    9286    5187
CTETRA      8342       1   17289    1157   11985     692    9285   10415+
+          12226    8649    9286   10573
CTETRA      8343       1   17289   12402     692     991   12605    5186+
+           8649    9437    7917   10574
CTETRA      8344       1   12402     471     692     991    5183    5187+
+           5186    7917    7919   10574
CTETRA      8345       1   17290   11985     990     991   12227   10425+
+           7953    7954   10575    7918
CTETRA      8346       1   11985     471     990     991    7250    7916+
+          10425   10575    7919    7918
CTETRA      8347       1   11985     692     471     991   10573    5187+
+           7250   10575   10574    7919
CTETRA      8348       1   17289     692   11985     991    8649   10573+
+          12226    9437   10574   10575
CTETRA      8349       1   17289   11985   17290     991   12226   12227+
+          17321    9437   10575    7954
CTETRA      8350       1   15543     262     630     693    2212    5207+
+           5206   10576    5191    7236
CTETRA      8351       1   17761     262   15543     693    2210    2212+
+          15636    5189    5191   10576
CTETRA      8352       1   17761   15543   17762     693   15636   15637+
+          17765    5189   10576    7235
CTETRA      8353       1   17762   15543     630     693   15637    5206+
+           7233    7235   10576    7236
CTETRA      8354       1   17211   11513   11511     695   11558   11564+
+          11563    7920   10577   10578
CTETRA      8355       1   11671    1074     695     697    8515   10579+
+           5194    5199    9511    5200
CTETRA      8356       1   11671     695     795     696    5194   10580+
+           9128    5195    5197    9129
CTETRA      8357       1   17211     695   11769     795    7920    7922+
+          11840    7372   10580    7373
CTETRA      8358       1   11671   11672     795    1074   11687    6441+
+           9128    8515    8514   10581
CTETRA      8359       1   11672     189     795    1187    5233    6442+
+           6441    9839    9841   10582
CTETRA      8360       1   17212     189   11513     795    7295    7297+
+          11557    7374    6442   10583
CTETRA      8361       1   17211   17212   11513     795   17226   11557+
+          11558    7372    7374   10583
CTETRA      8362       1   17211   11513     695     795   11558   10577+
+           7920    7372   10583   10580
CTETRA      8363       1   11671     795     695    1074    9128   10580+
+           5194    8515   10581   10579
CTETRA      8364       1   11511     695   11513    1074   10578   10577+
+          11564   10584   10579   10585
CTETRA      8365       1   11662    1074    1028    1188    8513   10586+
+           8186    9842   10587   10588
CTETRA      8366       1   11662   11672    1074    1188   11688    8514+
+           8513    9842    9844   10587
CTETRA      8367       1   11672     795    1074    1187    6441   10581+
+           8514    9839   10582   10589
CTETRA      8368       1   11513     695     795    1074   10577   10580+
+          10583   10585   10579   10581
CTETRA      8369       1   11781     694     695    1073   10590    5193+
+           7921    8509   10591    8510
CTETRA      8370       1   11769     695   11781     694    7922    7921+
+          11901   10592    5193   10590
CTETRA      8371       1   17258   11769   11781     694   11838   11901+
+          11899    7202   10592   10590
CTETRA      8372       1   17258   11781      29     694   11899    9583+
+           8512    7202   10590    5202
CTETRA      8373       1   11781      29     694    1073    9583    5202+
+          10590    8509    9952   10591
CTETRA      8374       1   11769     695     694     696    7922    5193+
+          10592   10593    5197    5196
CTETRA      8375       1   11769     795     695     696    7373   10580+
+           7922   10593    9129    5197
CTETRA      8376       1   11672     696     795     796    8919    9129+
+           6441    6443   10594    6444
CTETRA      8377       1   17258     696   11672     796    7203    8919+
+          11722    7229   10594    6443
CTETRA      8378       1   17258   11769     694     696   11838   10592+
+           7202    7203   10593    5196
CTETRA      8379       1   11511     694     695     697   10595    5193+
+          10578   10596    5201    5200
CTETRA      8380       1   11511      29     694     697    9942    5202+
+          10595   10596    5203    5201
CTETRA      8381       1   11511     255      29     697    9943    7228+
+           9942   10596    9940    5203
CTETRA      8382       1   11661     697     255    1189    8769    9940+
+           8789    9937   10597    9938
CTETRA      8383       1   11661   11662     697    1028   11686    8770+
+           8769    8184    8186   10598
CTETRA      8384       1   11662    1074     697    1028    8513    9511+
+           8770    8186   10586   10598
CTETRA      8385       1   11511     695    1074     697   10578   10579+
+          10584   10596    5200    9511
CTETRA      8386       1   11511     695     694    1073   10578    5193+
+          10595   10599    8510   10591
CTETRA      8387       1   17211     695   11511    1073    7920   10578+
+          11563    8508    8510   10599
CTETRA      8388       1   17211   11511     932    1073   11563    9950+
+           7488    8508   10599    9951
CTETRA      8389       1   11511      29     932    1073    9942    9584+
+           9950   10599    9952    9951
CTETRA      8390       1   11511     694      29    1073   10595    5202+
+           9942   10599   10591    9952
CTETRA      8391       1   16381     630     262     699    5214    5207+
+           4561   10600    7862    5216
CTETRA      8392       1   17877     630   16381     699    4546    5214+
+          16649    8198    7862   10600
CTETRA      8393       1   17876   17877   16381     699   17881   16649+
+          16648    5215    8198   10600
CTETRA      8394       1   17876   16381     262     699   16648    4561+
+           5211    5215   10600    5216
CTETRA      8395       1   11767     588   11768     701    5224    5223+
+          11835   10601    5227   10602
CTETRA      8396       1   11674     701     588    1121    5228    5227+
+           4218    8910   10603    9400
CTETRA      8397       1   17261     701   11674    1121    8753    5228+
+          11727    8909   10603    8910
CTETRA      8398       1   17260   17261   11767     701   17270   11836+
+          11837    5239    8753   10601
CTETRA      8399       1   17260   11767   11768     701   11837   11835+
+          11844    5239   10601   10602
CTETRA      8400       1   11767     678     589    1121    9634    5024+
+          10377   10604    8911    9143
CTETRA      8401       1   17261     678   11767    1121    8908    9634+
+          11836    8909    8911   10604
CTETRA      8402       1   17261   11767     701    1121   11836   10601+
+           8753    8909   10604   10603
CTETRA      8403       1   11767     588     701    1121    5224    5227+
+          10601   10604    9400   10603
CTETRA      8404       1   11767     589     588    1121   10377    4222+
+           5224   10604    9143    9400
CTETRA      8405       1   11768     701     588     702   10602    5227+
+           5223   10605    5241    7589
CTETRA      8406       1   17260     701   11768     702    5239   10602+
+          11844    5240    5241   10605
CTETRA      8407       1   17260   11672     702     797   11724    5235+
+           5240    6449    6448   10606
CTETRA      8408       1   11672     189     702     797    5233    5236+
+           5235    6448    7592   10606
CTETRA      8409       1   11768     588     189     702    5223    5944+
+           7405   10605    7589    5236
CTETRA      8410       1   11768     189   11769     797    7405    7404+
+          11843   10607    7592   10608
CTETRA      8411       1   11768     702     189     797   10605    5236+
+           7405   10607   10606    7592
CTETRA      8412       1   17260     702   11768     797    5240   10605+
+          11844    6449   10606   10607
CTETRA      8413       1   17259   17260   11768     797   17269   11844+
+          11845    6447    6449   10607
CTETRA      8414       1   17259   11768   11769     797   11845   11843+
+          11839    6447   10607   10608
CTETRA      8415       1   14678     135     210     704    6908    5257+
+           2587   10609    5252    5497
CTETRA      8416       1   13179     704     135     718    5253    5252+
+           5250    7910   10610    6896
CTETRA      8417       1   17566     704   13179     718    8665    5253+
+          13282    7909   10610    7910
CTETRA      8418       1   17565   17566   14678     704   17574   14851+
+          14850    5496    8665   10609
CTETRA      8419       1   17565   14678     210     704   14850    2587+
+           5495    5496   10609    5497
CTETRA      8420       1   14678     135     704     718    6908    5252+
+          10609   10611    6896   10610
CTETRA      8421       1   17453     135   14678     718    4969    6908+
+          14936    5399    6896   10611
CTETRA      8422       1   18095   17453   14678     718   17459   14936+
+          15309    5400    5399   10611
CTETRA      8423       1   18095   14678   17566     718   15309   14851+
+          17573    5400   10611    7909
CTETRA      8424       1   17566   14678     704     718   14851   10609+
+           8665    7909   10611   10610
CTETRA      8425       1   13427     210     135     707    8003    5257+
+           5287   10612    5264    9272
CTETRA      8426       1   13427     555     210     707   10321    3929+
+           8003   10612    5265    5264
CTETRA      8427       1   17522     555   13427     707    6887   10321+
+          13921    6888    5265   10612
CTETRA      8428       1   17522   13179     707     857   13289    9274+
+           6888    7911    6902   10613
CTETRA      8429       1   13179     135     707     857    5250    9272+
+           9274    6902    8439   10613
CTETRA      8430       1   13394     163     708     709    3875    9529+
+          10315   10614    6870    5271
CTETRA      8431       1   13394     188     163     709    1891    5816+
+           3875   10614    6312    6870
CTETRA      8432       1   13394     283     188     709    2307    5988+
+           1891   10614    6313    6312
CTETRA      8433       1   13394     422     283     709    7580    3102+
+           2307   10614    5270    6313
CTETRA      8434       1   13394     708     422     709   10315    5267+
+           7580   10614    5271    5270
CTETRA      8435       1   16217   16220     144     965   16278    1734+
+           1716   10615   10616    8346
CTETRA      8436       1   16220     505     144     965   10271    5298+
+           1734   10616   10272    8346
CTETRA      8437       1   17739     505   16220     965    3578   10271+
+          16280    7744   10272   10616
CTETRA      8438       1   17738   17739   16220     965   17749   16280+
+          16279    7742    7744   10616
CTETRA      8439       1   17738   16220   16217     965   16279   16278+
+          16275    7742   10616   10615
CTETRA      8440       1   16398      14       9     712    1287    1286+
+           1285   10617    5323    5322
CTETRA      8441       1   16022     712      14     779    7737    5323+
+           5328    6212   10618    7184
CTETRA      8442       1   17785     712   16022     779    8105    7737+
+          16176    6211   10618    6212
CTETRA      8443       1   17785   16398   16397     712   16726   16727+
+          16724    8105   10617   10619
CTETRA      8444       1   16397   16398       9     712   16727    1285+
+           7745   10619   10617    5322
CTETRA      8445       1   17787    1130   16389     713    8998   10460+
+          16715    8999    9000   10620
CTETRA      8446       1   17786   17787   16389     713   17808   16715+
+          16725    5333    8999   10620
CTETRA      8447       1   17786   16022     713     896   16175    5331+
+           5333    8317    7183   10621
CTETRA      8448       1   16022      14     713     896    5328    5332+
+           5331    7183    7182   10621
CTETRA      8449       1   16389      59      14     713    2036    6208+
+           8796   10620    9035    5332
CTETRA      8450       1   16389    1130      59     713   10460    9339+
+           2036   10620    9000    9035
CTETRA      8451       1   16389      14   16398     896    8796    1287+
+          16720   10622    7182   10623
CTETRA      8452       1   16389     713      14     896   10620    5332+
+           8796   10622   10621    7182
CTETRA      8453       1   17786     713   16389     896    5333   10620+
+          16725    8317   10621   10622
CTETRA      8454       1   17786   16389   16398     896   16725   16720+
+          16728    8317   10622   10623
CTETRA      8455       1   18095   13179   13161     719   13281   13283+
+          13246    5401   10624   10625
CTETRA      8456       1   13161   13179     674     719   13283    6638+
+           4952   10625   10624    7904
CTETRA      8457       1   13179     135     674     719    5250    4970+
+           6638   10624    6897    7904
CTETRA      8458       1   13179     718     135     719    7910    6896+
+           5250   10624    5403    6897
CTETRA      8459       1   18095     718   13179     719    5400    7910+
+          13281    5401    5403   10624
CTETRA      8460       1   17604   15339      32     720   15470    1334+
+           1327    5405   10626    5406
CTETRA      8461       1   15339      87      32     720    9732    1527+
+           1334   10626    9733    5406
CTETRA      8462       1   17603      87   15339     720    5408    9732+
+          15471    8890    9733   10626
CTETRA      8463       1   17603   15339   17604     720   15471   15470+
+          17612    8890   10626    5405
CTETRA      8464       1   17127   17131     326     731   17159    9810+
+           8030   10627   10628    5625
CTETRA      8465       1   17131     350     326     731    5619    5622+
+           9810   10628    5626    5625
CTETRA      8466       1   17131     351     350     731   10075    2667+
+           5619   10628   10076    5626
CTETRA      8467       1   17959     351   17131     731    5425   10075+
+          17160    8593   10076   10628
CTETRA      8468       1   17959   17131   17127     731   17160   17159+
+          17156    8593   10628   10627
CTETRA      8469       1   14669     324     491     722    3934    5437+
+           7747   10629    8400    5453
CTETRA      8470       1   17563     324   14669     722    3933    3934+
+          14820    8193    8400   10629
CTETRA      8471       1   17562   17563   14669     722   17577   14820+
+          14821    5452    8193   10629
CTETRA      8472       1   17562   14669     491     722   14821    7747+
+           5450    5452   10629    5453
CTETRA      8473       1   13392     361   13405     724    6492    4065+
+          13728   10630    9067   10631
CTETRA      8474       1   18067   13392   13405     724   13676   13728+
+          13730    5490   10630   10631
CTETRA      8475       1   18067   13405     681     724   13730   10543+
+           9066    5490   10631   10544
CTETRA      8476       1   13405     361     681     724    4065    7651+
+          10543   10631    9067   10544
CTETRA      8477       1   13392     361     724     725    6492    9067+
+          10630   10632    6495    5493
CTETRA      8478       1   13392     423     361     725    6484    6487+
+           6492   10632    6496    6495
CTETRA      8479       1   13392     572     423     725   10349    4070+
+           6484   10632   10350    6496
CTETRA      8480       1   18068     572   13392     725    5486   10349+
+          13675    8968   10350   10632
CTETRA      8481       1   18067   18068   13392     725   18073   13675+
+          13676    5492    8968   10632
CTETRA      8482       1   18067   13392     724     725   13676   10630+
+           5490    5492   10632    5493
CTETRA      8483       1   17411   12741   12755     727   12960   12958+
+          12961    9271   10633   10634
CTETRA      8484       1   17411   12755     688     727   12961   10561+
+           6248    9271   10634   10562
CTETRA      8485       1   12755     339     688     727    5151    5542+
+          10561   10634    5533   10562
CTETRA      8486       1   12741     339   12755     727    5149    5151+
+          12958   10633    5533   10634
CTETRA      8487       1   17411   12741     727     728   12960   10633+
+           9271    9269   10635    5535
CTETRA      8488       1   12741     339     727     728    5149    5533+
+          10633   10635    5536    5535
CTETRA      8489       1   12741     335     339     728    7642    3725+
+           5149   10635    6043    5536
CTETRA      8490       1   12741     463     335     728   10206    3332+
+           7642   10635   10207    6043
CTETRA      8491       1   17412     463   12741     728    6044   10206+
+          12956    9270   10207   10635
CTETRA      8492       1   17411   17412   12741     728   17432   12956+
+          12960    9269    9270   10635
CTETRA      8493       1   12769     127     503     729    4701    3571+
+          10267   10636    9191    5581
CTETRA      8494       1   12769     652     127     729   10496    4703+
+           4701   10636   10494    9191
CTETRA      8495       1   17421     652   12769     729    8678   10496+
+          13010    7083   10494   10636
CTETRA      8496       1   17420   17421   12769     729   17441   13010+
+          13008    5580    7083   10636
CTETRA      8497       1   17420   12769     503     729   13008   10267+
+           5579    5580   10636    5581
CTETRA      8498       1   11509     635     319     730   10347    4576+
+          10435   10637    5587    5586
CTETRA      8499       1   13441     730     635     743    5756    5587+
+           5564    5761   10638    7588
CTETRA      8500       1   17195     730   13441     743    5759    5756+
+          13856    9228   10638    5761
CTETRA      8501       1   17195   11509   11504     730   11542   11541+
+          11517    5759   10637   10639
CTETRA      8502       1   11504   11509     319     730   11541   10435+
+          10430   10639   10637    5586
CTETRA      8503       1   12771     364   12784     734    6424    2721+
+          13084   10640    5655   10641
CTETRA      8504       1   17423   12771   12784     734   13043   13084+
+          13086    6685   10640   10641
CTETRA      8505       1   17422   17423   12784     734   17443   13086+
+          13085    7500    6685   10641
CTETRA      8506       1   17422   12784     313     734   13085   10036+
+           5609    7500   10641   10038
CTETRA      8507       1   12784     311     313     734    2724    2455+
+          10036   10641    8907   10038
CTETRA      8508       1   12784     364     311     734    2721    2725+
+           2724   10641    5655    8907
CTETRA      8509       1   13445     191     189     732    9852    1900+
+           7596   10642    9288    5629
CTETRA      8510       1   18028     191   13445     732    8805    9852+
+          13861    8806    9288   10642
CTETRA      8511       1   18028   11664     732     866   11749    5628+
+           8806    8814    6964   10643
CTETRA      8512       1   11664     189     732     866    5238    5629+
+           5628    6964    8616   10643
CTETRA      8513       1   18029   13445   13438     866   13862   13867+
+          13839    6965   10644   10645
CTETRA      8514       1   13438   13445     588     866   13867    7595+
+           6246   10645   10644    7361
CTETRA      8515       1   13445     189     588     866    7596    5944+
+           7595   10644    8616    7361
CTETRA      8516       1   13445     732     189     866   10642    5629+
+           7596   10644   10643    8616
CTETRA      8517       1   18028     732   13445     866    8806   10642+
+          13861    8814   10643   10644
CTETRA      8518       1   18028   13445   18029     866   13861   13862+
+          18040    8814   10644    6965
CTETRA      8519       1   17132     426     350     733    7687    5277+
+           5620   10646    5637    5636
CTETRA      8520       1   17957     426   17132     733    3497    7687+
+          17166    7113    5637   10646
CTETRA      8521       1   17957   17132   17958     733   17166   17165+
+          17966    7113   10646    7114
CTETRA      8522       1   17958   17132     350     733   17165    5620+
+           2664    7114   10646    5636
CTETRA      8523       1   12771     364     734     607    6424    5655+
+          10640   10647    5658    5657
CTETRA      8524       1   17981     607     364     735    4336    5658+
+           4337    5663   10648    5664
CTETRA      8525       1   17981   18096     607     735   17985    4333+
+           4336    5663    6078   10648
CTETRA      8526       1   18096   12771   17423     607   13029   13043+
+          17444    4333   10647    4334
CTETRA      8527       1   17423   12771     734     607   13043   10640+
+           6685    4334   10647    5657
CTETRA      8528       1   12771     364     607     735    6424    5658+
+          10647   10649    5664   10648
CTETRA      8529       1   12764     364   12771     735    5652    6424+
+          13026   10650    5664   10649
CTETRA      8530       1   18096   12764   12771     735   13024   13026+
+          13029    6078   10650   10649
CTETRA      8531       1   18096   12771     607     735   13029   10647+
+           4333    6078   10649   10648
CTETRA      8532       1   12764     364     735     736    5652    5664+
+          10650   10651    5667    5666
CTETRA      8533       1   12764     547     364     736    5604    5653+
+           5652   10651    7685    5667
CTETRA      8534       1   12764     691     547     736   10571    8861+
+           5604   10651   10572    7685
CTETRA      8535       1   18096     691   12764     736    6025   10571+
+          13024    6079   10572   10651
CTETRA      8536       1   18096   12764     735     736   13024   10650+
+           6078    6079   10651    5666
CTETRA      8537       1   17495   15327   17496     738   15419   15418+
+          17499    9189   10652    5694
CTETRA      8538       1   17496   15327     442     738   15418    5699+
+           5693    5694   10652    5695
CTETRA      8539       1   15327     558     442     738    3972    5363+
+           5699   10652    7733    5695
CTETRA      8540       1   17495     558   15327     738    3979    3972+
+          15419    9189    7733   10652
CTETRA      8541       1   17214     613   11509     740    5711   10434+
+          11538    5712    5714   10653
CTETRA      8542       1   17213   17214   11509     740   17223   11538+
+          11539    5757    5712   10653
CTETRA      8543       1   17213   11764     740     741   11816    5758+
+           5757    5748    5747   10654
CTETRA      8544       1   11764     635     740     741    5562    6297+
+           5758    5747    8613   10654
CTETRA      8545       1   11509     319     635     740   10435    4576+
+          10347   10653    6202    6297
CTETRA      8546       1   11509     613     319     740   10434    4375+
+          10435   10653    5714    6202
CTETRA      8547       1   11509     635   11510     741   10347   10343+
+          11546   10655    8613   10656
CTETRA      8548       1   11509     740     635     741   10653    6297+
+          10347   10655   10654    8613
CTETRA      8549       1   17213     740   11509     741    5757   10653+
+          11539    5748   10654   10655
CTETRA      8550       1   17213   11509   11510     741   11539   11546+
+          11547    5748   10655   10656
CTETRA      8551       1   11510     741     635     742   10656    8613+
+          10343   10657    5751    7292
CTETRA      8552       1   17213     741   11510     742    5748   10656+
+          11547    5749    5751   10657
CTETRA      8553       1   17212   17213   11510     742   17227   11547+
+          11559    7387    5749   10657
CTETRA      8554       1   17212   11510     189     742   11559    7296+
+           7295    7387   10657    7291
CTETRA      8555       1   11510     635     189     742   10343    5563+
+           7296   10657    7292    7291
CTETRA      8556       1   16975   16976     423     905   17076    7337+
+           3305   10658   10659    8793
CTETRA      8557       1   17911   16976   16975     905   17078   17076+
+          17071    7275   10659   10658
CTETRA      8558       1   17910   17911   16975     905   17920   17071+
+          17070    8557    7275   10658
CTETRA      8559       1   17910   16975     665     905   17070   10515+
+           4803    8557   10658   10516
CTETRA      8560       1   16975      34     665     905    3302    5766+
+          10515   10658    8792   10516
CTETRA      8561       1   16975     423      34     905    3305    3304+
+           3302   10658    8793    8792
CTETRA      8562       1   17849     519   16353     745    5774    6234+
+          16536    5775    5777   10660
CTETRA      8563       1   17848   17849   16353     745   17865   16536+
+          16542    8354    5775   10660
CTETRA      8564       1   17848   16215     745     744   16247    7823+
+           8354    5769    5771   10661
CTETRA      8565       1   16215     519     745     744    7816    5777+
+           7823    5771    7818   10661
CTETRA      8566       1   17680   15563     582     746   15727   10371+
+           8210    8211   10662    5843
CTETRA      8567       1   15563     156     582     746    5875    4190+
+          10371   10662    5844    5843
CTETRA      8568       1   16034     746     156     753    5795    5844+
+           5874    5881   10663    7809
CTETRA      8569       1   17679     746   16034     753    5793    5795+
+          16146    5880   10663    5881
CTETRA      8570       1   17679   15563   17680     746   15726   15727+
+          17696    5793   10662    8211
CTETRA      8571       1   15563     752     156     753   10521    7808+
+           5875   10664    5882    7809
CTETRA      8572       1   17679     752   15563     753    5870   10521+
+          15726    5880    5882   10664
CTETRA      8573       1   17679   15563     746     753   15726   10662+
+           5793    5880   10664   10663
CTETRA      8574       1   15563     156     746     753    5875    5844+
+          10662   10664    7809   10663
CTETRA      8575       1   17729     510   16212     747    5799   10282+
+          16233    5800    5802   10665
CTETRA      8576       1   17729   15632     747     782   15984    7211+
+           5800    8331    6522   10666
CTETRA      8577       1   15632     512     747     782    5830    7076+
+           7211    6522    6523   10666
CTETRA      8578       1   16212     510     512     747   10282    7074+
+           7078   10665    5802    7076
CTETRA      8579       1   17680     582   15570     810    8210   10370+
+          15753    7021   10369   10667
CTETRA      8580       1   17680   15570   17681     810   15753   15756+
+          17698    7021   10667    7022
CTETRA      8581       1   17681   15570   15569     810   15756   15758+
+          15757    7022   10667   10668
CTETRA      8582       1   15569   15570     172     810   15758    4238+
+           4237   10668   10667    6541
CTETRA      8583       1   15570     162     172     810    4236    4209+
+           4238   10667    6542    6541
CTETRA      8584       1   15570     582     162     810   10370    4189+
+           4236   10667   10369    6542
CTETRA      8585       1   16378     262     750     751    4560    5859+
+           5858   10669    7309    5867
CTETRA      8586       1   17876     262   16378     751    5211    4560+
+          16641    7308    7309   10669
CTETRA      8587       1   17875   17876   16378     751   17882   16641+
+          16640    5866    7308   10669
CTETRA      8588       1   17875   16378     750     751   16640    5858+
+           5865    5866   10669    5867
CTETRA      8589       1   11677      32     754     855    4922    9304+
+           9253    6892    8158   10670
CTETRA      8590       1   15336      32   15339     754    1335    1334+
+          15472   10671    9304   10672
CTETRA      8591       1   17275   15336   15339     754   15483   15472+
+          15484   10673   10671   10672
CTETRA      8592       1   17275   15339     672     754   15484    4935+
+           9307   10673   10672    9252
CTETRA      8593       1   11677     754     672     855    9253    9252+
+           6891    6892   10670    6893
CTETRA      8594       1   15336      32     754     755    1335    9304+
+          10671   10674    9305    5887
CTETRA      8595       1   15336    1117      32     755    9598    9130+
+           1335   10674    9597    9305
CTETRA      8596       1   11660     755    1117     920    8765    9597+
+           8893    7380   10675    9596
CTETRA      8597       1   11660   11669     755     920   11678    8766+
+           8765    7380    9405   10675
CTETRA      8598       1   11669     755    1118    1079    8766   10676+
+           8895    8541    8906   10677
CTETRA      8599       1   17275   15336     755    1181   15483   10674+
+          10678    9505    9507   10679
CTETRA      8600       1   17275   15336     754     755   15483   10671+
+          10673   10678   10674    5887
CTETRA      8601       1   17275     755     754     756   10678    5887+
+          10673   10680    5891    5890
CTETRA      8602       1   17275   11785     755     756   11924   10681+
+          10678   10680   10682    5891
CTETRA      8603       1   17275   11756   11785     756   11789   11927+
+          11924   10680   10523   10682
CTETRA      8604       1   17275     672   11756     756    9307   10522+
+          11789   10680   10524   10523
CTETRA      8605       1   17275     754     672     756   10673    9252+
+           9307   10680    5890   10524
CTETRA      8606       1   11756      86     481    1090    5892    5895+
+           5894   10683    9401   10241
CTETRA      8607       1   11677    1090      86    1119    8612    9401+
+           4923    8899   10684   10528
CTETRA      8608       1   17264    1090   11677    1119    8610    8612+
+          11733    8898   10684    8899
CTETRA      8609       1   17263   17264   11756    1090   17273   11792+
+          11793    9142    8610   10683
CTETRA      8610       1   17263   11756     480    1090   11793    6139+
+           8213    9142   10683    9402
CTETRA      8611       1   11756     481     480    1090    5894    3464+
+           6139   10683   10241    9402
CTETRA      8612       1   18070     853   13412     757    8070   10454+
+          13774    8071    6879   10685
CTETRA      8613       1   18070   13412     453     757   13774   10198+
+           8078    8071   10685   10199
CTETRA      8614       1   13412      35     453     757    1340    6475+
+          10198   10685    5901   10199
CTETRA      8615       1   13412     352      35     757    4479    2670+
+           1340   10685    5902    5901
CTETRA      8616       1   13412     853     352     757   10454    6877+
+           4479   10685    6879    5902
CTETRA      8617       1   17717     759     119     806    5912    5911+
+           5909    6508   10686    6555
CTETRA      8618       1   17717     167     759     806    3029    6552+
+           5912    6508    6510   10686
CTETRA      8619       1   13627   13650     167     759   14564    6528+
+           8162   10687   10688    6552
CTETRA      8620       1   13627     119   13650     759    9512    5808+
+          14564   10687    5911   10688
CTETRA      8621       1   13627     119     759     806    9512    5911+
+          10687   10689    6555   10686
CTETRA      8622       1   13627   13639     119     806   14529    7903+
+           9512   10689   10690    6555
CTETRA      8623       1   13627     111   13639     806    6340    6341+
+          14529   10689    6509   10690
CTETRA      8624       1   13627     167     111     806    8162    6507+
+           6340   10689    6510    6509
CTETRA      8625       1   13627     759     167     806   10687    6552+
+           8162   10689   10686    6510
CTETRA      8626       1   13415     592     226     758    4241    8140+
+           2106   10691    8149    5907
CTETRA      8627       1   13415     593     592     758    4244    4243+
+           4241   10691    5919    8149
CTETRA      8628       1   13415      41     593     758    2677    5904+
+           4244   10691    5920    5919
CTETRA      8629       1   13415      43      41     758    2105    2679+
+           2677   10691    5906    5920
CTETRA      8630       1   13415     226      43     758    2106    2070+
+           2105   10691    5907    5906
CTETRA      8631       1   17337   11776      94     767   11873    1561+
+           7416    6129   10692    9126
CTETRA      8632       1   11776     396      94     767   10129    8886+
+           1561   10692   10130    9126
CTETRA      8633       1   17244     396   11776     767    5990   10129+
+          11871    9396   10130   10692
CTETRA      8634       1   17244   11776   11780     767   11871   11893+
+          11895    9396   10692    6128
CTETRA      8635       1   17337   11780   11776     767   11894   11893+
+          11873    6129    6128   10692
CTETRA      8636       1   15553     630      46     760    6027    6016+
+           6029   10693    6019    6018
CTETRA      8637       1   17762     630   15553     760    7233    6027+
+          15682    8829    6019   10693
CTETRA      8638       1   17762   15553   17763     760   15682   15684+
+          17764    8829   10693    8830
CTETRA      8639       1   17763   15553   15562     760   15684   15722+
+          15721    8830   10693   10694
CTETRA      8640       1   15553      46   15562     760    6029    8087+
+          15722   10693    6018   10694
CTETRA      8641       1   13439   13451     401     552   13894    2976+
+           7946   10695   10696    8402
CTETRA      8642       1   13451     404     401     552   10152    2993+
+           2976   10696   10151    8402
CTETRA      8643       1   18115     404   13451     552    8197   10152+
+          13893    3913   10151   10696
CTETRA      8644       1   18115   13451   18006     552   13893   13895+
+          18015    3913   10696    3914
CTETRA      8645       1   18006   13451   13439     552   13895   13894+
+          13845    3914   10696   10695
CTETRA      8646       1   17133     426     361     761    7686    3120+
+          10016   10697    6076    8674
CTETRA      8647       1   17940     426   17133     761    6072    7686+
+          17167    6074    6076   10697
CTETRA      8648       1   17940   17133   17941     761   17167   17168+
+          17946    6074   10697    8676
CTETRA      8649       1   17941   13399     761    1024   13706    8677+
+           8676    8573    8132   10698
CTETRA      8650       1   13399     361     761    1024    8131    8674+
+           8677    8132    8134   10698
CTETRA      8651       1   17351   12020   12024     762   12348   12357+
+          12358    6089   10699   10700
CTETRA      8652       1   17351   12618     762     764   12683    6090+
+           6089    9282    6095   10701
CTETRA      8653       1   12618     458     762     764    6092    6084+
+           6090    6095    6094   10701
CTETRA      8654       1   12020     458   12024     762    3717    3719+
+          12357   10699    6084   10700
CTETRA      8655       1   17351   12020     762     763   12348   10699+
+           6089    8865   10702    6087
CTETRA      8656       1   12020     458     762     763    3717    6084+
+          10699   10702    6088    6087
CTETRA      8657       1   12020     528     458     763    3722    7335+
+           3717   10702    7681    6088
CTETRA      8658       1   17350     528   12020     763    7262    3722+
+          12339    7680    7681   10702
CTETRA      8659       1   17350   12020   17351     763   12339   12348+
+          17375    7680   10702    8865
CTETRA      8660       1   17351   12024   17352     764   12358   12361+
+          17377    9282   10703    6093
CTETRA      8661       1   17352   12024     458     764   12361    3719+
+           6091    6093   10703    6094
CTETRA      8662       1   12024     762     458     764   10700    6084+
+           3719   10703   10701    6094
CTETRA      8663       1   17351     762   12024     764    6089   10700+
+          12358    9282   10701   10703
CTETRA      8664       1   12023     458     459     765    7023    3317+
+           7411   10704    6098    6681
CTETRA      8665       1   17352     458   12023     765    6091    7023+
+          12363    6096    6098   10704
CTETRA      8666       1   17352   12023   12022     765   12363   12354+
+          12362    6096   10704   10705
CTETRA      8667       1   12022   12023     459     765   12354    7411+
+           7410   10705   10704    6681
CTETRA      8668       1   11581     859      94     768    7885    7219+
+           8057   10706    7024    9127
CTETRA      8669       1   11580     859   11581     768    7886    7885+
+          11610   10707    7024   10706
CTETRA      8670       1   11580     768   11581     922   10707   10706+
+          11610    9119   10708    7413
CTETRA      8671       1   11581     768     767     922   10706    6132+
+           9395    7413   10708    9397
CTETRA      8672       1   11581      94     767     768    8057    9126+
+           9395   10706    9127    6132
CTETRA      8673       1   11580     768     922     916   10707   10708+
+           9119   10709   10710   10711
CTETRA      8674       1   11780     767     768     922    6128    6132+
+           6131   10712    9397   10708
CTETRA      8675       1   17244     767   11780     922    9396    6128+
+          11895    7414    9397   10712
CTETRA      8676       1   17243   17244   11780     922   17253   11895+
+          11896    7412    7414   10712
CTETRA      8677       1   17243   11580     922     916   11634    9119+
+           7412    7358   10709   10711
CTETRA      8678       1   16215   16216     519     964   16259    5773+
+           7816   10713   10714    7730
CTETRA      8679       1   17733   16216   16215     964   16253   16259+
+          16258    8937   10714   10713
CTETRA      8680       1   17732   17733   16215     964   17758   16258+
+          16249    9005    8937   10713
CTETRA      8681       1   17732   16215     204     964   16249    9866+
+           1975    9005   10713    9867
CTETRA      8682       1   16215     153     204     964    4158    6150+
+           9866   10713    7729    9867
CTETRA      8683       1   16215     519     153     964    7816    3649+
+           4158   10713    7730    7729
CTETRA      8684       1   16375     639   16388     770    8440    8642+
+          16688   10715    6176   10716
CTETRA      8685       1   17803   16375   16388     770   16647   16688+
+          16690    6163   10715   10716
CTETRA      8686       1   17803   16388     274     770   16690    9967+
+           9333    6163   10716    9968
CTETRA      8687       1   16388     272     274     770    6162    2279+
+           9967   10716    8987    9968
CTETRA      8688       1   16388     639     272     770    8642    6585+
+           6162   10716    6176    8987
CTETRA      8689       1   16375     639     770     771    8440    6176+
+          10715   10717    6178    6166
CTETRA      8690       1   17977     771     639     772    8109    6178+
+           7014    6171   10718    7013
CTETRA      8691       1   17977   17803     771     772   16122    6165+
+           8109    6171    9017   10718
CTETRA      8692       1   17803   16375     770     771   16647   10715+
+           6163    6165   10717    6166
CTETRA      8693       1   16375     639     771     772    8440    6178+
+          10717   10719    7013   10718
CTETRA      8694       1   16368     639   16375     772    8441    8440+
+          16630   10720    7013   10719
CTETRA      8695       1   18108   16368   16375     772   16628   16630+
+          16633    6170   10720   10719
CTETRA      8696       1   18108   16375   17803     772   16633   16647+
+          17804    6170   10719    9017
CTETRA      8697       1   17803   16375     771     772   16647   10717+
+           6165    9017   10719   10718
CTETRA      8698       1   16368     639     772     773    8441    7013+
+          10720   10721    7015    6174
CTETRA      8699       1   16368     637     639     773    4647    4598+
+           8441   10721    8321    7015
CTETRA      8700       1   16368     647     637     773   10489    4642+
+           4647   10721   10488    8321
CTETRA      8701       1   17784     647   16368     773    8590   10489+
+          16629    7075   10488   10721
CTETRA      8702       1   18108   17784   16368     773   17805   16629+
+          16628    6173    7075   10721
CTETRA      8703       1   18108   16368     772     773   16628   10720+
+           6170    6173   10721    6174
CTETRA      8704       1   17299   11935   11959     774   12120   12124+
+          12122    7467   10722   10723
CTETRA      8705       1   11935     461   11959     774    3366    7480+
+          12124   10722    6183   10723
CTETRA      8706       1   11935     454     461     774    3362    3367+
+           3366   10722    6184    6183
CTETRA      8707       1   12410     774     454     929    7468    6184+
+           6668    7463   10724    7464
CTETRA      8708       1   17299     774   12410     929    7467    7468+
+          12588    9423   10724    7463
CTETRA      8709       1   15549     267   15557     775    8973    5957+
+          15699   10725    6187   10726
CTETRA      8710       1   15549      92     267     775    6190    4908+
+           8973   10725    6188    6187
CTETRA      8711       1   16029     775      92     846    7763    6188+
+           5779    6802   10727    9495
CTETRA      8712       1   17684     775   16029     846    7774    7763+
+          16136    6801   10727    6802
CTETRA      8713       1   17684   15549   17685     775   15672   15696+
+          17694    7774   10725    6797
CTETRA      8714       1   17685   15549   15557     775   15696   15699+
+          15681    6797   10725   10726
CTETRA      8715       1   16342     512     211     776    4175    4176+
+           2002   10728    7077    7158
CTETRA      8716       1   16342   16351     512     776   16522    7056+
+           4175   10728   10729    7077
CTETRA      8717       1   17844   16351   16342     776   16523   16522+
+          16520    8358   10729   10728
CTETRA      8718       1   18105   17844   16342     776   17859   16520+
+          16521    6191    8358   10728
CTETRA      8719       1   18105   17769     776     952   17770    6192+
+           6191    7644    7635   10730
CTETRA      8720       1   17769     211     776     952    2309    7158+
+           6192    7635    7634   10730
CTETRA      8721       1   16342     211   16362     952    2002    2004+
+          16591   10731    7634   10732
CTETRA      8722       1   16342     776     211     952   10728    7158+
+           2002   10731   10730    7634
CTETRA      8723       1   18105     776   16342     952    6191   10728+
+          16521    7644   10730   10731
CTETRA      8724       1   18105   16342   16362     952   16521   16591+
+          16590    7644   10731   10732
CTETRA      8725       1   17301     895   11965     781    7484   10540+
+          12153    7485    7181   10733
CTETRA      8726       1   17301   11965   17302     781   12153   12155+
+          17319    7485   10733    8885
CTETRA      8727       1   17302   12414     781     946   12579    6218+
+           8885    9276    7567   10734
CTETRA      8728       1   12414     780     781     946    6215    6219+
+           6218    7567    7566   10734
CTETRA      8729       1   11965     596     780     781    6780    6778+
+           6717   10733    6779    6219
CTETRA      8730       1   11965     895     596     781   10540    7179+
+           6780   10733    7181    6779
CTETRA      8731       1   11965     780   11967     946    6717    6716+
+          12147   10735    7566   10736
CTETRA      8732       1   11965     781     780     946   10733    6219+
+           6717   10735   10734    7566
CTETRA      8733       1   17302     781   11965     946    8885   10733+
+          12155    9276   10734   10735
CTETRA      8734       1   17302   11965   11967     946   12155   12147+
+          12151    9276   10735   10736
CTETRA      8735       1   18102   17729   16212     782   17759   16233+
+          16234    6220    8331   10737
CTETRA      8736       1   18102   16212   17769     782   16234   16232+
+          17771    6220   10737    6221
CTETRA      8737       1   17769   16212     211     782   16232    7157+
+           2309    6221   10737    6516
CTETRA      8738       1   16212     512     211     782    7078    4176+
+           7157   10737    6523    6516
CTETRA      8739       1   16212     747     512     782   10665    7076+
+           7078   10737   10666    6523
CTETRA      8740       1   17729     747   16212     782    5800   10665+
+          16233    8331   10666   10737
CTETRA      8741       1   15632     211     782     783    6521    6516+
+           6522   10738    6517    6223
CTETRA      8742       1   15632    1031     211     783    9980    8322+
+           6521   10738    8218    6517
CTETRA      8743       1   18102    1031   15632     783    8217    9980+
+          15982    6222    8218   10738
CTETRA      8744       1   18102   15632     782     783   15982    6522+
+           6220    6222   10738    6223
CTETRA      8745       1   16216     519     964     784    5773    7730+
+          10714   10739    6240    8939
CTETRA      8746       1   17734     519   16216     784    6237    5773+
+          16252    6238    6240   10739
CTETRA      8747       1   17733   17734   16216     784   17756   16252+
+          16253    8938    6238   10739
CTETRA      8748       1   17733   16216     964     784   16253   10714+
+           8937    8938   10739    8939
CTETRA      8749       1   13195     296   13196     788    6339    6338+
+          13377   10740    6331   10741
CTETRA      8750       1   18107   13195   13196     788   13373   13377+
+          13378    6380   10740   10741
CTETRA      8751       1   18107   13196   13187     788   13378   13376+
+          13332    6380   10741   10742
CTETRA      8752       1   13187   13196     286     788   13376    9983+
+           9984   10742   10741    6330
CTETRA      8753       1   13196     296     286     788    6338    2352+
+           9983   10741    6331    6330
CTETRA      8754       1   11662     205     790    1028    8183    9871+
+           6363    8186    8185   10743
CTETRA      8755       1   17199     205   11511     790    8916    9375+
+          11548    9257    9871   10744
CTETRA      8756       1   17198   17199   11511     790   17207   11548+
+          11549    9255    9257   10744
CTETRA      8757       1   17198   11511   11513     790   11549   11564+
+          11562    9255   10744   10745
CTETRA      8758       1   11662    1028     790    1188    8186   10743+
+           6363    9842   10588   10746
CTETRA      8759       1   11662     790     789    1188    6363    6362+
+           6361    9842   10746   10747
CTETRA      8760       1   17198     790   11513     789    9255   10745+
+          11562    9259    6362   10748
CTETRA      8761       1   17198   11513     723     789   11562    9846+
+           7328    9259   10748    9849
CTETRA      8762       1   11662     789     723    1188    6361    9849+
+           9293    9842   10747    9848
CTETRA      8763       1   13658     205     790     791    9869    9871+
+           9256   10749    9870    6366
CTETRA      8764       1   18026     205   13658     791    1978    9869+
+          14602    8934    9870   10749
CTETRA      8765       1   18026   13658   18027     791   14602   14601+
+          18042    8934   10749    8935
CTETRA      8766       1   18027   13658   13431     791   14601   14603+
+          13804    8935   10749   10750
CTETRA      8767       1   13431   13658     723     791   14603    7329+
+           5469   10750   10749    9294
CTETRA      8768       1   13658     789     723     791    9260    9849+
+           7329   10749    6365    9294
CTETRA      8769       1   13658     790     789     791    9256    6362+
+           9260   10749    6366    6365
CTETRA      8770       1   11511     790     205    1028   10744    9871+
+           9375   10751   10743    8185
CTETRA      8771       1   11511   11513     790    1028   11564   10745+
+          10744   10751   10752   10743
CTETRA      8772       1   11511    1074   11513    1028   10584   10585+
+          11564   10751   10586   10752
CTETRA      8773       1   11511     697    1074    1028   10596    9511+
+          10584   10751   10598   10586
CTETRA      8774       1   11661    1028     697    1189    8184   10598+
+           8769    9937   10753   10597
CTETRA      8775       1   11661     205    1028    1189    1979    8185+
+           8184    9937   10754   10753
CTETRA      8776       1   11513     790    1028    1188   10745   10743+
+          10752   10755   10746   10588
CTETRA      8777       1   11513     789     790    1188   10748    6362+
+          10745   10755   10747   10746
CTETRA      8778       1   11513     723     789    1188    9846    9849+
+          10748   10755    9848   10747
CTETRA      8779       1   11513     190     723    1188    9847    9838+
+           9846   10755    9843    9848
CTETRA      8780       1   11672    1188     190    1187    9844    9843+
+           8525    9839   10756    9840
CTETRA      8781       1   11672    1074    1188    1187    8514   10587+
+           9844    9839   10589   10756
CTETRA      8782       1   11513    1028    1074    1188   10752   10586+
+          10585   10755   10588   10587
CTETRA      8783       1   17294   11981     603     927   12399   10565+
+           4308    8650   10757    7449
CTETRA      8784       1   11981      99     603     927    4676    5155+
+          10565   10757    7450    7449
CTETRA      8785       1   11981     472      99     927   10410    6404+
+           4676   10757   10411    7450
CTETRA      8786       1   17294     472   11981     927    3394   10410+
+          12399    8650   10411   10757
CTETRA      8787       1   11513     795     189    1187   10583    6442+
+           7297   10758   10582    9841
CTETRA      8788       1   11513    1074     795    1187   10585   10581+
+          10583   10758   10589   10582
CTETRA      8789       1   11513    1188    1074    1187   10755   10587+
+          10585   10758   10756   10589
CTETRA      8790       1   11513     190    1188    1187    9847    9843+
+          10755   10758    9840   10756
CTETRA      8791       1   11513     189     190    1187    7297    1897+
+           9847   10758    9841    9840
CTETRA      8792       1   11769     189     795     796    7404    6442+
+           7373   10759    6445    6444
CTETRA      8793       1   11769     797     189     796   10608    7592+
+           7404   10759    7593    6445
CTETRA      8794       1   17259     797   11769     796    6447   10608+
+          11839    7230    7593   10759
CTETRA      8795       1   17258   17259   11769     796   17268   11839+
+          11838    7229    7230   10759
CTETRA      8796       1   17258   11769     696     796   11838   10593+
+           7203    7229   10759   10594
CTETRA      8797       1   11769     795     696     796    7373    9129+
+          10593   10759    6444   10594
CTETRA      8798       1   17896   16968   16979     798   17037   17095+
+          17093    6467   10760   10761
CTETRA      8799       1   17896   16979   16956     798   17093   17092+
+          16999    6467   10761   10762
CTETRA      8800       1   16956     798   16979     801   10762   10761+
+          17092    6458   10763    6459
CTETRA      8801       1   16979     801     798    1055    6459   10763+
+          10761    8393    8392   10764
CTETRA      8802       1   16979     798     616    1055   10761    6461+
+           8385    8393   10764   10441
CTETRA      8803       1   16968     616   16979     798    4399    8385+
+          17095   10760    6461   10761
CTETRA      8804       1   16956     798     801     914   10762   10763+
+           6458    7343   10765   10766
CTETRA      8805       1   17128   17130     798     801   17155   10767+
+          10768   10769   10770   10763
CTETRA      8806       1   17961   17130   17128     801   17149   17155+
+          17138    6457   10770   10769
CTETRA      8807       1   17961   16956     801     914   16995    6458+
+           6457    7341    7343   10766
CTETRA      8808       1   17896     798   16956     799    6467   10762+
+          16999    6468    6452   10771
CTETRA      8809       1   17895   17896   16956     799   17905   16999+
+          16998    8055    6468   10771
CTETRA      8810       1   17895   16779     799    1010   16833    8337+
+           8055    8046    8048   10772
CTETRA      8811       1   16779    1077     799    1010    8531    8533+
+           8337    8048    9679   10772
CTETRA      8812       1   16956    1077     799     914    9682    8533+
+          10771    7343    9683   10773
CTETRA      8813       1   16956     799     798     914   10771    6452+
+          10762    7343   10773   10765
CTETRA      8814       1   17128     798     799     914   10768    6452+
+          10774   10775   10765   10773
CTETRA      8815       1   17128     801     798     914   10769   10763+
+          10768   10775   10766   10765
CTETRA      8816       1   17961     801   17128     914    6457   10769+
+          17138    7341   10766   10775
CTETRA      8817       1   17961   17128   17962     914   17138   17137+
+          17964    7341   10775    7342
CTETRA      8818       1   17962   17128      71     914   17137    1471+
+           1470    7342   10775    7353
CTETRA      8819       1   17128    1077      71     914    9680    9678+
+           1471   10775    9683    7353
CTETRA      8820       1   17128     799    1077     914   10774    8533+
+           9680   10775   10773    9683
CTETRA      8821       1   17128     799     798     800   10774    6452+
+          10768   10776    6456    6455
CTETRA      8822       1   17128    1077     799     800    9680    8533+
+          10774   10776    9681    6456
CTETRA      8823       1   17128     833    1077     800    9667    9666+
+           9680   10776    9671    9681
CTETRA      8824       1   16771     833   17128     800    6742    9667+
+          10777    7330    9671   10776
CTETRA      8825       1   16771     800   17128    1088    7330   10776+
+          10777    8600   10778   10779
CTETRA      8826       1   17128     798   17130     800   10768   10767+
+          17155   10776    6455   10780
CTETRA      8827       1   17130     800     798     912   10780    6455+
+          10767   10781    7333    8423
CTETRA      8828       1   16771     912     800    1088    7331    7333+
+           7330    8600   10782   10778
CTETRA      8829       1   16771   16781     912    1088   16812    8580+
+           7331    8600    8991   10782
CTETRA      8830       1   16781     616     912    1179    8251   10438+
+           8580    9489   10439   10783
CTETRA      8831       1   17130     798     616     912   10767    6461+
+          10440   10781    8423   10438
CTETRA      8832       1   17130     798     801    1055   10767   10763+
+          10770   10784   10764    8392
CTETRA      8833       1   17130     616     798    1055   10440    6461+
+          10767   10784   10441   10764
CTETRA      8834       1   17961     616   17130    1055    8384   10440+
+          17149    8391   10441   10784
CTETRA      8835       1   17961   17130     801    1055   17149   10770+
+           6457    8391   10784    8392
CTETRA      8836       1   16968     616     798     802    4399    6461+
+          10760   10785    6465    6464
CTETRA      8837       1   16781     802     616    1036    8191    6465+
+           8251    8252   10786    8253
CTETRA      8838       1   17896     802   16781    1036    8190    8191+
+          16836    9159   10786    8252
CTETRA      8839       1   17896   16968     798     802   17037   10760+
+           6467    8190   10785    6464
CTETRA      8840       1   17911   17912   16976     804   17921   17080+
+          17078    8120    8493   10787
CTETRA      8841       1   17911   16871     804     906   16922    8121+
+           8120    7277    7279   10788
CTETRA      8842       1   16871     423     804     906    6476    6498+
+           8121    7279    9092   10788
CTETRA      8843       1   16974     423   16976     804    6486    7337+
+          17077   10789    6498   10787
CTETRA      8844       1   17912   16974   16976     804   17079   17077+
+          17080    8493   10789   10787
CTETRA      8845       1   17912   16974     804     805   17079   10789+
+           8493    8494   10790    6501
CTETRA      8846       1   16974     423     804     805    6486    6498+
+          10789   10790    6502    6501
CTETRA      8847       1   16974     361     423     805    3492    6487+
+           6486   10790    9060    6502
CTETRA      8848       1   16973     361   16974     805    5047    3492+
+          17067   10791    9060   10790
CTETRA      8849       1   17912   16973   16974     805   17069   17067+
+          17079    8494   10791   10790
CTETRA      8850       1   16213     208     302     807    9877    7944+
+           2402   10792    9878    9879
CTETRA      8851       1   17731     208   16213     807    1986    9877+
+          16240    6520    9878   10792
CTETRA      8852       1   17730   17731   16213     807   17755   16240+
+          16239    6518    6520   10792
CTETRA      8853       1   17730   16213     511     807   16239   10283+
+           6512    6518   10792   10284
CTETRA      8854       1   16213     302     511     807    2402    3603+
+          10283   10792    9879   10284
CTETRA      8855       1   16351     512     776     886    7056    7077+
+          10729   10793    7081    7080
CTETRA      8856       1   16351     621     512     886   10447    4455+
+           7056   10793   10448    7081
CTETRA      8857       1   17844     621   16351     886    6514   10447+
+          16523    8744   10448   10793
CTETRA      8858       1   17844   16351     776     886   16523   10729+
+           8358    8744   10793    7080
CTETRA      8859       1   13650     759     119     808   10688    5911+
+           5808   10794    6527    6526
CTETRA      8860       1   13650     167     759     808    6528    6552+
+          10688   10794    6553    6527
CTETRA      8861       1   13650     546     167     808    5805    3873+
+           6528   10794    8646    6553
CTETRA      8862       1   13650     119     546     808    5808    5810+
+           5805   10794    6526    8646
CTETRA      8863       1   16318     172   16341     809    7431    4841+
+          16503   10795    6536   10796
CTETRA      8864       1   17796   16318   16341     809   16504   16503+
+          16507    7035   10795   10796
CTETRA      8865       1   17795   17796   16341     809   17817   16507+
+          16510    7238    7035   10796
CTETRA      8866       1   17795   16013     809     971   16193    7239+
+           7238    9010    7803   10797
CTETRA      8867       1   16013     162     809     971    6531    6535+
+           7239    7803    9289   10797
CTETRA      8868       1   16341     172     162     809    4841    4209+
+           4840   10796    6536    6535
CTETRA      8869       1   13639     119     806     811    7903    6555+
+          10690   10798    6558    6557
CTETRA      8870       1   13639     142     119     811    6828    1800+
+           7903   10798    7901    6558
CTETRA      8871       1   13639     111     142     811    6341    7357+
+           6828   10798    7902    7901
CTETRA      8872       1   13639     806     111     811   10690    6509+
+           6341   10798    6557    7902
CTETRA      8873       1   17199   11512     206     812   11555   10799+
+           8169    9250   10800    9873
CTETRA      8874       1   11660     812     206    1194    8900    9873+
+           8526   10801   10802   10803
CTETRA      8875       1   11660     812     253    1159    8900   10804+
+           9299    9300   10805    9301
CTETRA      8876       1   18084     812   15337     253    6559   10806+
+          15469    9374   10804    2178
CTETRA      8877       1   17199   18084   11512     812   17208   11556+
+          11555    9250    6559   10800
CTETRA      8878       1   18084   11512     812     253   11556   10800+
+           6559    9374   10807   10804
CTETRA      8879       1   11660     253     812    1194    9299   10804+
+           8900   10801   10808   10802
CTETRA      8880       1   11660   11669     253    1194   11678    8776+
+           9299   10801   10809   10808
CTETRA      8881       1   11669     253    1076     865    8776   10810+
+           9946    6958   10811    9948
CTETRA      8882       1   18085     253   11755    1076    2179   10812+
+          11786    8947   10810    8522
CTETRA      8883       1   17229   18085   11512     253   17230   11553+
+          11554    2177    2179   10807
CTETRA      8884       1   18084   17229   11512     253   17231   11554+
+          11556    9374    2177   10807
CTETRA      8885       1   11660     813     812    1159    8156    6562+
+           8900    9300   10813   10805
CTETRA      8886       1   11660     920     813    1159    7380    8157+
+           8156    9300    9406   10813
CTETRA      8887       1   17605   15336   15337     813   15461   15465+
+          15468    9369   10814   10815
CTETRA      8888       1   18084   17605   15337     813   17613   15468+
+          15469    6561    9369   10815
CTETRA      8889       1   18084   15337     812     813   15469   10806+
+           6559    6561   10815    6562
CTETRA      8890       1   16984     124     122     814   10816    1654+
+           9799   10817    8292    6571
CTETRA      8891       1   17996     814     124    1065    8499    8292+
+           8498    8451   10818    9806
CTETRA      8892       1   17996   18112     814    1065   18000    6570+
+           8499    8451   10819   10818
CTETRA      8893       1   18112   16984     122     814   17125    9799+
+           6569    6570   10817    6571
CTETRA      8894       1   15535   15548     639     815   15649    6591+
+           4596   10820   10821    6588
CTETRA      8895       1   15548     272     639     815    2268    6585+
+           6591   10821    6589    6588
CTETRA      8896       1   15548     273     272     815    9964    2273+
+           2268   10821    9965    6589
CTETRA      8897       1   17687     273   15548     815    8274    9964+
+          15661    8941    9965   10821
CTETRA      8898       1   17687   15548   17688     815   15661   15662+
+          17691    8941   10821    8300
CTETRA      8899       1   17688   15548   15535     815   15662   15649+
+          15657    8300   10821   10820
CTETRA      8900       1   13454     859      94     820    7960    7219+
+           8828   10822    7221    6628
CTETRA      8901       1   11571     820     859     924    8825    7221+
+           7421    7424   10823    7425
CTETRA      8902       1   18012     820   11571     924    8054    8825+
+          11647    9013   10823    7424
CTETRA      8903       1   18012   13454   18013     820   13917   13915+
+          18018    8054   10822    7856
CTETRA      8904       1   18013   13454   13430     820   13915   13916+
+          13807    7856   10822   10824
CTETRA      8905       1   13430   13454      94     820   13916    8828+
+           8827   10824   10822    6628
CTETRA      8906       1   13430     820      94     821   10824    6628+
+           8827   10825    6632    6631
CTETRA      8907       1   18013     820   13430     821    7856   10824+
+          13807    7857    6632   10825
CTETRA      8908       1   18013   13430   18014     821   13807   13806+
+          18017    7857   10825    8059
CTETRA      8909       1   18014   11573     821    1115   11643    8058+
+           8059    8856    8858   10826
CTETRA      8910       1   11573      94     821    1115    2969    6631+
+           8058    8858    8946   10826
CTETRA      8911       1   13457     674     675     856    5118    4955+
+          10532   10827    8229   10533
CTETRA      8912       1   13427     674   13457     856    5286    5118+
+          13920   10828    8229   10827
CTETRA      8913       1   17523   13427   13457     856   13918   13920+
+          13919    6898   10828   10827
CTETRA      8914       1   17523   13457     675     856   13919   10532+
+           6890    6898   10827   10533
CTETRA      8915       1   12004     823     646     824   10150    6651+
+           4634   10829    6655    6654
CTETRA      8916       1   17357     823   12004     824    8686   10150+
+          12291    8479    6655   10829
CTETRA      8917       1   17357   12004   17358     824   12291   12279+
+          17371    8479   10829    8480
CTETRA      8918       1   17358   12004     248     824   12279    9931+
+           6617    8480   10829    9932
CTETRA      8919       1   12004     646     248     824    4634    8694+
+           9931   10829    6654    9932
CTETRA      8920       1   12787     425   12788     825    8710    6388+
+          13089   10830    6661   10831
CTETRA      8921       1   12611     825     425     986    6659    6661+
+           6619    7890   10832    9167
CTETRA      8922       1   17474     825   12611     986    9052    6659+
+          12654    8711   10832    7890
CTETRA      8923       1   17474   12787   12788     825   13087   13089+
+          13092    9052   10830   10831
CTETRA      8924       1   12787     425     825     986    8710    6661+
+          10830   10833    9167   10832
CTETRA      8925       1   12787   12801     425     986   13144    7923+
+           8710   10833   10834    9167
CTETRA      8926       1   17475   12801   12787     986   13145   13144+
+          13088    7889   10834   10833
CTETRA      8927       1   17474   17475   12787     986   17484   13088+
+          13087    8711    7889   10833
CTETRA      8928       1   17474   12787     825     986   13087   10830+
+           9052    8711   10833   10832
CTETRA      8929       1   12740   12760     454     943   12990    3297+
+           4993   10835   10836    7559
CTETRA      8930       1   17413   12760   12740     943   12991   12990+
+          12989    9264   10836   10835
CTETRA      8931       1   17413   12740     464     943   12989   10208+
+           7571    9264   10835   10209
CTETRA      8932       1   12740     454     464     943    4993    6671+
+          10208   10835    7559   10209
CTETRA      8933       1   12022     765     459     826   10705    6681+
+           7410   10837    6684    6683
CTETRA      8934       1   17352     765   12022     826    6096   10705+
+          12362    7240    6684   10837
CTETRA      8935       1   17352   12022   17353     826   12362   12352+
+          17378    7240   10837    7241
CTETRA      8936       1   17353   12616     826     948   12673    7584+
+           7241    7599    7601   10838
CTETRA      8937       1   12616     530     826     948    7532    7585+
+           7584    7601    8038   10838
CTETRA      8938       1   12022     459     530     826    7410    7150+
+           7583   10837    6683    7585
CTETRA      8939       1   17291     609   12008     827    4354   10423+
+          12301    8431    6688   10839
CTETRA      8940       1   17291   12008   17292     827   12301   12303+
+          17324    8431   10839    8432
CTETRA      8941       1   17292   12008     608     827   12303   10420+
+           8495    8432   10839   10421
CTETRA      8942       1   12008     241     608     827    6615    8245+
+          10420   10839    6687   10421
CTETRA      8943       1   12008     609     241     827   10423    4731+
+           6615   10839    6688    6687
CTETRA      8944       1   17419   12706   12719     828   12815   12814+
+          12816    8241   10840   10841
CTETRA      8945       1   17419   12435     828    1070   12553    7620+
+           8241    8706    8485   10842
CTETRA      8946       1   12435     494     828    1070    3530    6691+
+           7620    8485    9273   10842
CTETRA      8947       1   12706     494   12719     828    7675    7610+
+          12814   10840    6691   10841
CTETRA      8948       1   17419   12706     828     829   12815   10840+
+           8241    8870   10843    6694
CTETRA      8949       1   12706     494     828     829    7675    6691+
+          10840   10843    6695    6694
CTETRA      8950       1   12706     503     494     829   10266    3570+
+           7675   10843   10268    6695
CTETRA      8951       1   17420     503   12706     829    5579   10266+
+          13007    8871   10268   10843
CTETRA      8952       1   17419   17420   12706     829   17440   13007+
+          12815    8870    8871   10843
CTETRA      8953       1   18092     148   11988     830    7090    9822+
+          12212    8682    7696   10844
CTETRA      8954       1   18092   15328     830     984   15422    6707+
+           8682    7877    7879   10845
CTETRA      8955       1   15328     558     830     984    3973    6708+
+           6707    7879    9170   10845
CTETRA      8956       1   11988     147     558     830    7693    3951+
+           7068   10844    7246    6708
CTETRA      8957       1   11988     148     147     830    9822    1727+
+           7693   10844    7696    7246
CTETRA      8958       1   11988     830     558     984   10844    6708+
+           7068   10846   10845    9170
CTETRA      8959       1   18092     830   11988     984    8682   10844+
+          12212    7877   10845   10846
CTETRA      8960       1   18092   11988   17380     984   12212   12211+
+          17387    7877   10846    7878
CTETRA      8961       1   17380   11988     558     984   12211    7068+
+           3971    7878   10846    9170
CTETRA      8962       1   16778     386      71     831   10119    6711+
+           9674   10847    6714    6713
CTETRA      8963       1   16778     840     386     831   10118    6756+
+          10119   10847    6758    6714
CTETRA      8964       1   16778   17129     840     831   10848   10116+
+          10118   10847    9686    6758
CTETRA      8965       1   16778      72   17129     831    9691    9684+
+          10848   10847    8786    9686
CTETRA      8966       1   16778      72     831    1068    9691    8786+
+          10847    8848    9692   10849
CTETRA      8967       1   16778     831      71    1068   10847    6713+
+           9674    8848   10849    9675
CTETRA      8968       1   16769     835   16778     967   10850   10851+
+          16801    9362   10852    9363
CTETRA      8969       1   16778     835      73     967   10851    6735+
+           9688    9363   10852    9687
CTETRA      8970       1   16778      72      73     835    9691    1477+
+           9688   10851    8458    6735
CTETRA      8971       1   16778   17129      72     835   10848    9684+
+           9691   10851    9685    8458
CTETRA      8972       1   16778     840   17129     835   10118   10116+
+          10848   10851    8843    9685
CTETRA      8973       1   16769     840   16778     835    9694   10118+
+          16801   10850    8843   10851
CTETRA      8974       1   16769     835     967    1141   10850   10852+
+           9362    9698    9104   10853
CTETRA      8975       1   13193      73     835    1104    1478    6735+
+           6734   10854   10855   10856
CTETRA      8976       1      72    1068      73    1104    9692    9690+
+           1477   10857   10858   10855
CTETRA      8977       1   17884   13193     967    1104   13355   10859+
+           7764    8747   10854    8748
CTETRA      8978       1   17884   13193   13192     967   13355   13357+
+          13356    7764   10859    7765
CTETRA      8979       1   16769    1141     967    1184    9698   10853+
+           9362    9716   10860   10861
CTETRA      8980       1      73    1068     967    1104    9690    9689+
+           9687   10855   10858    8748
CTETRA      8981       1   16954    1068      72    1104   10862    9692+
+           8068   10863   10858   10857
CTETRA      8982       1   16954     831      72    1068    7483    8786+
+           8068   10862   10849    9692
CTETRA      8983       1   16954      71     831    1068    7482    6713+
+           7483   10862    9675   10849
CTETRA      8984       1   16779    1068      71    1009    8849    9675+
+           9673    8045   10864    9676
CTETRA      8985       1   17894    1068   16779    1009    8847    8849+
+          16832    8459   10864    8045
CTETRA      8986       1   17893   17894   16954    1068   17903   16994+
+          17114    9100    8847   10862
CTETRA      8987       1   17893   16954   16983    1068   17114   17121+
+          17120    9100   10862    8473
CTETRA      8988       1   17884   16983   16954    1068   17117   17121+
+          16986    8474    8473   10862
CTETRA      8989       1   17884    1068   16954    1104    8474   10862+
+          16986    8747   10858   10863
CTETRA      8990       1   16769     836    1184     848   10865   10866+
+           9716    6827   10867    9718
CTETRA      8991       1   16769     836    1141    1184   10865   10868+
+           9698    9716   10866   10860
CTETRA      8992       1   16769     836    1120    1141   10865   10869+
+           8905    9698   10868    9699
CTETRA      8993       1   16769    1120     836     848    8905   10869+
+          10865    6827    9361   10867
CTETRA      8994       1   13462   13661     836    1120   14641    6992+
+           6991   10870   10871   10869
CTETRA      8995       1   18049   13661   13462    1120   14620   14641+
+          13952    8903   10871   10870
CTETRA      8996       1   18049   16770    1120     837   16849    8904+
+           8903    6743    6745   10872
CTETRA      8997       1   16770      69    1120     837    9213    9215+
+           8904    6745    7268   10872
CTETRA      8998       1   13462      74      69    1120    9404    9655+
+           9658   10870    9657    9215
CTETRA      8999       1      74      75    1120     838    1483    9696+
+           9657    9700    9702   10873
CTETRA      9000       1   13462      74    1120     838    9404    9657+
+          10870    9701    9700   10873
CTETRA      9001       1   13462    1120     836     838   10870   10869+
+           6991    9701   10873    6747
CTETRA      9002       1     836    1120    1141     838   10869    9699+
+          10868    6747   10873   10874
CTETRA      9003       1   13193    1141      75     838   10875    9101+
+           8850    6748   10874    9702
CTETRA      9004       1   17932      75   13193    1141    1482    8850+
+          13359    9102    9101   10875
CTETRA      9005       1   17932   13193     835    1141   13359    6734+
+           6733    9102   10875    9104
CTETRA      9006       1   13193     967     835    1141   10859   10852+
+           6734   10875   10853    9104
CTETRA      9007       1   13192     967   13193    1141    7765   10859+
+          13357   10876   10853   10875
CTETRA      9008       1   13192   13193     836    1141   13357    6737+
+           8472   10876   10875   10868
CTETRA      9009       1   17935     833   13657     839    6729    9668+
+          14600    7324    6751   10877
CTETRA      9010       1   17935   13657   13462     839   14600   14629+
+          13951    7324   10877   10878
CTETRA      9011       1   18050   13462   13657     839   13953   14629+
+          14597    6754   10878   10877
CTETRA      9012       1   18050   16771     839    1018   16847    6750+
+           6754    9053    8100   10879
CTETRA      9013       1   16771     833     839    1018    6742    6751+
+           6750    8100    9670   10879
CTETRA      9014       1   17935     833   17128     911    6729    9667+
+          17140    8767    9669   10880
CTETRA      9015       1   17935   17128   17936     911   17140   17154+
+          17952    8767   10880    7318
CTETRA      9016       1   17936   17128   17130     911   17154   17155+
+          17153    7318   10880   10881
CTETRA      9017       1   16771   17128     911    1088   10777   10880+
+           9217    8600   10779    9219
CTETRA      9018       1   16771   17128     833     911   10777    9667+
+           6742    9217   10880    9669
CTETRA      9019       1   13657    1018     911     882   10882    9218+
+           7317    7320   10883    7321
CTETRA      9020       1   13657     833     911    1018    9668    9669+
+           7317   10882    9670    9218
CTETRA      9021       1   13657     839     833    1018   10877    6751+
+           9668   10882   10879    9670
CTETRA      9022       1   18050     839   13657    1018    6754   10877+
+          14597    9053   10879   10882
CTETRA      9023       1   18050   13657   18051    1018   14597   14596+
+          18061    9053   10882    8101
CTETRA      9024       1   18051   13657   13391    1018   14596   14598+
+          13667    8101   10882   10884
CTETRA      9025       1   13391    1018   13657     882   10884   10882+
+          14598    8389   10883    7320
CTETRA      9026       1   17422     313   12768     726    5609   10037+
+          13006    5522    6753   10885
CTETRA      9027       1   17421   17422   12768     726   17442   13006+
+          13005    5520    5522   10885
CTETRA      9028       1   17421   12768     653     726   13005   10497+
+           6436    5520   10885   10498
CTETRA      9029       1   12768     126     653     726    7718    7258+
+          10497   10885    6752   10498
CTETRA      9030       1   12768     313     126     726   10037    2454+
+           7718   10885    6753    6752
CTETRA      9031       1   15535     637   15593     842    4595    6583+
+          15822   10886    6786   10887
CTETRA      9032       1   18103   15535   15593     842   15658   15822+
+          15820    8812   10886   10887
CTETRA      9033       1   18103   16044     842    1062   16167    8596+
+           8812    8810    8442   10888
CTETRA      9034       1   16044     637     842    1062    6792    6786+
+           8596    8442    8444   10888
CTETRA      9035       1   15535     637     842     843    4595    6786+
+          10886   10889    6790    6789
CTETRA      9036       1   15535     639     637     843    4596    4598+
+           4595   10889    8428    6790
CTETRA      9037       1   16025     843     639    1044    8994    8428+
+           6584    8302   10890    8958
CTETRA      9038       1   18103     843   16025    1044    8813    8994+
+          16127    8986   10890    8302
CTETRA      9039       1   18103   15535     842     843   15658   10886+
+           8812    8813   10889    6789
CTETRA      9040       1   15589   15593     637     844   15838    6583+
+           8430   10891   10892    6795
CTETRA      9041       1   17669   15593   15589     844   15821   15838+
+          15830    8995   10892   10891
CTETRA      9042       1   17669   15589   17670     844   15830   15831+
+          17701    8995   10891    8943
CTETRA      9043       1   17670   16043     844    1035   16164    8944+
+           8943    8242    8244   10893
CTETRA      9044       1   16043       9     844    1035    7746    6794+
+           8944    8244    8863   10893
CTETRA      9045       1   15589     637       9     844    8430    4631+
+           1242   10891    6795    6794
CTETRA      9046       1   15557     775     267     845   10726    6187+
+           5957   10894    6800    8808
CTETRA      9047       1   17685     775   15557     845    6797   10726+
+          15681    6798    6800   10894
CTETRA      9048       1   17685   15557      68     845   15681    9961+
+           1462    6798   10894    9960
CTETRA      9049       1   15557     267      68     845    5957    2250+
+           9961   10894    8808    9960
CTETRA      9050       1   15542      92   15549     846    1556    6190+
+          15671   10895    9495   10896
CTETRA      9051       1   17684   15542   15549     846   15669   15671+
+          15672    6801   10895   10896
CTETRA      9052       1   17684   15549     775     846   15672   10725+
+           7774    6801   10896   10727
CTETRA      9053       1   15549      92     775     846    6190    6188+
+          10725   10896    9495   10727
CTETRA      9054       1   15542      92     846     847    1556    9495+
+          10895   10897    8614    6804
CTETRA      9055       1   16030     847      92     778    8615    8614+
+           4311    6199   10898    6200
CTETRA      9056       1   17683     847   16030     778    7858    8615+
+          16138    7852   10898    6199
CTETRA      9057       1   17683   15542   17684     847   15670   15669+
+          17692    7858   10897    6803
CTETRA      9058       1   17684   15542     846     847   15669   10895+
+           6801    6803   10897    6804
CTETRA      9059       1   17640   15348     393     850   15523    2926+
+           3594    6925   10899    6848
CTETRA      9060       1   15348     667     393     850    7394    6845+
+           2926   10899    6849    6848
CTETRA      9061       1   17641     667   15348     850    7392    7394+
+          15522    9230    6849   10899
CTETRA      9062       1   17640   17641   15348     850   17649   15522+
+          15523    6925    9230   10899
CTETRA      9063       1   17598   15346     477     851   15511    7400+
+           7399    7402   10900    7403
CTETRA      9064       1   15346     667     477     851    7393    4823+
+           7400   10900    6852    7403
CTETRA      9065       1   17597     667   15346     851    6817    7393+
+          15519    6850    6852   10900
CTETRA      9066       1   17597   15346   17598     851   15519   15511+
+          17619    6850   10900    7402
CTETRA      9067       1   17986    1119     672    1172    8897   10527+
+           9251    9443   10901   10526
CTETRA      9068       1   17264   11756    1119    1172   11792   10902+
+           8898   10903   10525   10901
CTETRA      9069       1   17264   11756    1090    1119   11792   10683+
+           8610    8898   10902   10684
CTETRA      9070       1   11756      86    1090    1119    5892    9401+
+          10683   10902   10528   10684
CTETRA      9071       1   11756     672      86    1119   10522    4936+
+           5892   10902   10527   10528
CTETRA      9072       1   15339     672     754     855    4935    9252+
+          10672   10904    6893   10670
CTETRA      9073       1   15339      86     672     855    4932    4936+
+           4935   10904    6894    6893
CTETRA      9074       1   15339      32      86     855    1334    1524+
+           4932   10904    8158    6894
CTETRA      9075       1   15339     754      32     855   10672    9304+
+           1334   10904   10670    8158
CTETRA      9076       1   13169     560     559     858   10327    6904+
+           3953   10905    6907    6906
CTETRA      9077       1   18086     560   13169     858    3955   10327+
+          13242    7521    6907   10905
CTETRA      9078       1   18086     858   13169     937    7521   10905+
+          13242    8746   10906    7518
CTETRA      9079       1   13169     858     859     937   10905    6915+
+           7516    7518   10906    7519
CTETRA      9080       1   13169     559     859     858    3953    7030+
+           7516   10905    6906    6915
CTETRA      9081       1   17642     477   15346     544    7389    7400+
+          15512    3845    6911   10907
CTETRA      9082       1   17641   17642   15346     544   17647   15512+
+          15513    3843    3845   10907
CTETRA      9083       1   17641   15346     667     544   15513    7393+
+           7392    3843   10907    6910
CTETRA      9084       1   15346     477     667     544    7400    4823+
+           7393   10907    6911    6910
CTETRA      9085       1   18086   11778     858     937   11882    6914+
+           7521    8746   10908   10906
CTETRA      9086       1   11778     859     858     937    6912    6915+
+           6914   10908    7519   10906
CTETRA      9087       1   13170     937     859     995    7520    7519+
+           7517    8009   10909    9385
CTETRA      9088       1   18086     937   13170     995    8746    7520+
+          13241    8008   10909    8009
CTETRA      9089       1   13170     859     860     913    7517    8215+
+           6917    7340    8839   10910
CTETRA      9090       1   13455     859   13456     860    7961    9120+
+          13909   10911    8215   10912
CTETRA      9091       1   17525   13455   13456     860   13906   13909+
+          13908    6916   10911   10912
CTETRA      9092       1   17525   13170     860     913   13232    6917+
+           6916    7338    7340   10910
CTETRA      9093       1   11570     913      38    1156    8838    9458+
+           1348    9267   10913    9268
CTETRA      9094       1   11570     859     913    1156    8736    8839+
+           8838    9267   10914   10913
CTETRA      9095       1   13456     860     859     913   10912    8215+
+           9120   10915   10910    8839
CTETRA      9096       1   17525     860   13456     913    6916   10912+
+          13908    7338   10910   10915
CTETRA      9097       1   17525   13456   17526     913   13908   13910+
+          17530    7338   10915    7339
CTETRA      9098       1   17526   13456   13664     913   13910   14636+
+          14638    7339   10915   10916
CTETRA      9099       1   13456      38   13664     913    9623    9622+
+          14636   10915    9458   10916
CTETRA      9100       1   13592     440     318     861    5719    5720+
+           5718   10917    6935    6932
CTETRA      9101       1   17511     440   13592     861    7159    5719+
+          14366    7160    6935   10917
CTETRA      9102       1   17511   13592   17512     861   14366   14365+
+          17537    7160   10917    6931
CTETRA      9103       1   17512   13592     318     861   14365    5718+
+           6927    6931   10917    6932
CTETRA      9104       1   17800   17801   16373     862   17822   16614+
+          16612    8195    8643   10918
CTETRA      9105       1   17800   16008     862    1149   16203    8196+
+           8195    9342    9187   10919
CTETRA      9106       1   16008     267     862    1149    6189    9181+
+           8196    9187    9186   10919
CTETRA      9107       1   16373     268     267     862    2244    2246+
+           2243   10918    6946    9181
CTETRA      9108       1   16372     268   16373     862    6944    2244+
+          16615   10920    6946   10918
CTETRA      9109       1   17801   16372   16373     862   16609   16615+
+          16614    8643   10920   10918
CTETRA      9110       1   17801   16372     862     863   16609   10920+
+           8643    8644   10921    6949
CTETRA      9111       1   16372     268     862     863    6944    6946+
+          10920   10921    6950    6949
CTETRA      9112       1   16006     863     268    1060    8992    6950+
+           2275    8425   10922    8426
CTETRA      9113       1   17801     863   16006    1060    8644    8992+
+          16208    9029   10922    8425
CTETRA      9114       1   18029     866   13438     867    6965   10645+
+          13839    6966    6968   10923
CTETRA      9115       1   18029   13438     591     867   13839   10380+
+           8816    6966   10923   10381
CTETRA      9116       1   13438     588     591     867    6246    5039+
+          10380   10923    7362   10381
CTETRA      9117       1   13438     866     588     867   10645    7361+
+           6246   10923    6968    7362
CTETRA      9118       1   17414   12710   12760     868   12902   13000+
+          12999    7714   10924   10925
CTETRA      9119       1   12710     461   12760     868    4608    3322+
+          13000   10924    6978   10925
CTETRA      9120       1   12432     868     461     869    6979    6978+
+           6976    6981   10926    8700
CTETRA      9121       1   17415     868   12432     869    9258    6979+
+          12546    6980   10926    6981
CTETRA      9122       1   17414   17415   12710     868   17435   12901+
+          12902    7714    9258   10924
CTETRA      9123       1   12710     596     461     869    4609    4611+
+           4608   10927    7785    8700
CTETRA      9124       1   12710   12737     596     869   12904    4916+
+           4609   10927   10928    7785
CTETRA      9125       1   17415   12737   12710     869   12906   12904+
+          12901    6980   10928   10927
CTETRA      9126       1   17415   12710     868     869   12901   10924+
+           9258    6980   10927   10926
CTETRA      9127       1   12710     461     868     869    4608    6978+
+          10924   10927    8700   10926
CTETRA      9128       1   12737     596     869     870    4916    7785+
+          10928   10929    7782    6983
CTETRA      9129       1   12433     870     596     872    7783    7782+
+           7619    6989   10930    7756
CTETRA      9130       1   17416     870   12433     872    8234    7783+
+          12548    6988   10930    6989
CTETRA      9131       1   17415   17416   12737     870   17436   12903+
+          12906    6982    8234   10929
CTETRA      9132       1   17415   12737     869     870   12906   10928+
+           6980    6982   10929    6983
CTETRA      9133       1   12714     780   12737     871    6999    7759+
+          12899   10931    8714   10932
CTETRA      9134       1   12434     871     780    1033    8715    8714+
+           7769    8237   10933    9206
CTETRA      9135       1   17417     871   12434    1033    8981    8715+
+          12550    8236   10933    8237
CTETRA      9136       1   17416   17417   12714     871   17437   12865+
+          12900    6987    8981   10931
CTETRA      9137       1   17416   12714   12737     871   12900   12899+
+          12903    6987   10931   10932
CTETRA      9138       1   12737     871     780     872   10932    8714+
+           7759   10934    6990    7757
CTETRA      9139       1   17416     871   12737     872    6987   10932+
+          12903    6988    6990   10934
CTETRA      9140       1   17416   12737     870     872   12903   10929+
+           8234    6988   10934   10930
CTETRA      9141       1   12737     596     870     872    4916    7782+
+          10929   10934    7756   10930
CTETRA      9142       1   12737     780     596     872    7759    6778+
+           4916   10934    7757    7756
CTETRA      9143       1   17590   15335   17591     873   15457   15460+
+          17626    9518   10935    6996
CTETRA      9144       1   17591   15335     483     873   15460    9376+
+           3613    6996   10935    6997
CTETRA      9145       1   15335     873     383    1158   10935    7927+
+           9522    9292    9530    9297
CTETRA      9146       1   17590     383   15335     873    9517    9522+
+          15457    9518    7927   10935
CTETRA      9147       1   18117   13406   13398     874   13742   13743+
+          13702    8296   10936   10937
CTETRA      9148       1   13398   13406     165     874   13743    2553+
+           1816   10937   10936    7009
CTETRA      9149       1   13406     326     165     874    2542    7007+
+           2553   10936    7010    7009
CTETRA      9150       1   13406     327     326     874   10045    2534+
+           2542   10936   10046    7010
CTETRA      9151       1   18052     327   13406     874    8099   10045+
+          13733    8295   10046   10936
CTETRA      9152       1   18117   18052   13406     874   18056   13733+
+          13742    8296    8295   10936
CTETRA      9153       1   11580     859     768     875    7886    7024+
+          10707   10938    7028    7027
CTETRA      9154       1   11580     859     875    1195    7886    7028+
+          10938   10939   10940   10941
CTETRA      9155       1   11580     875     916    1195   10938   10942+
+          10709   10939   10941   10943
CTETRA      9156       1   11580     875     768     916   10938    7027+
+          10707   10709   10942   10710
CTETRA      9157       1   18095   13161   13171     822   13246   13245+
+          13244    6634   10944   10945
CTETRA      9158       1   18095   13171     656     822   13244   10501+
+           4721    6634   10945    6635
CTETRA      9159       1   13171     655     656     822   10323    7952+
+          10501   10945    7033    6635
CTETRA      9160       1   13171     559     655     822    3954    4957+
+          10323   10945    7034    7033
CTETRA      9161       1   13161     559   13171     822    3952    3954+
+          13245   10944    7034   10945
CTETRA      9162       1   16318     172     809     876    7431    6536+
+          10795   10946    8866    7037
CTETRA      9163       1   16011     876     172    1091    8341    8866+
+           7284    8618   10947    8619
CTETRA      9164       1   17796     876   16011    1091    7036    8341+
+          16198    9344   10947    8618
CTETRA      9165       1   17796   16318     809     876   16504   10795+
+           7035    7036   10946    7037
CTETRA      9166       1   17135     122     123     877   10948    1651+
+          10949   10950    9325    9152
CTETRA      9167       1   16875     877     122    1186    9151    9325+
+           9470    9801   10951    9802
CTETRA      9168       1   16866     877   16875    1097    7039    9151+
+          16904    9380   10952    9381
CTETRA      9169       1   16866   16867     877    1097   16909    7040+
+           7039    9380    9471   10952
CTETRA      9170       1   16867     123     877    1177    8801    9152+
+           7040    9480    9782   10953
CTETRA      9171       1   17943   13411    1097    1082   13760   10954+
+           8668    8560    8559   10955
CTETRA      9172       1   16867    1177    1097    1136    9480   10956+
+           9471    9048    9481   10957
CTETRA      9173       1   16867     877    1097    1177    7040   10952+
+           9471    9480   10953   10956
CTETRA      9174       1   16875    1097     877    1186    9381   10952+
+           9151    9801   10958   10951
CTETRA      9175       1   16875    1069    1097    1186    8483    9382+
+           9381    9801   10252   10958
CTETRA      9176       1   17943   17134   17135    1097   17171   17175+
+          17178    8668    9320   10959
CTETRA      9177       1   13411    1177     785     908   10960   10961+
+           7286    7288    9479    7289
CTETRA      9178       1   15320     123    1177     785    9780    9782+
+          10962    6281    9781   10961
CTETRA      9179       1   17135     877     123    1177   10950    9152+
+          10949   10963   10953    9782
CTETRA      9180       1   17135    1097     877    1177   10959   10952+
+          10950   10963   10956   10953
CTETRA      9181       1   13411    1177    1097    1082   10960   10956+
+          10954    8559   10964   10955
CTETRA      9182       1   17305     500   11953     880    7443   10261+
+          12077    7444    7049   10965
CTETRA      9183       1   17305   11953   17306     880   12077   12076+
+          17313    7444   10965    7577
CTETRA      9184       1   17306   11953     315     880   12076   10040+
+           7683    7577   10965   10039
CTETRA      9185       1   11953     127     315     880    6069    2466+
+          10040   10965    7048   10039
CTETRA      9186       1   11953     500     127     880   10261    3557+
+           6069   10965    7049    7048
CTETRA      9187       1   13455     859     860     881    7961    8215+
+          10911   10966    9007    8735
CTETRA      9188       1   13455     559     859     881    7962    7030+
+           7961   10966    7053    9007
CTETRA      9189       1   17524     559   13455     881    6640    7962+
+          13907    7051    7053   10966
CTETRA      9190       1   17524   13455   17525     881   13907   13906+
+          17531    7051   10966    8734
CTETRA      9191       1   17525   13455     860     881   13906   10911+
+           6916    8734   10966    8735
CTETRA      9192       1   12738     462   12758     884    4988    7266+
+          12987   10967    7070   10968
CTETRA      9193       1   18093   12738   12758     884   12917   12987+
+          12986    8729   10967   10968
CTETRA      9194       1   18093     884   12758     962    8729   10968+
+          12986    8645   10969    7721
CTETRA      9195       1   12758     884     462     962   10968    7070+
+           7266    7721   10969    7835
CTETRA      9196       1   12738     462     884     885    4988    7070+
+          10967   10970    7073    7072
CTETRA      9197       1   12738     959     462     885   10559    8490+
+           4988   10970    8491    7073
CTETRA      9198       1   12738     687     959     885   10553   10555+
+          10559   10970    9199    8491
CTETRA      9199       1   12621     885     687     686    9193    9199+
+           5129    5127   10971    8662
CTETRA      9200       1   18093     885   12621     686    8730    9193+
+          12702    5126   10971    5127
CTETRA      9201       1   18093   12738     884     885   12917   10967+
+           8729    8730   10970    7072
CTETRA      9202       1   17601   15338     199     887   15480    1960+
+           1959    8179   10972    8933
CTETRA      9203       1   13507     887     199     891    7111    8933+
+           2871    7138   10973    9216
CTETRA      9204       1   17600     887   13507     891    7109    7111+
+          14073    7137   10973    7138
CTETRA      9205       1   17600   15338   17601     887   15494   15480+
+          17616    7109   10972    8179
CTETRA      9206       1   15338   15343     199     891   15495    8164+
+           1960   10974   10975    9216
CTETRA      9207       1   17600   15343   15338     891   15496   15495+
+          15494    7137   10975   10974
CTETRA      9208       1   17600   15338     887     891   15494   10972+
+           7109    7137   10974   10973
CTETRA      9209       1   15338     199     887     891    1960    8933+
+          10972   10974    9216   10973
CTETRA      9210       1   12749     530     459     888    7630    7150+
+           7086   10976    7153    7152
CTETRA      9211       1   12616     888     530     939    7118    7153+
+           7532    7535   10977    7536
CTETRA      9212       1   17468     888   12616     939    7116    7118+
+          12676    8727   10977    7535
CTETRA      9213       1   17468   12749     460     888   12938   10204+
+           7646    7116   10976    7647
CTETRA      9214       1   12749     459     460     888    7086    3321+
+          10204   10976    7152    7647
CTETRA      9215       1   17468   17469   12749     939   17489   12932+
+          12938    8727    7534   10978
CTETRA      9216       1   17468   12749     888     939   12938   10976+
+           7116    8727   10978   10977
CTETRA      9217       1   12749     530     888     939    7630    7153+
+          10976   10978    7536   10977
CTETRA      9218       1   17469     530   12749     939    7533    7630+
+          12932    7534    7536   10978
CTETRA      9219       1   12751   12752     458     889   12944    3706+
+           7667   10979   10980    7131
CTETRA      9220       1   12752   12753     458     889   12951    7122+
+           3706   10980   10981    7131
CTETRA      9221       1   17466   12753   12752     889   12952   12951+
+          12953    8872   10981   10980
CTETRA      9222       1   17466   12752   12751     889   12953   12944+
+          12942    8872   10980   10979
CTETRA      9223       1   12753     458     889     890    7122    7131+
+          10981   10982    7134    7133
CTETRA      9224       1   12753     460     458     890   10203    3320+
+           7122   10982   10202    7134
CTETRA      9225       1   17467     460   12753     890    8481   10203+
+          12948    8879   10202   10982
CTETRA      9226       1   17466   17467   12753     890   17491   12948+
+          12952    8878    8879   10982
CTETRA      9227       1   17466   12753     889     890   12952   10981+
+           8872    8878   10982    7133
CTETRA      9228       1   14747     318     440     893    4999    5720+
+           3228   10983    8875    7165
CTETRA      9229       1   17556     318   14747     893    3251    4999+
+          15107    8874    8875   10983
CTETRA      9230       1   17555   17556   14747     893   17571   15107+
+          15109    7164    8874   10983
CTETRA      9231       1   17555   14747     440     893   15109    3228+
+           7162    7164   10983    7165
CTETRA      9232       1   17875     750   16365     894    5865    5840+
+          16642    8359    7172   10984
CTETRA      9233       1   18106   17875   16365     894   17883   16642+
+          16761    8388    8359   10984
CTETRA      9234       1   18106   16365     217     894   16761    5839+
+           2053    8388   10984    7171
CTETRA      9235       1   16365     750     217     894    5840    5842+
+           5839   10984    7172    7171
CTETRA      9236       1   16398     896      14     779   10623    7182+
+           1287   10985    7185    7184
CTETRA      9237       1   17786     896   16398     779    8317   10623+
+          16728    6213    7185   10985
CTETRA      9238       1   17785   17786   16398     779   17807   16728+
+          16726    6211    6213   10985
CTETRA      9239       1   17785   16398     712     779   16726   10617+
+           8105    6211   10985   10618
CTETRA      9240       1   16398      14     712     779    1287    5323+
+          10617   10985    7184   10618
CTETRA      9241       1   15562     760      46     897   10694    6018+
+           8087   10986    9450    8111
CTETRA      9242       1   17763     760   15562     897    8830   10694+
+          15721    7186    9450   10986
CTETRA      9243       1   17763   15314     897    1021   15356    7187+
+           7186    8119    8118   10987
CTETRA      9244       1   15314      46     897    1021    8110    8111+
+           7187    8118    8146   10987
CTETRA      9245       1   18101   15562   17710    1021   15720   15719+
+          17728    8117   10988    8145
CTETRA      9246       1   17710   15562      46    1021   15719    8087+
+           6023    8145   10988    8146
CTETRA      9247       1   15562     897      46    1021   10986    8111+
+           8087   10988   10987    8146
CTETRA      9248       1   17763     897   15562    1021    7186   10986+
+          15721    8119   10987   10988
CTETRA      9249       1   18101   17763   15562    1021   17768   15721+
+          15720    8117    8119   10988
CTETRA      9250       1   15585      58   15615     898    7779    1529+
+          16004   10989    7191   10990
CTETRA      9251       1   17674   15585   15615     898   16003   16004+
+          16002    8289   10989   10990
CTETRA      9252       1   17674   15615      85     898   16002    9729+
+           2431    8289   10990    9730
CTETRA      9253       1   15615      58      85     898    1529    1520+
+           9729   10990    7191    9730
CTETRA      9254       1   15585      58     898     899    7779    7191+
+          10989   10991    7194    7193
CTETRA      9255       1   15585     214      58     899    9882    2022+
+           7779   10991    9881    7194
CTETRA      9256       1   17673     214   15585     899    8323    9882+
+          15901    8328    9881   10991
CTETRA      9257       1   17673   15585   17674     899   15901   16003+
+          17709    8328   10991    8290
CTETRA      9258       1   17674   15585     898     899   16003   10989+
+           8289    8290   10991    7193
CTETRA      9259       1   15329     541     482     900    8097    7880+
+           7176   10992    8152    7206
CTETRA      9260       1   17637     541   15329     900    3820    8097+
+          15451    7587    8152   10992
CTETRA      9261       1   17636   17637   15329     900   17652   15451+
+          15450    7205    7587   10992
CTETRA      9262       1   17636   15329     482     900   15450    7176+
+           7200    7205   10992    7206
CTETRA      9263       1   17591     483   15334     901    3613    9526+
+          15447    9525    9207   10993
CTETRA      9264       1   17591   15334   17592     901   15447   15446+
+          17624    9525   10993    7208
CTETRA      9265       1   17592   15334     482     901   15446    7175+
+           7174    7208   10993    7209
CTETRA      9266       1   15334     483     482     901    9526    3470+
+           7175   10993    9207    7209
CTETRA      9267       1   16341     162     156     971    4840    4182+
+           9011   10994    9289    7802
CTETRA      9268       1   16341     809     162     971   10796    6535+
+           4840   10994   10797    9289
CTETRA      9269       1   17795     809   16341     971    7238   10796+
+          16510    9010   10797   10994
CTETRA      9270       1   17795   16341   16314     971   16510   16508+
+          16505    9010   10994   10995
CTETRA      9271       1   16314   16341     156     971   16508    9011+
+           7795   10995   10994    7802
CTETRA      9272       1   16397       9     647     902    7745    4643+
+          10490   10996    7245    7741
CTETRA      9273       1   16023     902       9    1045    7243    7245+
+           5319    8315   10997    8798
CTETRA      9274       1   17784     902   16023    1045    8591    7243+
+          16174    8314   10997    8315
CTETRA      9275       1   17784   16397     647     902   16722   10490+
+           8590    8591   10996    7741
CTETRA      9276       1   16397     712       9    1045   10619    5322+
+           7745   10998    8594    8798
CTETRA      9277       1   17785     712   16397    1045    8105   10619+
+          16724    8316    8594   10998
CTETRA      9278       1   17784   17785   16397    1045   17806   16724+
+          16722    8314    8316   10998
CTETRA      9279       1   17784   16397     902    1045   16722   10996+
+           8591    8314   10998   10997
CTETRA      9280       1   16397       9     902    1045    7745    7245+
+          10996   10998    8798   10997
CTETRA      9281       1   17935     839   13462     837    7324   10878+
+          13951    7267    6755   10999
CTETRA      9282       1   17935   13462      69     837   13951    9658+
+           6727    7267   10999    7268
CTETRA      9283       1   13462    1120      69     837   10870    9215+
+           9658   10999   10872    7268
CTETRA      9284       1   18049    1120   13462     837    8903   10870+
+          13952    6743   10872   10999
CTETRA      9285       1   18049   13462   18050     837   13952   13953+
+          18058    6743   10999    6744
CTETRA      9286       1   18050   13462     839     837   13953   10878+
+           6754    6744   10999    6755
CTETRA      9287       1   16976     423     905     906    7337    8793+
+          10659   11000    9092    7278
CTETRA      9288       1   16976     804     423     906   10787    6498+
+           7337   11000   10788    9092
CTETRA      9289       1   17911     804   16976     906    8120   10787+
+          17078    7277   10788   11000
CTETRA      9290       1   17911   16976     905     906   17078   10659+
+           7275    7277   11000    7278
CTETRA      9291       1   15316      46     907    1061    6015    9177+
+           7282    8437    9347   11001
CTETRA      9292       1   17825      46   16384     907    3219    8563+
+          16664    9178    9177   11002
CTETRA      9293       1   18109   17825   16384     907   17842   16664+
+          16663    8433    9178   11002
CTETRA      9294       1   17878   18109   16384     907   17879   16663+
+          16661    7281    8433   11002
CTETRA      9295       1   17878   15316     907    1061   15355    7282+
+           7281    8435    8437   11001
CTETRA      9296       1   16384      46     631    1061    8563    9346+
+          10472   11003    9347    8436
CTETRA      9297       1   16384     907      46    1061   11002    9177+
+           8563   11003   11001    9347
CTETRA      9298       1   17878     907   16384    1061    7281   11002+
+          16661    8435   11001   11003
CTETRA      9299       1   17878   16384     631    1061   16661   10472+
+           8434    8435   11003    8436
CTETRA      9300       1   17135     123    1137     785   10949    9779+
+          11004   11005    9781    9074
CTETRA      9301       1   17135    1177     123     785   10963    9782+
+          10949   11005   10961    9781
CTETRA      9302       1   13411     785    1177    1082    7286   10961+
+          10960    8559   11006   10964
CTETRA      9303       1   18100     785   13411    1082    6279    7286+
+          13759    8558   11006    8559
CTETRA      9304       1   18100   17135   17973     785   17179   17177+
+          17975    6279   11005    6280
CTETRA      9305       1   18113   17973   17135     785   17974   17177+
+          17176    8562    6280   11005
CTETRA      9306       1   18113   17135    1137     785   17176   11004+
+           9061    8562   11005    9074
CTETRA      9307       1   16867    1177     908     786    9480    9479+
+           9047    6282    9784   11007
CTETRA      9308       1   15320     785    1177     908    6281   10961+
+          10962   11008    7289    9479
CTETRA      9309       1   18100     785   15320     908    6279    6281+
+          15382    7287    7289   11008
CTETRA      9310       1   17582   18100   15320     908   17607   15382+
+          15381    8666    7287   11008
CTETRA      9311       1   17582   15320     349     908   15381   10072+
+           2660    8666   11008   10074
CTETRA      9312       1   15320      12     349     908   10073    9541+
+          10072   11008    9046   10074
CTETRA      9313       1   16867     908      12     786    9047    9046+
+           1250    6282   11007    6283
CTETRA      9314       1   17135    1177     785    1082   10963   10961+
+          11005   11009   10964   11006
CTETRA      9315       1   17135    1097    1177    1082   10959   10956+
+          10963   11009   10955   10964
CTETRA      9316       1   17943    1097   17135    1082    8668   10959+
+          17178    8560   10955   11009
CTETRA      9317       1   18100   17943   17135    1082   17950   17178+
+          17179    8558    8560   11009
CTETRA      9318       1   18100   17135     785    1082   17179   11005+
+           6279    8558   11009   11006
CTETRA      9319       1   11507     706     227    1154   11010    9894+
+          11011   11012    9906    9896
CTETRA      9320       1   11567    1154     706    1125    9907    9906+
+           9090    8948   11013   11014
CTETRA      9321       1   17191   11507    1154    1057   11523   11012+
+           9235    8411    9318    9467
CTETRA      9322       1   18083   17191   11507    1154   17201   11523+
+          11526    9233    9235   11012
CTETRA      9323       1   18083   11507     227    1154   11526   11011+
+           9096    9233   11012    9896
CTETRA      9324       1   11577    1175     940    1008    9462   11015+
+           9452    8042    9772   11016
CTETRA      9325       1   11577     229     940    1175    8555    9897+
+           9452    9462   11017   11015
CTETRA      9326       1   11507     227     229     940   11011    2079+
+          11018   11019    9140    9897
CTETRA      9327       1   18083     227   11507     940    9096   11011+
+          11526    9139    9140   11019
CTETRA      9328       1   17188   18083   11507     940   17189   11526+
+          11527    7543    9139   11019
CTETRA      9329       1   18082   17188   11507     940   17190   11527+
+          11529    7541    7543   11019
CTETRA      9330       1   18082   11779     940    1176   11886   11020+
+           7541    9464    9466   11021
CTETRA      9331       1   11507     227     706     910   11011    9894+
+          11010   11022    7303    9091
CTETRA      9332       1   11507     229     227     910   11018    2079+
+          11011   11022    7304    7303
CTETRA      9333       1   11577     910     229    1175    8548    7304+
+           8555    9462   11023   11017
CTETRA      9334       1   11567     910   11577    1125    8547    8548+
+          11593    8948   11024    8949
CTETRA      9335       1   11567     706     910    1125    9090    9091+
+           8547    8948   11014   11024
CTETRA      9336       1   17130     911    1018     882   10881    9218+
+          11025    7062    7321   10883
CTETRA      9337       1   17936     911   17130     882    7318   10881+
+          17153    7319    7321    7062
CTETRA      9338       1   17936   17937   13391     882   17944   13666+
+          13665    7319    7061    8389
CTETRA      9339       1   13391    1018     882    1191   10884   10883+
+           8389   10049   11026   11027
CTETRA      9340       1   17130    1018     911    1088   11025    9218+
+          10881   11028    8920    9219
CTETRA      9341       1   13391    1088    1018    1191   11029    8920+
+          10884   10049   11030   11026
CTETRA      9342       1   13391     328    1088    1191   10047    8601+
+          11029   10049   10051   11030
CTETRA      9343       1   16772    1088     328    1048    8602    8601+
+           2535    8338   11031    8339
CTETRA      9344       1   16772   16781    1088    1179   16813    8991+
+           8602    9487    9489   11032
CTETRA      9345       1   16781     912    1088    1179    8580   10782+
+           8991    9489   10783   11032
CTETRA      9346       1   17130     800     912    1088   10780    7333+
+          10781   11028   10778   10782
CTETRA      9347       1   17128     800   17130    1088   10776   10780+
+          17155   10779   10778   11028
CTETRA      9348       1   17128   17130     911    1088   17155   10881+
+          10880   10779   11028    9219
CTETRA      9349       1   13464     813     919    1182    6563    8155+
+          11033    9510    9509   11034
CTETRA      9350       1   18025   13464     919    1182   13961   11033+
+           7376    9592    9510   11034
CTETRA      9351       1   18025   13464     206     919   13961    9872+
+           8534    7376   11033    9874
CTETRA      9352       1   13464     812     206     919    6560    9873+
+           9872   11033    8901    9874
CTETRA      9353       1   13464     813     812     919    6563    6562+
+           6560   11033    8155    8901
CTETRA      9354       1   15336     813     919     920   10814    8155+
+          11035   11036    8157    7379
CTETRA      9355       1   15336   15337     813     920   15465   10815+
+          10814   11036   11037    8157
CTETRA      9356       1   11669    1118     920    1111    8895   11038+
+           9405    8778    8896   11039
CTETRA      9357       1   11669     755     920    1118    8766   10675+
+           9405    8895   10676   11038
CTETRA      9358       1   15336    1117     755     920    9598    9597+
+          10674   11036    9596   10675
CTETRA      9359       1   18025     920    1117    1183    7378    9596+
+           9113    9593   11040    9594
CTETRA      9360       1   18025     919     920    1183    7376    7379+
+           7378    9593   11041   11040
CTETRA      9361       1   15336     919     813    1182   11035    8155+
+          10814   11042   11034    9509
CTETRA      9362       1   18025    1182     919    1183    9592   11034+
+           7376    9593   11043   11041
CTETRA      9363       1   18025      31    1182    1183    8180    9591+
+           9592    9593    9595   11043
CTETRA      9364       1   17605      31   15336    1182    8160    9590+
+          15461    9508    9591   11042
CTETRA      9365       1   17605   15336     813    1182   15461   10814+
+           9369    9508   11042    9509
CTETRA      9366       1   15336     919    1182    1183   11035   11034+
+          11042   11044   11041   11043
CTETRA      9367       1   15336     920     919    1183   11036    7379+
+          11035   11044   11040   11041
CTETRA      9368       1   15336    1117     920    1183    9598    9596+
+          11036   11044    9594   11040
CTETRA      9369       1   15336      31    1117    1183    9590    9589+
+           9598   11044    9595    9594
CTETRA      9370       1   15336    1182      31    1183   11042    9591+
+           9590   11044   11043    9595
CTETRA      9371       1   13482     491     324     921    3518    5437+
+           5436   11045    7888    7385
CTETRA      9372       1   17518     491   13482     921    3516    3518+
+          13995    7719    7888   11045
CTETRA      9373       1   17518   13482   17519     921   13995   13996+
+          17543    7719   11045    7384
CTETRA      9374       1   17519   13482     324     921   13996    5436+
+           5455    7384   11045    7385
CTETRA      9375       1   18012   13456   13454     923   13913   13911+
+          13917    7995   11046   11047
CTETRA      9376       1   13454   13456     859     923   13911    9120+
+           7960   11047   11046    7422
CTETRA      9377       1   11570     923     859    1156    8745    7422+
+           8736    9267   11048   10914
CTETRA      9378       1   18011     923   11570    1156    7994    8745+
+          11649    9266   11048    9267
CTETRA      9379       1   18011   13456   18012     923   13914   13913+
+          18019    7994   11046    7995
CTETRA      9380       1   18012     923   13454     924    7995   11047+
+          13917    9013    7426   11049
CTETRA      9381       1   18012   13454     820     924   13917   10822+
+           8054    9013   11049   10823
CTETRA      9382       1   13454     859     820     924    7960    7221+
+          10822   11049    7425   10823
CTETRA      9383       1   13454     923     859     924   11047    7422+
+           7960   11049    7426    7425
CTETRA      9384       1   17298   11935   17299     929   12121   12120+
+          17315    9278   11050    9423
CTETRA      9385       1   17299   11935     774     929   12120   10722+
+           7467    9423   11050   10724
CTETRA      9386       1   11935     454     774     929    3362    6184+
+          10722   11050    7464   10724
CTETRA      9387       1   11935   12025     454     929   12389    7628+
+           3362   11050   11051    7464
CTETRA      9388       1   17298   12025   11935     929   12365   12389+
+          12121    9278   11051   11050
CTETRA      9389       1   17298   12025     929     928   12365   11051+
+           9278    7455   11052    7465
CTETRA      9390       1   12025     454     929     928    7628    7464+
+          11051   11052    7466    7465
CTETRA      9391       1   12409     928     454     338    7457    7466+
+           6667    2609   11053    8862
CTETRA      9392       1   17298     928   12409     338    7455    7457+
+          12590    6674   11053    2609
CTETRA      9393       1   13629     111     817     818    6334    9472+
+           9917   11054    7470    6604
CTETRA      9394       1   13629     296     111     818    4983    7469+
+           6334   11054    7471    7470
CTETRA      9395       1   17507     296   13629     818    6336    4983+
+          14483    8684    7471   11054
CTETRA      9396       1   17507   13629   17508     818   14483   14482+
+          17532    8684   11054    6603
CTETRA      9397       1   17508   13629     817     818   14482    9917+
+           6601    6603   11054    6604
CTETRA      9398       1   17300   11959     679     931   12123   10536+
+           7475    7476   11055    7477
CTETRA      9399       1   11959     461     679     931    7480    6777+
+          10536   11055    7791    7477
CTETRA      9400       1   12411     931     461     930    9182    7791+
+           6180    7474   11056    7789
CTETRA      9401       1   17300     931   12411     930    7476    9182+
+          12586    7473   11056    7474
CTETRA      9402       1   16954   16956      71    1009   16997    7352+
+           7482   11057   11058    9676
CTETRA      9403       1   17895   16956   16954    1009   16998   16997+
+          16993    8044   11058   11057
CTETRA      9404       1   17894   17895   16954    1009   17904   16993+
+          16994    8459    8044   11057
CTETRA      9405       1   17894   16954    1068    1009   16994   10862+
+           8847    8459   11057   10864
CTETRA      9406       1   16954      71    1068    1009    7482    9675+
+          10862   11057    9676   10864
CTETRA      9407       1   12790     646     934     935    6657    8247+
+           9915   11059    8471    7497
CTETRA      9408       1   17473     646   12790     935    6656    6657+
+          13098    7507    8471   11059
CTETRA      9409       1   17472   17473   12790     935   17485   13098+
+          13097    7496    7507   11059
CTETRA      9410       1   17472   12790     934     935   13097    9915+
+           7494    7496   11059    7497
CTETRA      9411       1   17469   12744     530     936   12930    3746+
+           7533    8693   11060    7511
CTETRA      9412       1   12744     103     530     936    3747    3744+
+           3746   11060    7512    7511
CTETRA      9413       1   17470     103   12744     936    7195    3747+
+          12931    7870    7512   11060
CTETRA      9414       1   17469   17470   12744     936   17488   12931+
+          12930    8693    7870   11060
CTETRA      9415       1   11579     995     859     915    9386    9385+
+           8737    7355   11061    9387
CTETRA      9416       1   17232     915     995     997    9243   11061+
+           7970    7973    9245    7974
CTETRA      9417       1   18086   17232   11778     995   17234   11883+
+          11882    8008    7970   11062
CTETRA      9418       1   18086   11778     937     995   11882   10908+
+           8746    8008   11062   10909
CTETRA      9419       1   11778     859     937     995    6912    7519+
+          10908   11062    9385   10909
CTETRA      9420       1   15592     217     750     938    4542    5842+
+           6256   11063    7530    7531
CTETRA      9421       1   18104     217   15592     938    4540    4542+
+          15816    7528    7530   11063
CTETRA      9422       1   17760   18104   15592     938   17767   15816+
+          15815    8634    7528   11063
CTETRA      9423       1   17760   15592     750     938   15815    6256+
+           5848    8634   11063    7531
CTETRA      9424       1   15322      42      19     854    9856    1363+
+           9855   11064    6884    6883
CTETRA      9425       1   15322     352      42     854    7019    4489+
+           9856   11064    7539    6884
CTETRA      9426       1   16868     854     352    1025    7540    7539+
+           7538    8141   11065    8142
CTETRA      9427       1   17996     854   16868    1025    8091    7540+
+          16914    8785   11065    8141
CTETRA      9428       1   17996    1016     854    1064    8089    8092+
+           8091    8450    9564   11066
CTETRA      9429       1   15322      19    1016     854    9855    8568+
+           9573   11064    6883    8092
CTETRA      9430       1   17928   16984   16977    1014   17122   17124+
+          17082    8082   11067   11068
CTETRA      9431       1   17996    1064    1025    1065    8450   11069+
+           8785    8451    8453   11070
CTETRA      9432       1   17996     854    1025    1064    8091   11065+
+           8785    8450   11066   11069
CTETRA      9433       1   15322     352     854    1025    7019    7539+
+          11064   11071    8142   11065
CTETRA      9434       1   15322     352    1014    1196    7019   11072+
+           8083   11073   11074   11075
CTETRA      9435       1   16977   16984     941    1014   17124   11076+
+          11077   11068   11067   11078
CTETRA      9436       1   16977     941     352    1014   11077    8144+
+           4604   11068   11078   11072
CTETRA      9437       1   16869     941     352     852    7548    8144+
+           6872    6874   11079    6875
CTETRA      9438       1   17908     941   16869     852    7546    7548+
+          16917    8781   11079    6874
CTETRA      9439       1   18112   17908   16977     941   17917   17090+
+          17113    8554    7546   11077
CTETRA      9440       1   18112   16977   16984     941   17113   17124+
+          17125    8554   11077   11076
CTETRA      9441       1   16977    1013     451     852   10518   10194+
+           6871   11080    8076   10193
CTETRA      9442       1   17909    1013   16977     852    8074   10518+
+          17089    8075    8076   11080
CTETRA      9443       1   17908   17909   16977     852   17918   17089+
+          17090    8781    8075   11080
CTETRA      9444       1   17908   16977     941     852   17090   11077+
+           7546    8781   11080   11079
CTETRA      9445       1   16977     352     941     852    4604    8144+
+          11077   11080    6875   11079
CTETRA      9446       1   16977      35     352     852    4808    2670+
+           4604   11080    6876    6875
CTETRA      9447       1   16977     451      35     852    6871    3280+
+           4808   11080   10193    6876
CTETRA      9448       1   12751     458     528     942    7667    7335+
+           7527   11081    7554    7553
CTETRA      9449       1   12618     942     458    1007    7555    7554+
+           6092    8031   11082    8032
CTETRA      9450       1   17466     942   12618    1007    8034    7555+
+          12686    8873   11082    8031
CTETRA      9451       1   17465   17466   12751     942   17492   12942+
+          12941    8876    8034   11081
CTETRA      9452       1   17465   12751     528     942   12941    7527+
+           7676    8876   11081    7553
CTETRA      9453       1   12760     454     943     944    3297    7559+
+          10836   11083    7562    7561
CTETRA      9454       1   12431     944     454     961    9204    7562+
+           7481    7716   11084    8660
CTETRA      9455       1   17414     944   12431     961    9203    9204+
+          12544    7715   11084    7716
CTETRA      9456       1   17413   17414   12760     944   17434   12999+
+          12991    9265    9203   11083
CTETRA      9457       1   17413   12760     943     944   12991   10836+
+           9264    9265   11083    7561
CTETRA      9458       1   12801     411     425     945    3049    3116+
+           7923   11085    7565    8723
CTETRA      9459       1   17476     411   12801     945    3047    3049+
+          13146    7563    7565   11085
CTETRA      9460       1   17475   17476   12801     945   17482   13146+
+          13145    9034    7563   11085
CTETRA      9461       1   17475   12611     945     987   12645    9016+
+           9034    7891    7893   11086
CTETRA      9462       1   12611     425     945     987    6619    8723+
+           9016    7893    9168   11086
CTETRA      9463       1   17354   12022     530     948   12351    7583+
+           7582    7600   11087    8038
CTETRA      9464       1   12022     826     530     948   10837    7585+
+           7583   11087   10838    8038
CTETRA      9465       1   17353     826   12022     948    7241   10837+
+          12352    7599   10838   11087
CTETRA      9466       1   17353   12022   17354     948   12352   12351+
+          17376    7599   11087    7600
CTETRA      9467       1   12028     687     528     949   10556    7671+
+           8720   11088   10557    9200
CTETRA      9468       1   17349     687   12028     949    7699   10556+
+          12380    7603   10557   11088
CTETRA      9469       1   17349   12028   12016     949   12380   12381+
+          12338    7603   11088   11089
CTETRA      9470       1   12016   12028     528     949   12381    8720+
+           7263   11089   11088    9200
CTETRA      9471       1   12016     949     528     950   11089    9200+
+           7263   11090    7606    9198
CTETRA      9472       1   17349     949   12016     950    7603   11089+
+          12338    7604    7606   11090
CTETRA      9473       1   17349   12016   17350     950   12338   12337+
+          17374    7604   11090    8877
CTETRA      9474       1   17350   12016     528     950   12337    7263+
+           7262    8877   11090    9198
CTETRA      9475       1   12719     494     495    1070    7610    3532+
+           7609   11091    9273    8716
CTETRA      9476       1   12719     828     494    1070   10841    6691+
+           7610   11091   10842    9273
CTETRA      9477       1   17419     828   12719    1070    8241   10841+
+          12816    8706   10842   11091
CTETRA      9478       1   17418   17419   12719    1070   17439   12816+
+          12836    8486    8706   11091
CTETRA      9479       1   17418   12719   12727    1070   12836   12837+
+          12838    8486   11091   11092
CTETRA      9480       1   12719     495   12727    1070    7609    7736+
+          12837   11091    8716   11092
CTETRA      9481       1   12028     959     462     951   10558    8490+
+           9442   11093   10560    8864
CTETRA      9482       1   12028     687     959     951   10556   10555+
+          10558   11093   10554   10560
CTETRA      9483       1   12028     528     687     951    8720    7671+
+          10556   11093    7633   10554
CTETRA      9484       1   12028     152     528     951    8719    3723+
+           8720   11093    7625    7633
CTETRA      9485       1   12028     455     152     951    9287    6408+
+           8719   11093    7626    7625
CTETRA      9486       1   12028     462     455     951    9442    3329+
+           9287   11093    8864    7626
CTETRA      9487       1   11984     530     103     954    3740    3744+
+           3743   11094    7641    7875
CTETRA      9488       1   17354     530   11984     954    7582    3740+
+          12250    7639    7641   11094
CTETRA      9489       1   17354   11984   17355     954   12250   12249+
+          17366    7639   11094    7876
CTETRA      9490       1   17355   11984     103     954   12249    3743+
+           1924    7876   11094    7875
CTETRA      9491       1   12621     528     956    1171    7669    7679+
+           8731    9428    9430   11095
CTETRA      9492       1   17465     528   12747     956    7676    3756+
+          12937    7677    7679   11096
CTETRA      9493       1   17464   17465   12747     956   17493   12937+
+          12919    9201    7677   11096
CTETRA      9494       1   17464   12621     956    1171   12701    8731+
+           9201    9440    9428   11095
CTETRA      9495       1   17681     810   15569     957    7022   10668+
+          15757    7690    8123   11097
CTETRA      9496       1   17681   16031     957    1022   16141    7691+
+           7690    9343    8124   11098
CTETRA      9497       1   16031     172     957    1022    4248    8122+
+           7691    8124    8126   11098
CTETRA      9498       1   15569     810     172     957   10668    6541+
+           4237   11097    8123    8122
CTETRA      9499       1   17682   15569     594    1022   15759   10389+
+           8135    8882   11099    8125
CTETRA      9500       1   15569     172     594    1022    4237    4251+
+          10389   11099    8126    8125
CTETRA      9501       1   15569     957     172    1022   11097    8122+
+           4237   11099   11098    8126
CTETRA      9502       1   17681     957   15569    1022    7690   11097+
+          15757    9343   11098   11099
CTETRA      9503       1   17681   15569   17682    1022   15757   15759+
+          17699    9343   11099    8882
CTETRA      9504       1   17241   11778   11784     960   11915   11922+
+          11921    7709   11100   11101
CTETRA      9505       1   17241   11578     960    1169   11630    7710+
+           7709    9419    9418   11102
CTETRA      9506       1   11578    1038     960    1169    8262   10228+
+           7710    9418   10229   11102
CTETRA      9507       1   17232    1038   11784     960    8258   10230+
+          11918    9242   10228   11101
CTETRA      9508       1   17232   11784   11778     960   11918   11922+
+          11883    9242   11101   11100
CTETRA      9509       1   17241   11784   11779    1169   11921   11920+
+          11916    9419   11103   11104
CTETRA      9510       1   11779   11784     474    1169   11920   10225+
+          10224   11104   11103   10222
CTETRA      9511       1   11784    1038     474    1169   10230   10226+
+          10225   11103   10229   10222
CTETRA      9512       1   11784     960    1038    1169   11101   10228+
+          10230   11103   11102   10229
CTETRA      9513       1   17241     960   11784    1169    7709   11101+
+          11921    9419   11102   11103
CTETRA      9514       1   17414     868   12760     961    7714   10925+
+          12999    7715    7717   11105
CTETRA      9515       1   17414   12760     944     961   12999   11083+
+           9203    7715   11105   11084
CTETRA      9516       1   12760     454     944     961    3297    7562+
+          11083   11105    8660   11084
CTETRA      9517       1   12760     461     454     961    3322    3367+
+           3297   11105    8661    8660
CTETRA      9518       1   12760     868     461     961   10925    6978+
+           3322   11105    7717    8661
CTETRA      9519       1   13166     462     884     962    4094    7070+
+           7459   11106    7835   10969
CTETRA      9520       1   13166     243     462     962    4098    4107+
+           4094   11106    7836    7835
CTETRA      9521       1   13165     243   13166     962    4099    4098+
+          13216   11107    7836   11106
CTETRA      9522       1   17398   13165   13166     962   13211   13216+
+          13215    7720   11107   11106
CTETRA      9523       1   18093   17398   13166     962   17403   13215+
+          13217    8645    7720   11106
CTETRA      9524       1   18093   13166     884     962   13217    7459+
+           8729    8645   11106   10969
CTETRA      9525       1   13165     243     962     963    4099    7836+
+          11107   11108    9160    7723
CTETRA      9526       1   12713     963     243    1003    9205    9160+
+           7621    8006   11109    8626
CTETRA      9527       1   17398     963   12713    1003    7722    9205+
+          12983    8005   11109    8006
CTETRA      9528       1   17398   13165     962     963   13211   11107+
+           7720    7722   11108    7723
CTETRA      9529       1   13167      36     705    1012    9603    9605+
+           9607   11110    9606    8064
CTETRA      9530       1   13167      37      36    1012    9616    1347+
+           9603   11110    9620    9606
CTETRA      9531       1   11579    1012      37    1037    8061    9620+
+           7752    8264   11111    9619
CTETRA      9532       1   11578    1012   11579    1037    8062    8061+
+          11600    8263   11111    8264
CTETRA      9533       1   11568    1012   11578     981    8063    8062+
+          11597    7849   11112    8250
CTETRA      9534       1   11568     705    1012     981    6146    8064+
+           8063    7849    9609   11112
CTETRA      9535       1   11578    1037    1038    1040    8263    8257+
+           8262    8268   11113   10227
CTETRA      9536       1   11578    1012    1037    1040    8062   11111+
+           8263    8268   11114   11113
CTETRA      9537       1   13167      37    1012    1037    9616    9620+
+          11110   11115    9619   11111
CTETRA      9538       1   13167   13170      37    1037   13231    9618+
+           9616   11115   11116    9619
CTETRA      9539       1   17232   13170   13167    1037   13239   13231+
+          13238    8256   11116   11115
CTETRA      9540       1   17232   13167    1038    1037   13238    9415+
+           8258    8256   11115    8257
CTETRA      9541       1   16778    1108     968    1142    8763   11117+
+          11118    9108    9746   11119
CTETRA      9542       1   16778     968    1068    1142   11118    8476+
+           8848    9108   11119    9109
CTETRA      9543       1   16778     967    1068     968    9363    9689+
+           8848   11118    7767    8476
CTETRA      9544       1   16778     967     968    1108    9363    7767+
+          11118    8763    9365   11117
CTETRA      9545       1   13192     968    1108    1105    7768   11117+
+          11120    8752    8751   11121
CTETRA      9546       1   13192    1108      91    1105   11120    8764+
+           9742    8752   11121    9743
CTETRA      9547       1   16777    1108      91    1178    8762    8764+
+           1552    9482   11122    9483
CTETRA      9548       1   16777      77    1108    1178    8567    9719+
+           8762    9482    9720   11122
CTETRA      9549       1   16769    1108      77    1184    9364    9719+
+           8360    9716   11123    9717
CTETRA      9550       1   16769     967    1108    1184    9362    9365+
+           9364    9716   10861   11123
CTETRA      9551       1   13192     968     967    1108    7768    7767+
+           7765   11120   11117    9365
CTETRA      9552       1   16767     969      20     496    7983    7982+
+           7738    3536   11124   10319
CTETRA      9553       1   16767      53     969     496    1411    8310+
+           7983    3536    3535   11124
CTETRA      9554       1   13645     698      53     969    9704    9645+
+           9646   11125    9073    8310
CTETRA      9555       1   17506     698   13645     969    8017    9704+
+          14546    7770    9073   11125
CTETRA      9556       1   17506   13195     969    1002   13365    7771+
+           7770    8457    7998   11126
CTETRA      9557       1   13195      20     969    1002    7996    7982+
+           7771    7998    7997   11126
CTETRA      9558       1   13645     969      20    1002   11125    7982+
+           3900   11127   11126    7997
CTETRA      9559       1   17506     969   13645    1002    7770   11125+
+          14546    8457   11126   11127
CTETRA      9560       1   17506   13645   13642    1002   14546   14547+
+          14531    8457   11127   11128
CTETRA      9561       1   13642   13645      20    1002   14547    3900+
+           1507   11128   11127    7997
CTETRA      9562       1   17136     361     299     979   10015    7786+
+          10013   11129    9087   10011
CTETRA      9563       1   16864     979     361    1029    7841    9087+
+           7649    8200   11130    8201
CTETRA      9564       1   16864   16874     979    1138   16899    7842+
+           7841    9063    9065   11131
CTETRA      9565       1   16874     299     979    1138    2715   10011+
+           7842    9065   10021   11131
CTETRA      9566       1   15323     642      41     970   10481    8150+
+           8652   11132    8151    7794
CTETRA      9567       1   18101     642   15323     970    4613   10481+
+          15397    9433    8151   11132
CTETRA      9568       1   18101   15323   15314     970   15397   15396+
+          15393    9433   11132   11133
CTETRA      9569       1   15314   15323      40     970   15396   10476+
+          10477   11133   11132    7793
CTETRA      9570       1   15323      41      40     970    8652    1355+
+          10476   11132    7794    7793
CTETRA      9571       1   16314     971     156     972   10995    7802+
+           7795   11134    7806    7805
CTETRA      9572       1   17795     971   16314     972    9010   10995+
+          16505    9001    7806   11134
CTETRA      9573       1   17794   17795   16314     972   17816   16505+
+          16506    8394    9001   11134
CTETRA      9574       1   17794   16014     972     717   16191    8395+
+           8394    5358    5357   11135
CTETRA      9575       1   16014     156     972     717    5873    7805+
+           8395    5357    9356   11135
CTETRA      9576       1   16348      55     519     973    3024    6228+
+           6227   11136    9043    7811
CTETRA      9577       1   17850      55   16348     973    3006    3024+
+          16535    8353    9043   11136
CTETRA      9578       1   17849   17850   16348     973   17864   16535+
+          16534    7810    8353   11136
CTETRA      9579       1   17849   16348     519     973   16534    6227+
+           5774    7810   11136    7811
CTETRA      9580       1   18109   15314     641     974   15351   10478+
+           7819    7820   11137    7821
CTETRA      9581       1   15314      40     641     974   10477    4607+
+          10478   11137    8438    7821
CTETRA      9582       1   15314      46      40     974    8110    1384+
+          10477   11137    9179    8438
CTETRA      9583       1   15314     907      46     974    7283    9177+
+           8110   11137    9180    9179
CTETRA      9584       1   18109     907   15314     974    8433    7283+
+          15351    7820    9180   11137
CTETRA      9585       1   17192     976   11508    1059    8276   10182+
+          11531    8633   10179   11138
CTETRA      9586       1   17192   11508   11506    1059   11531   11537+
+          11536    8633   11138    9036
CTETRA      9587       1   11566    1190    1059     998   10000   11139+
+           8419    7979   10002    8421
CTETRA      9588       1   11566     976    1059    1190    7826   10179+
+           8419   10000   10180   11139
CTETRA      9589       1   13439     976   13660     975    8277    9460+
+          14613   11140    7825   11141
CTETRA      9590       1   18007   13439   13660     975   13844   14613+
+          14612    8203   11140   11141
CTETRA      9591       1   18007   11567     975    1056   11658    8401+
+           8203    8406    8408   11142
CTETRA      9592       1   11567    1145     975    1056   11143   11144+
+           8401    8408   11145   11142
CTETRA      9593       1   13660     975    1059    1146   11141    8420+
+           8632   11146   11147   11148
CTETRA      9594       1   13660     976    1059     975    9460   10179+
+           8632   11141    7825    8420
CTETRA      9595       1   11565     976    1190    1173    8205   10180+
+          10009    9447   10181   11149
CTETRA      9596       1   11508    1059     976    1190   11138   10179+
+          10182   11150   11139   10180
CTETRA      9597       1   11506    1059   11508    1190    9036   11138+
+          11537   11151   11139   11150
CTETRA      9598       1   11506   11508    1160    1190   11537    9998+
+           9997   11151   11150    9999
CTETRA      9599       1   11508    1161    1160    1190   10004    9311+
+           9998   11150   10010    9999
CTETRA      9600       1   11565    1190    1161    1173   10009   10010+
+           9313    9447   11149   10008
CTETRA      9601       1   11565     615     976    1030    4395    7828+
+           8205    8207   11152    8208
CTETRA      9602       1   18006     615   11565    1030    4386    4395+
+          11618    8404   11152    8207
CTETRA      9603       1   18006   13439   18007     615   13845   13844+
+          18024    4386   11153    4387
CTETRA      9604       1   18007   13439     975     615   13844   11140+
+           8203    4387   11153    7827
CTETRA      9605       1   13439     976     975     615    8277    7825+
+          11140   11153    7828    7827
CTETRA      9606       1   17136     299     357    1138   10013   10012+
+          10020   11154   10021   10017
CTETRA      9607       1   17136     979     299    1138   11129   10011+
+          10013   11154   11131   10021
CTETRA      9608       1   16864    1138     979    1029    9063   11131+
+           7841    8200   11155   11130
CTETRA      9609       1   16864   16865    1138    1029   16901    9064+
+           9063    8200    9469   11155
CTETRA      9610       1   16865    1152    1138    1153    9222    9491+
+           9064    9223    9225   11156
CTETRA      9611       1   17134   17136     357    1138   17187   10020+
+          10019   11157   11154   10017
CTETRA      9612       1   17136     682     361    1029   11158    8199+
+          10015   11159    8202    8201
CTETRA      9613       1   16865    1029     682    1153    9469    8202+
+           9226    9223   11160   11161
CTETRA      9614       1   16865    1138    1029    1153    9064   11155+
+           9469    9223   11156   11160
CTETRA      9615       1   17136     979    1138    1029   11129   11131+
+          11154   11159   11130   11155
CTETRA      9616       1   17136     361     979    1029   10015    9087+
+          11129   11159    8201   11130
CTETRA      9617       1   11578     229     981    1040    8249    7850+
+           8250    8268    9901   11162
CTETRA      9618       1   13167     980     229     981    9240    7847+
+           9900   11163    7851    7850
CTETRA      9619       1   13167     705     980     981    9607    9608+
+           9240   11163    9609    7851
CTETRA      9620       1   13167    1012     705     981   11110    8064+
+           9607   11163   11112    9609
CTETRA      9621       1   11578     981    1012    1040    8250   11112+
+           8062    8268   11162   11114
CTETRA      9622       1   17683   15542     847     778   15670   10897+
+           7858    7852   11164   10898
CTETRA      9623       1   15542      92     847     778    1556    8614+
+          10897   11164    6200   10898
CTETRA      9624       1   15542     173      92     778    4302    4256+
+           1556   11164    6201    6200
CTETRA      9625       1   15542   15571     173     778   15745    4303+
+           4302   11164   11165    6201
CTETRA      9626       1   17683   15571   15542     778   15746   15745+
+          15670    7852   11165   11164
CTETRA      9627       1   17683   15571     778     982   15746   11165+
+           7852    7853   11166    7854
CTETRA      9628       1   15571     173     778     982    4303    6201+
+          11165   11166    8336    7854
CTETRA      9629       1   15571     594     173     982   10390    4250+
+           4303   11166   10391    8336
CTETRA      9630       1   17682     594   15571     982    8135   10390+
+          15755    8136   10391   11166
CTETRA      9631       1   17682   15571   17683     982   15755   15746+
+          17697    8136   11166    7853
CTETRA      9632       1   15329     482     541     985    7176    7880+
+           8097   11167    7883    7882
CTETRA      9633       1   17592     482   15329     985    7174    7176+
+          15448    7955    7883   11167
CTETRA      9634       1   17592   15329   17593     985   15448   15508+
+          17625    7955   11167    7956
CTETRA      9635       1   17593   15329     541     985   15508    8097+
+           4124    7956   11167    7882
CTETRA      9636       1   12801     425     986     987    7923    9167+
+          10834   11168    9168    7892
CTETRA      9637       1   12801     945     425     987   11085    8723+
+           7923   11168   11086    9168
CTETRA      9638       1   17475     945   12801     987    9034   11085+
+          13145    7891   11086   11168
CTETRA      9639       1   17475   12801     986     987   13145   10834+
+           7889    7891   11168    7892
CTETRA      9640       1   13195     296     788     988    6339    6331+
+          10740   11169    8456    8455
CTETRA      9641       1   13195      20     296     988    7996    5732+
+           6339   11169    7896    8456
CTETRA      9642       1   13195      22      20     988    9581    1278+
+           7996   11169    7897    7896
CTETRA      9643       1   18107      22   13195     988    8680    9581+
+          13373    8681    7897   11169
CTETRA      9644       1   18107   13195     788     988   13373   10740+
+           6380    8681   11169    8455
CTETRA      9645       1   16955      21      20    1127    9574    1275+
+           9579   11170    9578    9577
CTETRA      9646       1   16955    1164      21    1127    9748    9576+
+           9574   11170    9749    9578
CTETRA      9647       1   17892    1164   16955    1127    9391    9748+
+          16991    8977    9749   11170
CTETRA      9648       1   17891   17892   16955    1127   17901   16991+
+          16992    8975    8977   11170
CTETRA      9649       1   17891   16955     138    1127   16992    9814+
+           1700    8975   11170    9815
CTETRA      9650       1   16955      20     138    1127    9579    7898+
+           9814   11170    9577    9815
CTETRA      9651       1   18095   13161     822     989   13246   10944+
+           6634    8698   11171    7950
CTETRA      9652       1   13161     559     822     989    3952    7034+
+          10944   11171    7951    7950
CTETRA      9653       1   13161     674     559     989    4952    4951+
+           3952   11171    7906    7951
CTETRA      9654       1   13161     719     674     989   10625    7904+
+           4952   11171    7907    7906
CTETRA      9655       1   18095     719   13161     989    5401   10625+
+          13246    8698    7907   11171
CTETRA      9656       1   15345     541     531     992    8096    4121+
+           5303   11172    8834    7930
CTETRA      9657       1   17593     541   15345     992    4124    8096+
+          15506    8153    8834   11172
CTETRA      9658       1   17593   15345   17594     992   15506   15507+
+          17623    8153   11172    7929
CTETRA      9659       1   17594   15345     531     992   15507    5303+
+           5302    7929   11172    7930
CTETRA      9660       1   17232   13170    1037     996   13239   11116+
+           8256    7972   11173    9246
CTETRA      9661       1   13170      37    1037     996    9618    9619+
+          11116   11173    8945    9246
CTETRA      9662       1   11570     996      37    1114    8738    8945+
+           1346    8840   11174    9388
CTETRA      9663       1   11570     859     996    1114    8736    8739+
+           8738    8840    8842   11174
CTETRA      9664       1   13170     995     859     996    8009    9385+
+           7517   11173    7971    8739
CTETRA      9665       1   17232     995   13170     996    7970    8009+
+          13239    7972    7971   11173
CTETRA      9666       1   17232   11778     995     915   11883   11062+
+           7970    9243    7350   11061
CTETRA      9667       1   11778     859     995     915    6912    9385+
+          11062    7350    9387   11061
CTETRA      9668       1   11580     915     859    1195    7420    9387+
+           7886   10939   11175   10940
CTETRA      9669       1   17242   11580   17243     915   11633   11634+
+          17252    7348    7420    7349
CTETRA      9670       1   17241   17242   11778     915   17251   11891+
+          11915    7354    7348    7350
CTETRA      9671       1   17241   11778     960     915   11915   11100+
+           7709    7354    7350    7846
CTETRA      9672       1   17232     960   11778     915    9242   11100+
+          11883    9243    7846    7350
CTETRA      9673       1   11579    1038    1037     997    8261    8257+
+           8264   11176    8260    8259
CTETRA      9674       1   11579     960    1038     997    7711   10228+
+           8261   11176    9244    8260
CTETRA      9675       1   11579     915     960     997    7355    7846+
+           7711   11176    9245    9244
CTETRA      9676       1   11579     995     915     997    9386   11061+
+           7355   11176    7974    9245
CTETRA      9677       1   11579     996     995     997    8740    7971+
+           9386   11176    7975    7974
CTETRA      9678       1   11579    1037     996     997    8264    9246+
+           8740   11176    8259    7975
CTETRA      9679       1   11506    1059    1190     998    9036   11139+
+          11151   11177    8421   10002
CTETRA      9680       1    1059     975     998    1146    8420    8418+
+           8421   11148   11147   11178
CTETRA      9681       1   11567     998     975    1145    7980    8418+
+           8401   11143   11179   11144
CTETRA      9682       1   11567   11576     998    1011   11590    7981+
+           7980    8956    8955   11180
CTETRA      9683       1   11576    1160     998    1011    9315   10001+
+           7981    8955   10003   11180
CTETRA      9684       1   11506    1190    1160     998   11151    9999+
+           9997   11177   10002   10001
CTETRA      9685       1   17218   11506     121    1011   11521    9988+
+           2161    8049   11181    8050
CTETRA      9686       1   11506    1160     121    1011    9997    9316+
+           9988   11181   10003    8050
CTETRA      9687       1   11506     998    1160    1011   11177   10001+
+           9997   11181   11180   10003
CTETRA      9688       1   11567    1011     998    1145    8956   11180+
+           7980   11143   11182   11179
CTETRA      9689       1   11567    1011    1145    1125    8956   11182+
+          11143    8948    8957   11183
CTETRA      9690       1   17218   11507   11506    1011   11528   11524+
+          11521    8049   11184   11181
CTETRA      9691       1   17191   11506   11507    1145   11525   11524+
+          11523    9134   11185    9317
CTETRA      9692       1   11506    1011   11507    1145   11181   11184+
+          11524   11185   11182    9317
CTETRA      9693       1   11506     998    1011    1145   11177   11180+
+          11181   11185   11179   11182
CTETRA      9694       1     975    1145     998    1146   11144   11179+
+           8418   11147    9137   11178
CTETRA      9695       1   11506     998    1145    1146   11177   11179+
+          11185   11186   11178    9137
CTETRA      9696       1   17191   11506    1145    1146   11525   11185+
+           9134    9136   11186    9137
CTETRA      9697       1   13194      76      53     999    9707    9075+
+           9644   11187    9711    8311
CTETRA      9698       1   13194    1087      76     999    9738    9710+
+           9707   11187    9739    9711
CTETRA      9699       1   13194      20    1087     999    9390    8589+
+           9738   11187    7985    9739
CTETRA      9700       1   13194     969      20     999    7772    7982+
+           9390   11187    7986    7985
CTETRA      9701       1   13194      53     969     999    9644    8310+
+           7772   11187    8311    7986
CTETRA      9702       1   13645     969      53     496   11125    8310+
+           9646   11188   11124    3535
CTETRA      9703       1   13645      20     969     496    3900    7982+
+          11125   11188   10319   11124
CTETRA      9704       1   13645     550      20     496   10317    3898+
+           3900   11188   10318   10319
CTETRA      9705       1   18046     550   13645     496    8308   10317+
+          14548    6011   10318   11188
CTETRA      9706       1   18046   13645   18047     496   14548   14545+
+          18060    6011   11188    3534
CTETRA      9707       1   18047   13645      53     496   14545    9646+
+           1409    3534   11188    3535
CTETRA      9708       1   13664      38      37    1001    9622    1349+
+           9621   11189    9625    9626
CTETRA      9709       1   13664     913      38    1001   10916    9458+
+           9622   11189    7993    9625
CTETRA      9710       1   17526     913   13664    1001    7339   10916+
+          14638    7991    7993   11189
CTETRA      9711       1   17526   13664    1000    1001   14638    9627+
+           7988    7991   11189    9628
CTETRA      9712       1   13664      37    1000    1001    9621    9617+
+           9627   11189    9626    9628
CTETRA      9713       1   13642      20     296     819    1507    5732+
+           4984   11190    7999    8582
CTETRA      9714       1   13642    1002      20     819   11128    7997+
+           1507   11190    8000    7999
CTETRA      9715       1   17506    1002   13642     819    8457   11128+
+          14531    6606    8000   11190
CTETRA      9716       1   17506   13642   17507     819   14531   14530+
+          17552    6606   11190    6607
CTETRA      9717       1   17507   13642     296     819   14530    4984+
+           6336    6607   11190    8582
CTETRA      9718       1   15343     199     891    1124    8164    9216+
+          10975    8930    8929   11191
CTETRA      9719       1   15343     892     363    1124   11192    8016+
+           3436    8930   11193    8927
CTETRA      9720       1   17599     363   15343     892    3444    3436+
+          15499    8854    8016   11192
CTETRA      9721       1   17599   15343   17600     892   15499   15496+
+          17615    8854   11192    7139
CTETRA      9722       1   17600   15343     891     892   15496   10975+
+           7137    7139   11192    7140
CTETRA      9723       1   12608     146     160    1006    1763    1774+
+           8019    8026    8692   11194
CTETRA      9724       1   12797     147     146     160    1729    1724+
+           1732   11195    1775    1774
CTETRA      9725       1   12761     147   12797     160    3948    1729+
+          13158   11196    1775   11195
CTETRA      9726       1   18094   12761   12797     160   13157   13158+
+          13126    8018   11196   11195
CTETRA      9727       1   18094   12608     160    1006   12630    8019+
+           8018    8027    8026   11194
CTETRA      9728       1   17478   12797     146    1006   13125    1732+
+           1762    8025   11197    8692
CTETRA      9729       1   12797     160     146    1006   11195    1774+
+           1732   11197   11194    8692
CTETRA      9730       1   18094     160   12797    1006    8018   11195+
+          13126    8027   11194   11197
CTETRA      9731       1   17478   18094   12797    1006   17480   13126+
+          13125    8025    8027   11197
CTETRA      9732       1   17132     350     426    1005    5620    5277+
+           7687   11198    8022    8511
CTETRA      9733       1   17939     350   17132    1005    5618    5620+
+          17162    8020    8022   11198
CTETRA      9734       1   17939   17132   17940    1005   17162   17163+
+          17947    8020   11198    8390
CTETRA      9735       1   17940   17132     426    1005   17163    7687+
+           6072    8390   11198    8511
CTETRA      9736       1   18014   13430     400    1115   13806   10140+
+           8855    8856   11199    8857
CTETRA      9737       1   13430      94     400    1115    8827    2972+
+          10140   11199    8946    8857
CTETRA      9738       1   13430     821      94    1115   10825    6631+
+           8827   11199   10826    8946
CTETRA      9739       1   18014     821   13430    1115    8059   10825+
+          13806    8856   10826   11199
CTETRA      9740       1   15319   15322    1016    1064   15384    9573+
+           9566   11200   11201    9564
CTETRA      9741       1   15322     854    1016    1064   11064    8092+
+           9573   11201   11066    9564
CTETRA      9742       1   15322    1025     854    1064   11071   11065+
+          11064   11201   11069   11066
CTETRA      9743       1   15322    1025    1064    1014   11071   11069+
+          11201    8083   11202   11203
CTETRA      9744       1   15319   15322    1064    1015   15384   11201+
+          11200    8291    8086   11204
CTETRA      9745       1   15319    1064    1016    1063   11200    9564+
+           9566   11205    8449    9565
CTETRA      9746       1   15319    1064    1063    1015   11200    8449+
+          11205    8291   11204   11206
CTETRA      9747       1   15319    1063     124    1015   11205    9805+
+           9804    8291   11206   11207
CTETRA      9748       1   15319      11     124    1063    9552    9534+
+           9804   11205    9544    9805
CTETRA      9749       1   15319      16      11    1063    9553    9538+
+           9552   11205    9545    9544
CTETRA      9750       1   15319    1016      16    1063    9566    9549+
+           9553   11205    9565    9545
CTETRA      9751       1   16984    1017     941    1014   11208    8565+
+          11076   11067   11209   11078
CTETRA      9752       1   18112     941   16984    1017    8554   11076+
+          17125    8095    8565   11208
CTETRA      9753       1   17996    1017   18112    1065    8093    8095+
+          18000    8451   11210   10819
CTETRA      9754       1   17996    1025    1017    1065    8785    8564+
+           8093    8451   11070   11210
CTETRA      9755       1    1064    1065    1063    1015    8453    8452+
+           8449   11204   11211   11206
CTETRA      9756       1    1025    1065    1064    1014   11070    8453+
+          11069   11202   11212   11203
CTETRA      9757       1   16984    1065    1017    1015   11213   11210+
+          11208   11214   11211   11215
CTETRA      9758       1   18112    1017   16984    1065    8095   11208+
+          17125   10819   11210   11213
CTETRA      9759       1   18112   16984     814    1065   17125   10817+
+           6570   10819   11213   10818
CTETRA      9760       1   16984     124     814    1015   10816    8292+
+          10817   11214   11207   11216
CTETRA      9761       1     124    1063    1065    1015    9805    8452+
+           9806   11207   11206   11211
CTETRA      9762       1   13391    1018    1088    1019   10884    8920+
+          11029   11217    8104    8921
CTETRA      9763       1   18051    1018   13391    1019    8101   10884+
+          13667    8102    8104   11217
CTETRA      9764       1   18051   13391     328    1019   13667   10047+
+           8931    8102   11217   10052
CTETRA      9765       1   13391    1088     328    1019   11029    8601+
+          10047   11217    8921   10052
CTETRA      9766       1   18101     970   15314    1020    9433   11133+
+          15393    9438    8648   11218
CTETRA      9767       1   18101   15314    1021    1020   15393    8118+
+           8117    9438   11218    8147
CTETRA      9768       1   15314      46    1021    1020    8110    8146+
+           8118   11218    8113    8147
CTETRA      9769       1   15314      40      46    1020   10477    1384+
+           8110   11218    8114    8113
CTETRA      9770       1   15314     970      40    1020   11133    7793+
+          10477   11218    8648    8114
CTETRA      9771       1   17136     361     682    1023   10015    8199+
+          11158   11219    8130   10547
CTETRA      9772       1   17133     361   17136    1023   10016   10015+
+          17183   11220    8130   11219
CTETRA      9773       1   17941   17133   17136    1023   17168   17183+
+          17181    8572   11220   11219
CTETRA      9774       1   17941   17136   17942    1023   17181   17182+
+          17945    8572   11219    9326
CTETRA      9775       1   17942   13659    1023    1106   14609    9327+
+           9326    8755    8754   11221
CTETRA      9776       1   16865    1023    1086    1153    9069    9068+
+           8586    9223   11222    9224
CTETRA      9777       1   16865     682    1023    1153    9226   10547+
+           9069    9223   11161   11222
CTETRA      9778       1   17133     361    1023    1024   10016    8130+
+          11220   11223    8134    8133
CTETRA      9779       1   17133     761     361    1024   10697    8674+
+          10016   11223   10698    8134
CTETRA      9780       1   17941     761   17133    1024    8676   10697+
+          17168    8573   10698   11223
CTETRA      9781       1   17941   17133    1023    1024   17168   11220+
+           8572    8573   11223    8133
CTETRA      9782       1   15337     813     920    1159   10815    8157+
+          11037   11224   10813    9406
CTETRA      9783       1   15337     812     813    1159   10806    6562+
+          10815   11224   10805   10813
CTETRA      9784       1   15337     253     812    1159    2178   10804+
+          10806   11224    9301   10805
CTETRA      9785       1   11669    1159     253    1111    9302    9301+
+           8776    8778   11225    8779
CTETRA      9786       1   11669     920    1159    1111    9405    9406+
+           9302    8778   11039   11225
CTETRA      9787       1   17199     206   11512    1026    8169   10799+
+          11555    8171    8170   11226
CTETRA      9788       1   17199   11512   11511    1026   11555   11551+
+          11548    8171   11226    8535
CTETRA      9789       1   11511   11512     255    1026   11551    9955+
+           9943    8535   11226    8790
CTETRA      9790       1   11670    1026     255    1112    8791    8790+
+           2185    8782   11227    8783
CTETRA      9791       1   11669    1026   11670    1123    8902    8791+
+          11681    8922   11228    8923
CTETRA      9792       1   11660    1026   11669    1194    8527    8902+
+          11678   10801   11229   10809
CTETRA      9793       1   11660     206    1026    1194    8526    8170+
+           8527   10801   10803   11229
CTETRA      9794       1   11661    1027     205    1189   11230    8917+
+           1979    9937   11231   10754
CTETRA      9795       1   11661     206     205    1027    1982    1981+
+           1979   11230    8173    8917
CTETRA      9796       1   11661    1026     206    1027    8528    8170+
+           1982   11230    8174    8173
CTETRA      9797       1   11661    1026    1027    1189    8528    8174+
+          11230    9937    9939   11231
CTETRA      9798       1   11511     205    1027    1189    9375    8917+
+           8536   11232   10754   11231
CTETRA      9799       1   11511    1028     205    1189   10751    8185+
+           9375   11232   10753   10754
CTETRA      9800       1   11511     697    1028    1189   10596   10598+
+          10751   11232   10597   10753
CTETRA      9801       1   11511     255     697    1189    9943    9940+
+          10596   11232    9938   10597
CTETRA      9802       1   11511    1026     255    1189    8535    8790+
+           9943   11232    9939    9938
CTETRA      9803       1   11511    1027    1026    1189    8536    8174+
+           8535   11232   11231    9939
CTETRA      9804       1   16968     326     616    1036    4396    4400+
+           4399   11233    8254    8253
CTETRA      9805       1   16967     326   16968    1036    7020    4396+
+          17042   11234    8254   11233
CTETRA      9806       1   17897   16967   16968    1036   17044   17042+
+          17038    9154   11234   11233
CTETRA      9807       1   17896   17897   16968    1036   17906   17038+
+          17037    9159    9154   11233
CTETRA      9808       1   17896   16968     802    1036   17037   10785+
+           8190    9159   11233   10786
CTETRA      9809       1   16968     616     802    1036    4399    6465+
+          10785   11233    8253   10786
CTETRA      9810       1   17800   16373   16310    1149   16612   16613+
+          16611    9342   11235   11236
CTETRA      9811       1   16310   16373     267    1149   16613    2243+
+           4909   11236   11235    9186
CTETRA      9812       1   16373     862     267    1149   10918    9181+
+           2243   11235   10919    9186
CTETRA      9813       1   17800     862   16373    1149    8195   10918+
+          16612    9342   10919   11235
CTETRA      9814       1   11508     976     401    1173   10182    8206+
+           8279   11237   10181    9449
CTETRA      9815       1   11508    1190     976    1173   11150   10180+
+          10182   11237   11149   10181
CTETRA      9816       1   11508    1161    1190    1173   10004   10010+
+          11150   11237   10008   11149
CTETRA      9817       1   11574    1173    1161    1192    9448   10008+
+           9314   10079   11238   10082
CTETRA      9818       1   11574     401    1173    1192    7948    9449+
+           9448   10079   10078   11238
CTETRA      9819       1   13439     401     976    1030    7946    8206+
+           8277   11239    8209    8208
CTETRA      9820       1   13439     552     401    1030   10695    8402+
+           7946   11239    8403    8209
CTETRA      9821       1   18006     552   13439    1030    3914   10695+
+          13845    8404    8403   11239
CTETRA      9822       1   18006   13439     615    1030   13845   11153+
+           4386    8404   11239   11152
CTETRA      9823       1   13439     976     615    1030    8277    7828+
+          11153   11239    8208   11152
CTETRA      9824       1   11949     443     344    1032    9197    5095+
+           7501   11240    8228    8227
CTETRA      9825       1   17382     443   11949    1032    4313    9197+
+          12078    9147    8228   11240
CTETRA      9826       1   17382   11949   17383    1032   12078   12080+
+          17385    9147   11240    9148
CTETRA      9827       1   17383   11949     345    1032   12080   10058+
+           5420    9148   11240    9158
CTETRA      9828       1   11949     344     345    1032    7501    2637+
+          10058   11240    8227    9158
CTETRA      9829       1   12714     495     780    1033    7758    6357+
+           6999   11241    8833    9206
CTETRA      9830       1   12714   12727     495    1033   12863    7736+
+           7758   11241   11242    8833
CTETRA      9831       1   17417   12727   12714    1033   12862   12863+
+          12865    8236   11242   11241
CTETRA      9832       1   17417   12714     871    1033   12865   10931+
+           8981    8236   11241   10933
CTETRA      9833       1   12714     780     871    1033    6999    8714+
+          10931   11241    9206   10933
CTETRA      9834       1   12727     495    1033    1034    7736    8833+
+          11242   11243    8506    8239
CTETRA      9835       1   12435    1034     495    1071    8507    8506+
+           3533    8488   11244    8717
CTETRA      9836       1   17418    1034   12435    1071    8708    8507+
+          12552    8487   11244    8488
CTETRA      9837       1   17417   17418   12727    1034   17438   12838+
+          12862    8238    8708   11243
CTETRA      9838       1   17417   12727    1033    1034   12862   11242+
+           8236    8238   11243    8239
CTETRA      9839       1   17130     616     326    1179   10440    4400+
+           8029   11245   10439    9488
CTETRA      9840       1   17130     912     616    1179   10781   10438+
+          10440   11245   10783   10439
CTETRA      9841       1   17130    1088     912    1179   11028   10782+
+          10781   11245   11032   10783
CTETRA      9842       1   16772    1179    1088    1048    9487   11032+
+           8602    8338   11246   11031
CTETRA      9843       1   16772     326    1179    1048    2531    9488+
+           9487    8338    8340   11246
CTETRA      9844       1   18044   13398   13379    1043   13701   13703+
+          13699    8530   11247   11248
CTETRA      9845       1   13379   13398     141    1043   13703    9383+
+           8978   11248   11247    8467
CTETRA      9846       1   13398     165     141    1043    1816    7800+
+           9383   11247    8299    8467
CTETRA      9847       1   18002    1043     165    1083    8297    8299+
+           7006    8569   11249    8570
CTETRA      9848       1   18002   18117    1043    1083   18003    8529+
+           8297    8569    9220   11249
CTETRA      9849       1   18117   13398   18044    1043   13702   13701+
+          18055    8529   11247    8530
CTETRA      9850       1   18117     874   13398    1083    8296   10937+
+          13702    9220    8571   11250
CTETRA      9851       1   18117   13398    1043    1083   13702   11247+
+           8529    9220   11250   11249
CTETRA      9852       1   13398     165    1043    1083    1816    8299+
+          11247   11250    8570   11249
CTETRA      9853       1   13398     874     165    1083   10937    7009+
+           1816   11250    8571    8570
CTETRA      9854       1   15535     815     639    1044   10820    6588+
+           4596   11251    8303    8958
CTETRA      9855       1   17688     815   15535    1044    8300   10820+
+          15657    8301    8303   11251
CTETRA      9856       1   18103   17688   15535    1044   17689   15657+
+          15658    8986    8301   11251
CTETRA      9857       1   18103   15535     843    1044   15658   10889+
+           8813    8986   11251   10890
CTETRA      9858       1   15535     639     843    1044    4596    8428+
+          10889   11251    8958   10890
CTETRA      9859       1   15602      59     214    1046    1535    2023+
+           9883   11252    8329    8325
CTETRA      9860       1   15602     468      59    1046   10218    6210+
+           1535   11252   10219    8329
CTETRA      9861       1   17672     468   15602    1046    3354   10218+
+          15900    8327   10219   11252
CTETRA      9862       1   17672   15602   17673    1046   15900   15899+
+          17702    8327   11252    8324
CTETRA      9863       1   17673   15602     214    1046   15899    9883+
+           8323    8324   11252    8325
CTETRA      9864       1   13192    1141     836    1184   10876   10868+
+           8472   11253   10860   10866
CTETRA      9865       1   13192     967    1141    1184    7765   10853+
+          10876   11253   10861   10860
CTETRA      9866       1   13192    1108     967    1184   11120    9365+
+           7765   11253   11123   10861
CTETRA      9867       1   13192      77    1108    1184    9714    9719+
+          11120   11253    9717   11123
CTETRA      9868       1   13192      77    1184     198    9714    9717+
+          11253    1948    9715   11254
CTETRA      9869       1   13192    1184     836     198   11253   10866+
+           8472    1948   11254    9045
CTETRA      9870       1   13661    1184     836     848   11255   10866+
+           6992   11256    9718   10867
CTETRA      9871       1   13661      77    1184     848   11257    9717+
+          11255   11256    8362    9718
CTETRA      9872       1   16768     848      77    1051    8361    8362+
+           1486    8367   11258    9373
CTETRA      9873       1   18048     848   16768    1051    6825    8361+
+          16850    8366   11258    8367
CTETRA      9874       1   18048   13661   18049     848   14618   14620+
+          18062    6825   11256    6826
CTETRA      9875       1   18049   13661    1120     848   14620   10871+
+           8903    6826   11256    9361
CTETRA      9876       1   13661     836    1120     848    6992   10869+
+          10871   11256   10867    9361
CTETRA      9877       1   13661     836    1184     198    6992   10866+
+          11255   11259    9045   11254
CTETRA      9878       1   17504     836   13661     198    6736    6992+
+          14619    1946    9045   11259
CTETRA      9879       1   17504   13661   17505     198   14619   14617+
+          17549    1946   11259    1947
CTETRA      9880       1   17505   13661    1165     198   14617    9713+
+           9370    1947   11259    9372
CTETRA      9881       1   13661      54    1165     198    9652    9653+
+           9713   11259    9654    9372
CTETRA      9882       1   13661      77      54     198   11257    1488+
+           9652   11259    9715    9654
CTETRA      9883       1   13661    1184      77     198   11255    9717+
+          11257   11259   11254    9715
CTETRA      9884       1   13661      54      77    1051    9652    1488+
+          11257   11260    8368    9373
CTETRA      9885       1   18048      54   13661    1051    1413    9652+
+          14618    8366    8368   11260
CTETRA      9886       1   18048   13661     848    1051   14618   11256+
+           6825    8366   11260   11258
CTETRA      9887       1   13661      77     848    1051   11257    8362+
+          11256   11260    9373   11258
CTETRA      9888       1   11512    1075     255    1076    9954    9934+
+           9955   11261    8523    9936
CTETRA      9889       1   17210    1075   11512    1076    8520    9954+
+          11550    8521    8523   11261
CTETRA      9890       1   18085   17210   11512    1076   17225   11550+
+          11553    8947    8521   11261
CTETRA      9891       1   18085   11512     253    1076   11553   10807+
+           2179    8947   11261   10810
CTETRA      9892       1   11669    1076     253    1123    9946   10810+
+           8776    8922   11262   11263
CTETRA      9893       1   11669     257    1076    1123    8053    9947+
+           9946    8922    8924   11262
CTETRA      9894       1   11512     255     257    1076    9955    2189+
+          11264   11261    9936    9947
CTETRA      9895       1   11669    1050     253     865    8777    8364+
+           8776    6958   11265   10811
CTETRA      9896       1   11669    1050     865    1079    8777   11265+
+           6958    8541   11266    8542
CTETRA      9897       1   17276   11785   11755    1050   11923   11925+
+          11787    8543   11267   11268
CTETRA      9898       1   18085   17276   11755    1050   17277   11787+
+          11786    8363    8543   11268
CTETRA      9899       1   18085   11755     253    1050   11786   10812+
+           2179    8363   11268    8364
CTETRA      9900       1   11928     558     442    1053    7874    5363+
+           5710   11269    8380    8379
CTETRA      9901       1   17380     558   11928    1053    3971    7874+
+          12215    8376    8380   11269
CTETRA      9902       1   17380   11928   17381    1053   12215   12037+
+          17388    8376   11269    8377
CTETRA      9903       1   17381   11928     442    1053   12037    5710+
+           5697    8377   11269    8379
CTETRA      9904       1   16314     156   16364     717    7795    7796+
+          16604   11270    9356    9002
CTETRA      9905       1   16314     972     156     717   11134    7805+
+           7795   11270   11135    9356
CTETRA      9906       1   17794     972   16314     717    8394   11134+
+          16506    5358   11135   11270
CTETRA      9907       1   17794   16314   16364     717   16506   16604+
+          16603    5358   11270    9002
CTETRA      9908       1   17191    1056   13660    1146    8410   11271+
+          14615    9136   11272   11146
CTETRA      9909       1   13660    1056     975    1146   11271   11142+
+          11141   11146   11272   11147
CTETRA      9910       1   18007     975   13660    1056    8203   11141+
+          14612    8406   11142   11271
CTETRA      9911       1   18007   13660   18008    1056   14612   14611+
+          18023    8406   11271    8407
CTETRA      9912       1   18008   13660   13453    1056   14611   14630+
+          13905    8407   11271    8409
CTETRA      9913       1   17191   13453   13660    1056   13903   14630+
+          14615    8410    8409   11271
CTETRA      9914       1   11567    1154    1057    1058    9907    9467+
+          11273    8415    9909   11274
CTETRA      9915       1   11567    1057    1056    1058   11273    8413+
+           8408    8415   11274    8416
CTETRA      9916       1   11567    1145    1056    1057   11143   11145+
+           8408   11273    9135    8413
CTETRA      9917       1   11567    1145    1057    1125   11143    9135+
+          11273    8948   11183   11275
CTETRA      9918       1   11567    1057    1154    1125   11273    9467+
+           9907    8948   11275   11013
CTETRA      9919       1   13453    1057    1154    1058    8412    9467+
+           9234   11276   11274    9909
CTETRA      9920       1   13453    1056    1057    1058    8409    8413+
+           8412   11276    8416   11274
CTETRA      9921       1   18008    1056   13453    1058    8407    8409+
+          13905    8414    8416   11276
CTETRA      9922       1   18008   13453     706    1058   13905    9905+
+           5260    8414   11276    9908
CTETRA      9923       1   13453    1154     706    1058    9234    9906+
+           9905   11276    9909    9908
CTETRA      9924       1   15593     637     844    1062    6583    6795+
+          10892   11277    8444    8443
CTETRA      9925       1   15593     842     637    1062   10887    6786+
+           6583   11277   10888    8444
CTETRA      9926       1   18103     842   15593    1062    8812   10887+
+          15820    8810   10888   11277
CTETRA      9927       1   18103   15593   17669    1062   15820   15821+
+          17700    8810   11277    8811
CTETRA      9928       1   17669   15593     844    1062   15821   10892+
+           8995    8811   11277    8443
CTETRA      9929       1   16769     835    1141    1066   10850    9104+
+           9698   11278    8845    9103
CTETRA      9930       1   16769     840     835    1066    9694    8843+
+          10850   11278    8846    8845
CTETRA      9931       1   16769      74     840    1066    9656    9695+
+           9694   11278    8464    8846
CTETRA      9932       1   16769      75      74    1066    9697    1483+
+           9656   11278    8465    8464
CTETRA      9933       1   16769    1141      75    1066    9698    9101+
+           9697   11278    9103    8465
CTETRA      9934       1   18044    1043   13379    1067    8530   11248+
+          13699    9478    8470   11279
CTETRA      9935       1   18044   13379     390    1067   13699   10127+
+           9165    9478   11279   10128
CTETRA      9936       1   13379     141     390    1067    8978    2911+
+          10127   11279    8469   10128
CTETRA      9937       1   13379    1043     141    1067   11248    8467+
+           8978   11279    8470    8469
CTETRA      9938       1   16983     968    1108    1142    8475   11117+
+          11280   11281   11119    9746
CTETRA      9939       1   16983    1068     968    1142    8473    8476+
+           8475   11281    9109   11119
CTETRA      9940       1   17893    1068   16983    1142    9100    8473+
+          17120    9107    9109   11281
CTETRA      9941       1   17893   16983      91    1142   17120    9741+
+           9106    9107   11281    9745
CTETRA      9942       1   16983    1108      91    1142   11280    8764+
+           9741   11281    9746    9745
CTETRA      9943       1   17134     487     489    1069    9149    3505+
+           9150   11282   10090   10250
CTETRA      9944       1   17134     360     487    1069   11283   10089+
+           9149   11282    9492   10090
CTETRA      9945       1   16874    1069     360     832    8484    9492+
+           2701    6724   11284    6725
CTETRA      9946       1   16865    1069   16874    1152    8482    8484+
+          16900    9222   11285    9490
CTETRA      9947       1   16865   16866    1069    1152   16905    9112+
+           8482    9222    9468   11285
CTETRA      9948       1   16866    1097    1069    1197    9380    9382+
+           9112   11286   11287   11288
CTETRA      9949       1   17134   17135    1097    1069   17175   10959+
+           9320   11282   11289    9382
CTETRA      9950       1   17134     489   17135    1069    9150    9111+
+          17175   11282   10250   11289
CTETRA      9951       1   16874    1138    1152     832    9065    9491+
+           9490    6724   10018   11290
CTETRA      9952       1   17134   17136    1138    1152   17187   11154+
+          11157   11291   11292    9491
CTETRA      9953       1   13659    1152    1106    1107   11293   11294+
+           8754    8757   11295    8758
CTETRA      9954       1   16866    1152    1135    1197    9468   11296+
+           9037   11286   11297   11298
CTETRA      9955       1   16866    1069    1152    1197    9112   11285+
+           9468   11286   11288   11297
CTETRA      9956       1   16874    1152    1069     832    9490   11285+
+           8484    6724   11290   11284
CTETRA      9957       1   17134    1138     357     832   11157   10017+
+          10019   11299   10018    6726
CTETRA      9958       1   17134    1152    1138     832   11291    9491+
+          11157   11299   11290   10018
CTETRA      9959       1   17134    1069    1152     832   11282   11285+
+          11291   11299   11284   11290
CTETRA      9960       1   17134     360    1069     832   11283    9492+
+          11282   11299    6725   11284
CTETRA      9961       1   17134     357     360     832   10019    6722+
+          11283   11299    6726    6725
CTETRA      9962       1   12727    1070     495    1071   11092    8716+
+           7736   11300    8489    8717
CTETRA      9963       1   17418    1070   12727    1071    8486   11092+
+          12838    8487    8489   11300
CTETRA      9964       1   17418   12727    1034    1071   12838   11243+
+           8708    8487   11300   11244
CTETRA      9965       1   12727     495    1034    1071    7736    8506+
+          11243   11300    8717   11244
CTETRA      9966       1   11938     494   11945    1101    8500    6702+
+          12067   11301    8701   11302
CTETRA      9967       1   11938     498     494    1101   10256    3546+
+           8500   11301   10258    8701
CTETRA      9968       1   17304     498   11938    1101    8504   10256+
+          12065    9184   10258   11301
CTETRA      9969       1   17304   11938   11945    1101   12065   12067+
+          12068    9184   11301   11302
CTETRA      9970       1   11512     812     253    1194   10800   10804+
+          10807   11303   10802   10808
CTETRA      9971       1   11512     206     812    1194   10799    9873+
+          10800   11303   10803   10802
CTETRA      9972       1   11512    1026     206    1194   11226    8170+
+          10799   11303   11229   10803
CTETRA      9973       1   11669    1194    1026    1123   10809   11229+
+           8902    8922   11304   11228
CTETRA      9974       1   11669     253    1194    1123    8776   10808+
+          10809    8922   11263   11304
CTETRA      9975       1   11669    1080    1050    1079    8887    8545+
+           8777    8541   11305   11266
CTETRA      9976       1   11669    1118    1080    1079    8895    8894+
+           8887    8541   10677   11305
CTETRA      9977       1   17276    1080   15336    1181    8544    9254+
+          15464    9506   11306    9507
CTETRA      9978       1   17276   11785    1050    1080   11923   11267+
+           8543    8544   11307    8545
CTETRA      9979       1   11507    1154    1057    1125   11012    9467+
+           9318   11308   11013   11275
CTETRA      9980       1   11507     706    1154    1125   11010    9906+
+          11012   11308   11014   11013
CTETRA      9981       1   11507     910     706    1125   11022    9091+
+          11010   11308   11024   11014
CTETRA      9982       1   11577    1125     910    1175    8949   11024+
+           8548    9462   11309   11023
CTETRA      9983       1   11576    1125   11577    1175    8950    8949+
+          11592    9461   11309    9462
CTETRA      9984       1   11576    1011    1125    1093    8955    8957+
+           8950   11310    9457   11311
CTETRA      9985       1   11507    1145    1011    1125    9317   11182+
+          11184   11308   11183    8957
CTETRA      9986       1   11507    1057    1145    1125    9318    9135+
+           9317   11308   11275   11183
CTETRA      9987       1   11576    1175     120    1093    9461    9463+
+           1645   11310   11312    8628
CTETRA      9988       1   11576    1125    1175    1093    8950   11309+
+           9461   11310   11311   11312
CTETRA      9989       1   11507     910    1125    1175   11022   11024+
+          11308   11313   11023   11309
CTETRA      9990       1   11507     229     910    1175   11018    7304+
+          11022   11313   11017   11023
CTETRA      9991       1   11507     940     229    1175   11019    9897+
+          11018   11313   11015   11017
CTETRA      9992       1   11779    1175     940    1176   11314   11015+
+          11020    9466   11315   11021
CTETRA      9993       1   11779     120    1175    1176    9773    9463+
+          11314    9466    9775   11315
CTETRA      9994       1   17897   16781    1084    1147   16837    8575+
+           8972    9155    9157   11316
CTETRA      9995       1   16781     326    1084    1147    8231    8576+
+           8575    9157    9331   11316
CTETRA      9996       1   16967     165     326    1084    7004    7007+
+           7020   11317    8971    8576
CTETRA      9997       1   16966     165   16967    1084    7005    7004+
+          17034   11318    8971   11317
CTETRA      9998       1   18111   16966   16967    1084   17036   17034+
+          17043    8959   11318   11317
CTETRA      9999       1   18111   16967   17897    1084   17043   17044+
+          17907    8959   11317    8972
CTETRA     10000       1   16967     326    1036    1147    7020    8254+
+          11234   11319    9331    9156
CTETRA     10001       1   16967    1084     326    1147   11317    8576+
+           7020   11319   11316    9331
CTETRA     10002       1   17897    1084   16967    1147    8972   11317+
+          17044    9155   11316   11319
CTETRA     10003       1   17897   16967    1036    1147   17044   11234+
+           9154    9155   11319    9156
CTETRA     10004       1   13659    1152    1086    1106   11293    9221+
+          11320    8754   11294   11321
CTETRA     10005       1   13659    1086    1023    1106   11320    9068+
+           9327    8754   11321   11221
CTETRA     10006       1   13399    1023   13659    1086    8129    9327+
+          14608   11322    9068   11320
CTETRA     10007       1   18065   13399   13659    1086   13707   14608+
+          14607    8584   11322   11320
CTETRA     10008       1   18065   16866    1086    1135   16942    8585+
+           8584    9082    9037   11323
CTETRA     10009       1   16866    1152    1086    1135    9468    9221+
+           8585    9037   11296   11323
CTETRA     10010       1   17943   13411   13659    1135   13760   14631+
+          14610    9473   11324   11325
CTETRA     10011       1   17943    1135   13659    1107    9473   11325+
+          14610    9477   11326    8757
CTETRA     10012       1   13659    1135    1152    1107   11325   11296+
+          11293    8757   11326   11295
CTETRA     10013       1   13659    1086    1152    1135   11320    9221+
+          11293   11325   11323   11296
CTETRA     10014       1   18065    1086   13659    1135    8584   11320+
+          14607    9082   11323   11325
CTETRA     10015       1   18064   18065   13659    1135   18080   14607+
+          14606    9038    9082   11325
CTETRA     10016       1   18064   13659   13411    1135   14606   14631+
+          13762    9038   11325   11324
CTETRA     10017       1   16318   16331     173    1091   16467    6551+
+           7432   11327   11328    8620
CTETRA     10018       1   17797   16331   16318    1091   16466   16467+
+          16469    9345   11328   11327
CTETRA     10019       1   17796   17797   16318    1091   17818   16469+
+          16504    9344    9345   11327
CTETRA     10020       1   17796   16318     876    1091   16504   10946+
+           7036    9344   11327   10947
CTETRA     10021       1   16318     172     876    1091    7431    8866+
+          10946   11327    8619   10947
CTETRA     10022       1   16318     173     172    1091    7432    1832+
+           7431   11327    8620    8619
CTETRA     10023       1   11507    1175     120    1176   11313    9463+
+          11329   11330   11315    9775
CTETRA     10024       1   11507     940    1175    1176   11019   11015+
+          11313   11330   11021   11315
CTETRA     10025       1   18082     940   11507    1176    7541   11019+
+          11529    9464   11021   11330
CTETRA     10026       1   18082   11507   17218    1176   11529   11528+
+          17221    9464   11330    9465
CTETRA     10027       1   17218   11507     120    1176   11528   11329+
+           2162    9465   11330    9775
CTETRA     10028       1   17218   11507    1011    1093   11528   11184+
+           8049    8629   11331    9457
CTETRA     10029       1   11507    1125    1011    1093   11308    8957+
+          11184   11331   11311    9457
CTETRA     10030       1   11507    1175    1125    1093   11313   11309+
+          11308   11331   11312   11311
CTETRA     10031       1   11507     120    1175    1093   11329    9463+
+          11313   11331    8628   11312
CTETRA     10032       1   17218     120   11507    1093    2162   11329+
+          11528    8629    8628   11331
CTETRA     10033       1   11577     940    1095    1008    9452    9095+
+           9236    8042   11016   11332
CTETRA     10034       1   18082     940   11779    1095    7541   11020+
+          11886    9093    9095   11333
CTETRA     10035       1   17233   18082   11779    1095   17235   11886+
+          11885    9417    9093   11333
CTETRA     10036       1   17233   11779     474    1095   11885   10224+
+           3416    9417   11333    8638
CTETRA     10037       1   11578    1095     474    1094    8639    8638+
+           8270    8636   11334   10223
CTETRA     10038       1   11577    1095   11578    1094    9236    8639+
+          11596    9247   11334    8636
CTETRA     10039       1   17241    1169   11779    1094    9419   11104+
+          11916    8637    9420   11335
CTETRA     10040       1   17240   17241   11779    1094   17250   11916+
+          11888    8635    8637   11335
CTETRA     10041       1   17240   11577    1094    1008   11628    9247+
+           8635    8043    8042   11336
CTETRA     10042       1   11577    1095    1094    1008    9236   11334+
+           9247    8042   11332   11336
CTETRA     10043       1   11779     474    1095    1094   10224    8638+
+          11333   11335   10223   11334
CTETRA     10044       1   11779    1169     474    1094   11104   10222+
+          10224   11335    9420   10223
CTETRA     10045       1   17943   13411    1135    1098   13760   11324+
+           9473    8670   11337    9041
CTETRA     10046       1   18064    1135   13411    1098    9038   11324+
+          13762    9039    9041   11337
CTETRA     10047       1   18064   16867    1098    1136   16940    9081+
+           9039    9080    9048   11338
CTETRA     10048       1   16867    1097    1098    1136    9471    8669+
+           9081    9048   10957   11338
CTETRA     10049       1   17943    1097   13411    1098    8668   10954+
+          13760    8670    8669   11337
CTETRA     10050       1   16866    1135    1098    1099    9037    9041+
+           9040   11339    9475    8673
CTETRA     10051       1   16866    1135    1099    1197    9037    9475+
+          11339   11286   11298   11340
CTETRA     10052       1   16866    1099    1097    1197   11339    8672+
+           9380   11286   11340   11287
CTETRA     10053       1   16866    1098    1097    1099    9040    8669+
+           9380   11339    8673    8672
CTETRA     10054       1   13170      38      37    1114    9624    1349+
+           9618   11341    9389    9388
CTETRA     10055       1   13170     913      38    1114    7340    9458+
+           9624   11341    8841    9389
CTETRA     10056       1   13170     859     913    1114    7517    8839+
+           7340   11341    8842    8841
CTETRA     10057       1   13170     996     859    1114   11173    8739+
+           7517   11341   11174    8842
CTETRA     10058       1   13170      37     996    1114    9618    8945+
+          11173   11341    9388   11174
CTETRA     10059       1   13456      38     913    1156    9623    9458+
+          10915   11342    9268   10913
CTETRA     10060       1   18011      38   13456    1156    7306    9623+
+          13914    9266    9268   11342
CTETRA     10061       1   18011   13456     923    1156   13914   11046+
+           7994    9266   11342   11048
CTETRA     10062       1   13456     859     923    1156    9120    7422+
+          11046   11342   10914   11048
CTETRA     10063       1   13456     913     859    1156   10915    8839+
+           9120   11342   10913   10914
CTETRA     10064       1   17134   17136    1152    1106   17187   11292+
+          11291   11343   11344   11294
CTETRA     10065       1   17136    1086    1152    1106   11345    9221+
+          11292   11344   11321   11294
CTETRA     10066       1   17136    1023    1086    1106   11219    9068+
+          11345   11344   11221   11321
CTETRA     10067       1   17942    1023   17136    1106    9326   11219+
+          17182    8755   11221   11344
CTETRA     10068       1   17942   17136   17134    1106   17182   17187+
+          17172    8755   11344   11343
CTETRA     10069       1   17134    1106    1152    1107   11343   11294+
+          11291   11346    8758   11295
CTETRA     10070       1   17942    1106   17134    1107    8755   11343+
+          17172    8756    8758   11346
CTETRA     10071       1   17942   17134   17943    1107   17172   17171+
+          17953    8756   11346    9477
CTETRA     10072       1   17943   17134    1135    1107   17171    9474+
+           9473    9477   11346   11326
CTETRA     10073       1   17134    1152    1135    1107   11291   11296+
+           9474   11346   11295   11326
CTETRA     10074       1   13192      90      91    1178    9735    1554+
+           9742   11347    9484    9483
CTETRA     10075       1   13192      76      90    1178    9706    9708+
+           9735   11347    9709    9484
CTETRA     10076       1   13192      77      76    1178    9714    1487+
+           9706   11347    9720    9709
CTETRA     10077       1   13192    1108      77    1178   11120    9719+
+           9714   11347   11122    9720
CTETRA     10078       1   13192      91    1108    1178    9742    8764+
+          11120   11347    9483   11122
CTETRA     10079       1   15336   15337     920    1118   15465   11037+
+          11036   11348   11349   11038
CTETRA     10080       1   15336    1080   15337    1118    9254    8546+
+          15465   11348    8894   11349
CTETRA     10081       1   15336    1080    1118    1181    9254    8894+
+          11348    9507   11306   11350
CTETRA     10082       1   15336    1118     755    1181   11348   10676+
+          10674    9507   11350   10679
CTETRA     10083       1   15336     920     755    1118   11036   10675+
+          10674   11348   11038   10676
CTETRA     10084       1   15337     920    1118    1111   11037   11038+
+          11349   11351   11039    8896
CTETRA     10085       1   15337    1159     920    1111   11224    9406+
+          11037   11351   11225   11039
CTETRA     10086       1   15337     253    1159    1111    2178    9301+
+          11224   11351    8779   11225
CTETRA     10087       1   15337    1050     253    1111    8365    8364+
+           2178   11351    8780    8779
CTETRA     10088       1   15337    1080    1050    1111    8546    8545+
+           8365   11351    8888    8780
CTETRA     10089       1   15337    1118    1080    1111   11349    8894+
+           8546   11351    8896    8888
CTETRA     10090       1   11755     253    1050     865   10812    8364+
+          11268   11352   10811   11265
CTETRA     10091       1   11755    1076     253     865    8522   10810+
+          10812   11352    9948   10811
CTETRA     10092       1   11755     257    1076     865    9944    9947+
+           8522   11352    9945    9948
CTETRA     10093       1   17256     257   11755     865    8052    9944+
+          11795    6959    9945   11352
CTETRA     10094       1   18088   17256   11755     865   17265   11795+
+          11914    6957    6959   11352
CTETRA     10095       1   18088   11755   11785     865   11914   11925+
+          11926    6957   11352   11353
CTETRA     10096       1   11755    1050   11785     865   11268   11267+
+          11925   11352   11265   11353
CTETRA     10097       1   11512     253    1076    1123   10807   10810+
+          11261   11354   11263   11262
CTETRA     10098       1   11512    1194     253    1123   11303   10808+
+          10807   11354   11304   11263
CTETRA     10099       1   11512    1026    1194    1123   11226   11229+
+          11303   11354   11228   11304
CTETRA     10100       1   11670    1123    1026    1112    8923   11228+
+           8791    8782   11355   11227
CTETRA     10101       1   11670     257    1123    1112    2188    8924+
+           8923    8782    8784   11355
CTETRA     10102       1   11512    1076     257    1123   11261    9947+
+          11264   11354   11262    8924
CTETRA     10103       1   11785    1118    1080    1181   11356    8894+
+          11307   11357   11350   11306
CTETRA     10104       1   11785     755    1118    1181   10681   10676+
+          11356   11357   10679   11350
CTETRA     10105       1   17275     755   11785    1181   10678   10681+
+          11924    9505   10679   11357
CTETRA     10106       1   17275   11785   17276    1181   11924   11923+
+          17279    9505   11357    9506
CTETRA     10107       1   17276   11785    1080    1181   11923   11307+
+           8544    9506   11357   11306
CTETRA     10108       1   18111   16966    1084    1126   17036   11318+
+           8959    8961   11358    8962
CTETRA     10109       1   16966     165    1084    1126    7005    8971+
+          11318   11358    8974    8962
CTETRA     10110       1   16966      51     165    1126    9640    8964+
+           7005   11358    9638    8974
CTETRA     10111       1   18111      51   16966    1126    8979    9640+
+          17036    8961    9638   11358
CTETRA     10112       1   15546     268     273    1129    8115    2274+
+           9963   11359    8989    9248
CTETRA     10113       1   16027    1129     268     671    8990    8989+
+           2247    4911   11360    6554
CTETRA     10114       1   17686    1129   16027     671    9003    8990+
+          16132    4910   11360    4911
CTETRA     10115       1   17686   15546   17687    1129   15660   15659+
+          17690    9003   11359    9275
CTETRA     10116       1   17687   15546     273    1129   15659    9963+
+           8274    9275   11359    9248
CTETRA     10117       1   14753     645    1133    1131   10486    9025+
+           9835   11361   10487    9515
CTETRA     10118       1   14753     619     645    1131    5876    5221+
+          10486   11361    9020   10487
CTETRA     10119       1   17554     619   14753    1131    7223    5876+
+          15165    9018    9020   11361
CTETRA     10120       1   17553   17554   14753    1131   17568   15165+
+          15167    9514    9018   11361
CTETRA     10121       1   17553   14753    1133    1131   15167    9835+
+           9513    9514   11361    9515
CTETRA     10122       1   13614    1133     645    1116    9833    9025+
+           4620   11362    9028    9027
CTETRA     10123       1   13614     700    1133    1116    9527    9770+
+           9833   11362    9499    9028
CTETRA     10124       1   13614   13621     700    1116   14462    5218+
+           9527   11362   11363    9499
CTETRA     10125       1   17509   13621   13614    1116   14457   14462+
+          14436    8867   11363   11362
CTETRA     10126       1   17509   13614   17510    1116   14436   14435+
+          17534    8867   11362    8868
CTETRA     10127       1   17510   13614     619    1116   14435    4425+
+           4433    8868   11362    9229
CTETRA     10128       1   13614     645     619    1116    4620    5221+
+           4425   11362    9027    9229
CTETRA     10129       1   17136    1152    1086    1153   11292    9221+
+          11345   11364    9225    9224
CTETRA     10130       1   17136    1138    1152    1153   11154    9491+
+          11292   11364   11156    9225
CTETRA     10131       1   17136    1029    1138    1153   11159   11155+
+          11154   11364   11160   11156
CTETRA     10132       1   17136     682    1029    1153   11158    8202+
+          11159   11364   11161   11160
CTETRA     10133       1   17136    1023     682    1153   11219   10547+
+          11158   11364   11222   11161
CTETRA     10134       1   17136    1086    1023    1153   11345    9068+
+          11219   11364    9224   11222
CTETRA     10135       1   13399    1023    1086     966    8129    9068+
+          11322   11365    9071    9070
CTETRA     10136       1   13399     682    1023     966   10545   10547+
+           8129   11365   10546    9071
CTETRA     10137       1   18066     682   13399     966    5056   10545+
+          13708    7762   10546   11365
CTETRA     10138       1   18065   18066   13399     966   18074   13708+
+          13707    7760    7762   11365
CTETRA     10139       1   18065   13399    1086     966   13707   11322+
+           8584    7760   11365    9070
CTETRA     10140       1   16983      90      91    1105    9740    1554+
+           9741   11366    9744    9743
CTETRA     10141       1   16983    1139      90    1105    9750    9737+
+           9740   11366    9751    9744
CTETRA     10142       1   17885    1139   16983    1105    9076    9750+
+          17118    9485    9751   11366
CTETRA     10143       1   17884   17885   16983    1105   17887   17118+
+          17117    8750    9485   11366
CTETRA     10144       1   17884   16983     968    1105   17117    8475+
+           7766    8750   11366    8751
CTETRA     10145       1   16983    1108     968    1105   11280   11117+
+           8475   11366   11121    8751
CTETRA     10146       1   16983      91    1108    1105    9741    8764+
+          11280   11366    9743   11121
CTETRA     10147       1   17135    1069     489    1186   11289   10250+
+           9111   11367   10252   10251
CTETRA     10148       1   17135    1097    1069    1186   10959    9382+
+          11289   11367   10958   10252
CTETRA     10149       1   17135     877    1097    1186   10950   10952+
+          10959   11367   10951   10958
CTETRA     10150       1   17135     122     877    1186   10948    9325+
+          10950   11367    9802   10951
CTETRA     10151       1   17135     488     122    1186    9110    9800+
+          10948   11367    9803    9802
CTETRA     10152       1   17135     489     488    1186    9111    3506+
+           9110   11367   10251    9803
CTETRA     10153       1   17954   17135     488    1162   17173    9110+
+           3503    9323   11368   10248
CTETRA     10154       1   17135     122     488    1162   10948    9800+
+           9110   11368    9793   10248
CTETRA     10155       1   17135     123     122    1162   10949    1651+
+          10948   11368    9788    9793
CTETRA     10156       1   17135    1137     123    1162   11004    9779+
+          10949   11368    9789    9788
CTETRA     10157       1   18113    1137   17135    1162    9061   11004+
+          17176    9322    9789   11368
CTETRA     10158       1   18113   17135   17954    1162   17176   17173+
+          17971    9322   11368    9323
CTETRA     10159       1   17134     487     360     358    9149   10089+
+          11283   11369   10099   10088
CTETRA     10160       1   17954     487   17134     358    3501    9149+
+          17174    9476   10099   11369
CTETRA     10161       1   17954   17134   17955     358   17174   17186+
+          17972    9476   11369    2694
CTETRA     10162       1   17955   17134     357     358   17186   10019+
+           2692    2694   11369    2695
CTETRA     10163       1   17134     360     357     358   11283    6722+
+          10019   11369   10088    2695
CTETRA     10164       1   12761     147     160    1148    3948    1775+
+          11196   11370    9164    9163
CTETRA     10165       1   12761     558     147    1148    3949    3951+
+           3948   11370    9190    9164
CTETRA     10166       1   12761     563     558    1148    3982    3981+
+           3949   11370    9173    9190
CTETRA     10167       1   18094     563   12761    1148    7863    3982+
+          13157    9172    9173   11370
CTETRA     10168       1   18094   12761     160    1148   13157   11196+
+           8018    9172   11370    9163
CTETRA     10169       1   11508    1173     401    1192   11237    9449+
+           8279   11371   11238   10078
CTETRA     10170       1   11508    1161    1173    1192   10004   10008+
+          11237   11371   10082   11238
CTETRA     10171       1   11508     849    1161    1192   10077   10006+
+          10004   11371   10083   10082
CTETRA     10172       1   11508     401     849    1192    8279    6867+
+          10077   11371   10078   10083
CTETRA     10173       1   11576    1093     120     249   11310    8628+
+           1645   11372    8630    2165
CTETRA     10174       1   11576    1011    1093     249    8955    9457+
+          11310   11372    8051    8630
CTETRA     10175       1   11576     121    1011     249    1648    8050+
+           8955   11372    2164    8051
CTETRA     10176       1   11576     120     121     249    1645    1649+
+           1648   11372    2165    2164
CTETRA     10177       1   16391      23     371     270    4113    6153+
+          10101   11373    3563   10102
CTETRA     10178       1   16391     269      23     270    9959    3562+
+           4113   11373    2255    3563
CTETRA     10179       1   17855     269   16391     270    2252    9959+
+          16692    2253    2255   11373
CTETRA     10180       1   17854   17855   16391     270   17870   16692+
+          16691    5305    2253   11373
CTETRA     10181       1   17854   16391     371     270   16691   10101+
+           2766    5305   11373   10102
CTETRA     10182       1   17298   12025     928     338   12365   11052+
+           7455    6674   11374   11053
CTETRA     10183       1   12025     454     928     338    7628    7466+
+          11052   11374    8862   11053
CTETRA     10184       1   12025     335     454     338    2593    4994+
+           7628   11374    2610    8862
CTETRA     10185       1   12025     337     335     338   10055    2608+
+           2593   11374    2611    2610
CTETRA     10186       1   17297     337   12025     338    6663   10055+
+          12364    6673    2611   11374
CTETRA     10187       1   17297   12025   17298     338   12364   12365+
+          17325    6673   11374    6674
CTETRA     10188       1   15342     347     346     549   10063    2650+
+          10064   11375    4928    4927
CTETRA     10189       1   18097     347   15342     549    6392   10063+
+          15489    3891    4928   11375
CTETRA     10190       1   18097   15342     200     549   15489    9861+
+           1957    3891   11375    3892
CTETRA     10191       1   15342     105     200     549    4112    1972+
+           9861   11375    6853    3892
CTETRA     10192       1   15342     346     105     549   10064    5753+
+           4112   11375    4927    6853
CTETRA     10193       1   16353     153   16357     155    1752    1754+
+          16553   11376    4160   11377
CTETRA     10194       1   17848   16353   16357     155   16542   16553+
+          16551    1761   11376   11377
CTETRA     10195       1   17847   17848   16357     155   17863   16551+
+          16552    1759    1761   11377
CTETRA     10196       1   17847   16357     151     155   16552   10023+
+           1748    1759   11377   10022
CTETRA     10197       1   16357     203     151     155    4519    2398+
+          10023   11377    4159   10022
CTETRA     10198       1   16357     153     203     155    1754    4157+
+           4519   11377    4160    4159
CTETRA     10199       1   17587   15330     597     554   15434   10398+
+           4271    3924   11378    4273
CTETRA     10200       1   15330     226     597     554   10071    8799+
+          10398   11378    8800    4273
CTETRA     10201       1   15330     592     226     554   10385    8140+
+          10071   11378   10386    8800
CTETRA     10202       1   17586     592   15330     554    4240   10385+
+          15430    3923   10386   11378
CTETRA     10203       1   17586   15330   17587     554   15430   15434+
+          17610    3923   11378    3924
CTETRA     10204       1   15617     307      82     306   10174    3142+
+           3640   11379   10175    7866
CTETRA     10205       1   17675     307   15617     306    2418   10174+
+          15978    2415   10175   11379
CTETRA     10206       1   17675   15617   17676     306   15978   15981+
+          17707    2415   11379    2416
CTETRA     10207       1   17676   15617      89     306   15981   10172+
+           4520    2416   11379    4521
CTETRA     10208       1   15617      82      89     306    3640    1546+
+          10172   11379    7866    4521
CTETRA     10209       1   17686   15546    1129     671   15660   11359+
+           9003    4910   11380   11360
CTETRA     10210       1   15546     268    1129     671    8115    8989+
+          11359   11380    6554   11360
CTETRA     10211       1   15546      68     268     671    9962    2249+
+           8115   11380    4912    6554
CTETRA     10212       1   17686      68   15546     671    1463    9962+
+          15660    4910    4912   11380
CTETRA     10213       1   16775      81      20     710    1505    1504+
+           1502   11381    5284    8583
CTETRA     10214       1   16775     138      81     710    1702    1701+
+           1505   11381    5285    5284
CTETRA     10215       1   16775      20     138     710    1502    7898+
+           1702   11381    8583    5285
CTETRA     10216       1   17195   11509     730     743   11542   10637+
+           5759    9228   11382   10638
CTETRA     10217       1   11509     635     730     743   10347    5587+
+          10637   11382    7588   10638
CTETRA     10218       1   11509     571     635     743   10346    5566+
+          10347   11382    5762    7588
CTETRA     10219       1   17196     571   11509     743    4047   10346+
+          11543    5760    5762   11382
CTETRA     10220       1   17195   17196   11509     743   17205   11543+
+          11542    9228    5760   11382
CTETRA     10221       1   15320     908    1177     786   11008    9479+
+          10962   11383   11007    9784
CTETRA     10222       1   15320      12     908     786   10073    9046+
+          11008   11383    6283   11007
CTETRA     10223       1   15320      11      12     786    9555    1249+
+          10073   11383    6284    6283
CTETRA     10224       1   15320     123      11     786    9780    8802+
+           9555   11383    9783    6284
CTETRA     10225       1   15320    1177     123     786   10962    9782+
+           9780   11383    9784    9783
CTETRA     10226       1   13187     788     286     792   10742    6330+
+           9984   11384    6379    6378
CTETRA     10227       1   18107     788   13187     792    6380   10742+
+          13332    6381    6379   11384
CTETRA     10228       1   18107   13187     289     792   13332    2333+
+           9498    6381   11384    8824
CTETRA     10229       1   13187     286     289     792    9984    8823+
+           2333   11384    6378    8824
CTETRA     10230       1   14677     210     384     334    2000    5259+
+          10113   11385    2591    6580
CTETRA     10231       1   14677     209     210     334    1997    2001+
+           2000   11385    2592    2591
CTETRA     10232       1   14677     169     209     334    2887    6858+
+           1997   11385    6579    2592
CTETRA     10233       1   14677     384     169     334   10113    2873+
+           2887   11385    6580    6579
CTETRA     10234       1   16770      69     837     834    9213    7268+
+           6745   11386    6731    7269
CTETRA     10235       1   16770     833      69     834    6739    6728+
+           9213   11386    6732    6731
CTETRA     10236       1   16770     839     833     834    6749    6751+
+           6739   11386    7325    6732
CTETRA     10237       1   16770     837     839     834    6745    6755+
+           6749   11386    7269    7325
CTETRA     10238       1   13427     135     674     857    5287    4970+
+           5286   11387    8439    8230
CTETRA     10239       1   13427     707     135     857   10612    9272+
+           5287   11387   10613    8439
CTETRA     10240       1   17522     707   13427     857    6888   10612+
+          13921    7911   10613   11387
CTETRA     10241       1   17522   13427   17523     857   13921   13918+
+          17539    7911   11387    6900
CTETRA     10242       1   17523   13427     856     857   13918   10828+
+           6898    6900   11387    6901
CTETRA     10243       1   13427     674     856     857    5286    8229+
+          10828   11387    8230    6901
CTETRA     10244       1   11967     946     780     947   10736    7566+
+           6716   11388    7570    7569
CTETRA     10245       1   17302     946   11967     947    9276   10736+
+          12151    7613    7570   11388
CTETRA     10246       1   17302   11967   17303     947   12151   12142+
+          17317    7613   11388    7614
CTETRA     10247       1   17303   12415     947    1072   12577    9421+
+           7614    8832    8501   11389
CTETRA     10248       1   12415     495     947    1072    3531    7735+
+           9421    8501    8503   11389
CTETRA     10249       1   11967     780     495     947    6716    6357+
+           7248   11388    7569    7735
CTETRA     10250       1   16362     952     211     953   10732    7634+
+           2004   11390    7638    7637
CTETRA     10251       1   18105     952   16362     953    7644   10732+
+          16590    7645    7638   11390
CTETRA     10252       1   18105   16362     618     953   16590   10443+
+           4432    7645   11390   10442
CTETRA     10253       1   16362     211     618     953    2004    7933+
+          10443   11390    7637   10442
CTETRA     10254       1   17300   11959     931     930   12123   11055+
+           7476    7473   11391   11056
CTETRA     10255       1   11959     461     931     930    7480    7791+
+          11055   11391    7789   11056
CTETRA     10256       1   11959     774     461     930   10723    6183+
+           7480   11391    7790    7789
CTETRA     10257       1   17299     774   11959     930    7467   10723+
+          12122    7472    7790   11391
CTETRA     10258       1   17299   11959   17300     930   12122   12123+
+          17316    7472   11391    7473
CTETRA     10259       1   16353     153     155     744    1752    4160+
+          11376   11392    7817    5770
CTETRA     10260       1   16353     519     153     744    6234    3649+
+           1752   11392    7818    7817
CTETRA     10261       1   16353     745     519     744   10660    5777+
+           6234   11392   10661    7818
CTETRA     10262       1   17848     745   16353     744    8354   10660+
+          16542    5769   10661   11392
CTETRA     10263       1   17848   16353     155     744   16542   11376+
+           1761    5769   11392    5770
CTETRA     10264       1   11976     232     243     545    2963    2145+
+           2167   11393    7840    7839
CTETRA     10265       1   17281     232   11976     545    2961    2963+
+          12181    3847    7840   11393
CTETRA     10266       1   17281   11976   17282     545   12181   12180+
+          17284    3847   11393    3848
CTETRA     10267       1   17282   11976     243     545   12180    2167+
+           2166    3848   11393    7839
CTETRA     10268       1   16317     166     601     668    4824    7936+
+          10404   11394    7966   10405
CTETRA     10269       1   16317     669     166     668   10445    7965+
+           4824   11394    4833    7966
CTETRA     10270       1   17778     669   16317     668    4832   10445+
+          16587    4827    4833   11394
CTETRA     10271       1   17777   17778   16317     668   17782   16587+
+          16488    4825    4827   11394
CTETRA     10272       1   17777   16317     601     668   16488   10404+
+           4296    4825   11394   10405
CTETRA     10273       1   17466   12751     942    1007   12942   11081+
+           8034    8873   11395   11082
CTETRA     10274       1   12751     458     942    1007    7667    7554+
+          11081   11395    8032   11082
CTETRA     10275       1   12751     889     458    1007   10979    7131+
+           7667   11395    8033    8032
CTETRA     10276       1   17466     889   12751    1007    8872   10979+
+          12942    8873    8033   11395
CTETRA     10277       1   16956      71    1009    1010    7352    9676+
+          11058   11396    9677    8047
CTETRA     10278       1   16956    1077      71    1010    9682    9678+
+           7352   11396    9679    9677
CTETRA     10279       1   16956     799    1077    1010   10771    8533+
+           9682   11396   10772    9679
CTETRA     10280       1   17895     799   16956    1010    8055   10771+
+          16998    8046   10772   11396
CTETRA     10281       1   17895   16956    1009    1010   16998   11058+
+           8044    8046   11396    8047
CTETRA     10282       1   15589     844       9    1035   10891    6794+
+           1242   11397   10893    8863
CTETRA     10283       1   17670     844   15589    1035    8943   10891+
+          15831    8242   10893   11397
CTETRA     10284       1   17670   15589     516    1035   15831   10288+
+           3635    8242   11397    8243
CTETRA     10285       1   15589       9     516    1035    1242    8387+
+          10288   11397    8863    8243
CTETRA     10286       1   13167   13168     474    1040   13224    3418+
+           3417   11398   11399    8269
CTETRA     10287       1   13167     229   13168    1040    9900    9899+
+          13224   11398    9901   11399
CTETRA     10288       1   13167     981     229    1040   11163    7850+
+           9900   11398   11162    9901
CTETRA     10289       1   13167    1012     981    1040   11110   11112+
+          11163   11398   11114   11162
CTETRA     10290       1   13167    1037    1012    1040   11115   11111+
+          11110   11398   11113   11114
CTETRA     10291       1   13167    1038    1037    1040    9415    8257+
+          11115   11398   10227   11113
CTETRA     10292       1   13167     474    1038    1040    3417   10226+
+           9415   11398    8269   10227
CTETRA     10293       1   13168     474    1040    1041    3418    8269+
+          11399   11400    8273    8272
CTETRA     10294       1   13168    1095     474    1041    9094    8638+
+           3418   11400    8640    8273
CTETRA     10295       1   11577    1041    1095    1174    9237    8640+
+           9236    9453   11401    9454
CTETRA     10296       1   11577     229    1041    1174    8555    9902+
+           9237    9453    9898   11401
CTETRA     10297       1   13168    1040     229    1041   11399    9901+
+           9899   11400    8272    9902
CTETRA     10298       1   17959     731   17127    1039    8593   10627+
+          17156    8265    8294   11402
CTETRA     10299       1   17959   17127   17960    1039   17156   17152+
+          17968    8265   11402    8266
CTETRA     10300       1   17960   17127     326    1039   17152    8030+
+           4397    8266   11402    8293
CTETRA     10301       1   17127     731     326    1039   10627    5625+
+           8030   11402    8294    8293
CTETRA     10302       1   17130    1179     326    1048   11245    9488+
+           8029   11403   11246    8340
CTETRA     10303       1   17130    1088    1179    1048   11028   11032+
+          11245   11403   11031   11246
CTETRA     10304       1   17130     328    1088    1048   11404    8601+
+          11028   11403    8339   11031
CTETRA     10305       1   17130    1048     326     883   11403    8340+
+           8029    7065   11405    8165
CTETRA     10306       1   16217     965     144     841   10615    8346+
+           1716   11406    8348    8347
CTETRA     10307       1   17738     965   16217     841    7742   10615+
+          16275    6773    8348   11406
CTETRA     10308       1   17737   17738   16217     841   17751   16275+
+          16270    6771    6773   11406
CTETRA     10309       1   17737   16217     150     841   16270    9825+
+           4525    6771   11406    9827
CTETRA     10310       1   16217     144     150     841    1716    1743+
+           9825   11406    8347    9827
CTETRA     10311       1   17801   16372     863    1060   16609   10921+
+           8644    9029   11407   10922
CTETRA     10312       1   16372     268     863    1060    6944    6950+
+          10921   11407    8426   10922
CTETRA     10313       1   16372     274     268    1060    9966    2278+
+           6944   11407    8427    8426
CTETRA     10314       1   17802     274   16372    1060    9332    9966+
+          16610    9030    8427   11407
CTETRA     10315       1   17801   17802   16372    1060   17823   16610+
+          16609    9029    9030   11407
CTETRA     10316       1   11994     103     102     983    5683    1591+
+           5682   11408    7869    9175
CTETRA     10317       1   17355     103   11994     983    1924    5683+
+          12244    7867    7869   11408
CTETRA     10318       1   17355   11994   17356     983   12244   12245+
+          17365    7867   11408    8477
CTETRA     10319       1   17356   11994     402     983   12245   10142+
+           2984    8477   11408    8478
CTETRA     10320       1   11994     102     402     983    5682    9174+
+          10142   11408    9175    8478
CTETRA     10321       1   11967     947     495    1072   11388    7735+
+           7248   11409   11389    8503
CTETRA     10322       1   17303     947   11967    1072    7614   11388+
+          12142    8832   11389   11409
CTETRA     10323       1   17303   11967     498    1072   12142   10257+
+           8831    8832   11409    8502
CTETRA     10324       1   11967     495     498    1072    7248    3547+
+          10257   11409    8503    8502
CTETRA     10325       1   11785    1080    1118    1079   11307    8894+
+          11356   11410   11305   10677
CTETRA     10326       1   11785    1050    1080    1079   11267    8545+
+          11307   11410   11266   11305
CTETRA     10327       1   11785     865    1050    1079   11353   11265+
+          11267   11410    8542   11266
CTETRA     10328       1   18088     865   11785    1079    6957   11353+
+          11926    8540    8542   11410
CTETRA     10329       1   17986    1079   18088    1122    8768    8540+
+          17990    8912   11411    9144
CTETRA     10330       1   17986     755    1079    1122    5888    8906+
+           8768    8912    8914   11411
CTETRA     10331       1   11785    1118     755    1079   11356   10676+
+          10681   11410   10677    8906
CTETRA     10332       1   17797   17798   16331    1089   17819   16442+
+          16466    9494    9359   11412
CTETRA     10333       1   17797   16011    1089    1163   16197    8818+
+           9494    9348    9350   11413
CTETRA     10334       1   16011     173    1089    1163    6763    8606+
+           8818    9350    9496   11413
CTETRA     10335       1   16331     595     173    1089   10393    4259+
+           6551   11412    8607    8606
CTETRA     10336       1   17798     595   16331    1089    9358   10393+
+          16442    9359    8607   11412
CTETRA     10337       1   17397   13163   13165    1092   13209   13212+
+          13210    9192   11414   11415
CTETRA     10338       1   13163     243   13165    1092    7713    4099+
+          13212   11414    8624   11415
CTETRA     10339       1   13163     244     243    1092    9922    2149+
+           7713   11414    9923    8624
CTETRA     10340       1   17397     244   13163    1092    2749    9922+
+          13209    9192    9923   11414
CTETRA     10341       1   17397    1092   13165    1003    9192   11415+
+          13210    8004    8627   11416
CTETRA     10342       1   17397   13165   17398    1003   13210   13211+
+          17402    8004   11416    8005
CTETRA     10343       1   17398   13165     963    1003   13211   11108+
+           7722    8005   11416   11109
CTETRA     10344       1   13165     243     963    1003    4099    9160+
+          11108   11416    8626   11109
CTETRA     10345       1   13165    1092     243    1003   11415    8624+
+           4099   11416    8627    8626
CTETRA     10346       1   17464   12747   12738     686   12919   12918+
+          12916    5125   11417   11418
CTETRA     10347       1   17464   12738   18093     686   12916   12917+
+          17494    5125   11418    5126
CTETRA     10348       1   18093   12738     885     686   12917   10970+
+           8730    5126   11418   10971
CTETRA     10349       1   12738     687     885     686   10553    9199+
+          10970   11418    8662   10971
CTETRA     10350       1   12738     528     687     686    3755    7671+
+          10553   11418    8663    8662
CTETRA     10351       1   12738   12747     528     686   12918    3756+
+           3755   11418   11417    8663
CTETRA     10352       1   17305   11945     500     933   12092   10260+
+           7443    7490   11419   10259
CTETRA     10353       1   11945     494     500     933    6702    3558+
+          10260   11419    8703   10259
CTETRA     10354       1   11945    1101     494     933   11302    8701+
+           6702   11419    8704    8703
CTETRA     10355       1   17304    1101   11945     933    9184   11302+
+          12068    7489    8704   11419
CTETRA     10356       1   17304   11945   17305     933   12068   12092+
+          17314    7489   11419    7490
CTETRA     10357       1   11512    1123     257    1112   11354    8924+
+          11264   11420   11355    8784
CTETRA     10358       1   11512    1026    1123    1112   11226   11228+
+          11354   11420   11227   11355
CTETRA     10359       1   11512     255    1026    1112    9955    8790+
+          11226   11420    8783   11227
CTETRA     10360       1   11512     257     255    1112   11264    2189+
+           9955   11420    8784    8783
CTETRA     10361       1   13432      98      97    1113    9753    1574+
+           1567   11421    9754    8837
CTETRA     10362       1   18115      98   13432    1113    6868    9753+
+          13809    9231    9754   11421
CTETRA     10363       1   18115   13432     404    1113   13809   10153+
+           8197    9231   11421    8836
CTETRA     10364       1   13432      97     404    1113    1567    2994+
+          10153   11421    8837    8836
CTETRA     10365       1   16973     684     361    1134   10548    5063+
+           5047   11422   10549    9062
CTETRA     10366       1   17912     684   16973    1134    9146   10548+
+          17069    9031   10549   11422
CTETRA     10367       1   17912   16973     805    1134   17069   10791+
+           8494    9031   11422    9032
CTETRA     10368       1   16973     361     805    1134    5047    9060+
+          10791   11422    9062    9032
CTETRA     10369       1   13411    1177     908    1136   10960    9479+
+           7288   11423    9481    9050
CTETRA     10370       1   13411    1097    1177    1136   10954   10956+
+          10960   11423   10957    9481
CTETRA     10371       1   13411    1098    1097    1136   11337    8669+
+          10954   11423   11338   10957
CTETRA     10372       1   18064    1098   13411    1136    9039   11337+
+          13762    9080   11338   11423
CTETRA     10373       1   18063   18064   13411    1136   18077   13762+
+          13761    9079    9080   11423
CTETRA     10374       1   18063   13411      12    1136   13761    9542+
+           8797    9079   11423    9049
CTETRA     10375       1   13411     908      12    1136    7288    9046+
+           9542   11423    9050    9049
CTETRA     10376       1   12788     425     646    1100    6388    4886+
+           6387   11424    8689    8688
CTETRA     10377       1   12788     825     425    1100   10831    6661+
+           6388   11424    9056    8689
CTETRA     10378       1   17474     825   12788    1100    9052   10831+
+          13092    9055    9056   11424
CTETRA     10379       1   17473   17474   12788    1100   17483   13092+
+          13093    8699    9055   11424
CTETRA     10380       1   17473   12788     646    1100   13093    6387+
+           6656    8699   11424    8688
CTETRA     10381       1   17245   11777     397    1144   11879   10132+
+           4950    9439   11425   10133
CTETRA     10382       1   11777      97     397    1144    4366    6042+
+          10132   11425    9124   10133
CTETRA     10383       1   11777     405      97    1144   10156    3001+
+           4366   11425    9125    9124
CTETRA     10384       1   18087     405   11777    1144    9412   10156+
+          11881    9413    9125   11425
CTETRA     10385       1   18087   11777   17245    1144   11881   11879+
+          17255    9413   11425    9439
CTETRA     10386       1   16310    1149     267     777   11236    9186+
+           4909   11426    9188    6196
CTETRA     10387       1   17800    1149   16310     777    9342   11236+
+          16611    8970    9188   11426
CTETRA     10388       1   17799   17800   16310     777   17821   16611+
+          16419    8969    8970   11426
CTETRA     10389       1   17799   16310     623     777   16419   10451+
+           8108    8969   11426   10452
CTETRA     10390       1   16310      92     623     777    4476    4485+
+          10451   11426    6195   10452
CTETRA     10391       1   16310     267      92     777    4909    4908+
+           4476   11426    6196    6195
CTETRA     10392       1   16313     143      56    1128    9817    8598+
+           7492   11427    9819    9335
CTETRA     10393       1   17852     143   16313    1128    1744    9817+
+          16578    8984    9819   11427
CTETRA     10394       1   17851   17852   16313    1128   17868   16578+
+          16577    8982    8984   11427
CTETRA     10395       1   17851   16313    1150    1128   16577   10469+
+           9194    8982   11427    9196
CTETRA     10396       1   16313      56    1150    1128    7492    9334+
+          10469   11427    9335    9196
CTETRA     10397       1   13168     940    1095    1174    7542    9095+
+           9094   11428    9455    9454
CTETRA     10398       1   13168     229     940    1174    9899    9897+
+           7542   11428    9898    9455
CTETRA     10399       1   13168    1041     229    1174   11400    9902+
+           9899   11428   11401    9898
CTETRA     10400       1   13168    1095    1041    1174    9094    8640+
+          11400   11428    9454   11401
CTETRA     10401       1   13431     723     190    1155    5469    9838+
+           9837   11429    9295    9845
CTETRA     10402       1   13431     791     723    1155   10750    9294+
+           5469   11429    9263    9295
CTETRA     10403       1   18027     791   13431    1155    8935   10750+
+          13804    9261    9263   11429
CTETRA     10404       1   18027   13431     191    1155   13804    9850+
+           8804    9261   11429    9851
CTETRA     10405       1   13431     190     191    1155    9837    1901+
+           9850   11429    9845    9851
CTETRA     10406       1   17797   16331    1091    1163   16466   11328+
+           9345    9348   11430    9349
CTETRA     10407       1   16331     173    1091    1163    6551    8620+
+          11328   11430    9496    9349
CTETRA     10408       1   16331    1089     173    1163   11412    8606+
+           6551   11430   11413    9496
CTETRA     10409       1   17797    1089   16331    1163    9494   11412+
+          16466    9348   11413   11430
CTETRA     10410       1   17195   11504     663    1167   11517   10510+
+           7316    9392   11431   10511
CTETRA     10411       1   11504     319     663    1167   10430    4800+
+          10510   11431    9407   10511
CTETRA     10412       1   11504     730     319    1167   10639    5586+
+          10430   11431    9394    9407
CTETRA     10413       1   17195     730   11504    1167    5759   10639+
+          11517    9392    9394   11431
CTETRA     10414       1   13621     700    1116    1180    5218    9499+
+          11363   11432    9503    9502
CTETRA     10415       1   13621     114     700    1180    9761    9762+
+           5218   11432    9763    9503
CTETRA     10416       1   13621     115     114    1180    9765    1632+
+           9761   11432    9767    9763
CTETRA     10417       1   17509     115   13621    1180    8446    9765+
+          14457    9528    9767   11432
CTETRA     10418       1   17509   13621    1116    1180   14457   11363+
+           8867    9528   11432    9502
CTETRA     10419       1   11779    1095     940    1008   11333    9095+
+          11020   11433   11332   11016
CTETRA     10420       1   11779    1094    1095    1008   11335   11334+
+          11333   11433   11336   11332
CTETRA     10421       1   17240    1094   11779    1008    8635   11335+
+          11888    8043   11336   11433
CTETRA     10422       1   17239   17240   11779    1008   17249   11888+
+          11889    8041    8043   11433
CTETRA     10423       1   17239   11779     120    1008   11889    9773+
+           1646    8041   11433    9771
CTETRA     10424       1   11779    1175     120    1008   11314    9463+
+           9773   11433    9772    9771
CTETRA     10425       1   11779     940    1175    1008   11020   11015+
+          11314   11433   11016    9772
CTETRA     10426       1   17243   11780   11778     916   11896   11897+
+          11890    7358   11434    7359
CTETRA     10427       1   11778   11780     875     916   11897    7336+
+           7346    7359   11434   10942
CTETRA     10428       1   11780     768     875     916    6131    7027+
+           7336   11434   10710   10942
CTETRA     10429       1   11780     922     768     916   10712   10708+
+           6131   11434   10711   10710
CTETRA     10430       1   17243     922   11780     916    7412   10712+
+          11896    7358   10711   11434
CTETRA     10431       1   17134    1097    1099    1197    9320    8672+
+           9321   11435   11287   11340
CTETRA     10432       1   17134    1069    1097    1197   11282    9382+
+           9320   11435   11288   11287
CTETRA     10433       1   17134    1152    1069    1197   11291   11285+
+          11282   11435   11297   11288
CTETRA     10434       1   17134    1135    1152    1197    9474   11296+
+          11291   11435   11298   11297
CTETRA     10435       1   17134    1099    1135    1197    9321    9475+
+           9474   11435   11340   11298
CTETRA     10436       1   11785    1079     755    1122   11410    8906+
+          10681   11436   11411    8914
CTETRA     10437       1   18088    1079   11785    1122    8540   11410+
+          11926    9144   11411   11436
CTETRA     10438       1   18088   11785   11756    1122   11926   11927+
+          11917    9144   11436    9296
CTETRA     10439       1   11756   11785     756    1122   11927   10682+
+          10523    9296   11436    8913
CTETRA     10440       1   11785     755     756    1122   10681    5891+
+          10682   11436    8914    8913
CTETRA     10441       1   17464     956   12747    1171    9201   11096+
+          12919    9440   11095   11437
CTETRA     10442       1   17464   12747     686    1171   12919   11417+
+           5125    9440   11437    9429
CTETRA     10443       1   12747     528     686    1171    3756    8663+
+          11417   11437    9430    9429
CTETRA     10444       1   12747     956     528    1171   11096    7679+
+           3756   11437   11095    9430
CTETRA     10445       1   17504   18098   13462     836   17550   13950+
+          13949    6736    6738    6991
CTETRA     10446       1   17193   13444   17194     445   13848   13853+
+          17203    3254    3256    3262
CTETRA     10447       1   17928    1078   16984    1015    8538    8889+
+          17122    8084   11438   11214
CTETRA     10448       1   17643   14663   17644     199   14955   14891+
+          17645    8163    5755    5424
CTETRA     10449       1   17793   16364     374     717   16595   10105+
+           2775    5356    9002   10104
CTETRA     10450       1   17191    1059   11506    1146    8631    9036+
+          11525    9136   11148   11186
CTETRA     10451       1   17406     241   12794    1198    9212    8039+
+          13124   11439   11440   11441
CTETRA     10452       1   17264    1122   11756    1172    9145    9296+
+          11792   10903    9446   10525
CTETRA     10453       1   17407   12423     241    1199   12529    2137+
+           2136   11442   11443   11444
CTETRA     10454       1   17405   12422   17406     238   12526   12527+
+          17426    5641    2129    2128
CTETRA     10455       1   17884      73   13193    1104    8759    1478+
+          13355    8747   10855   10854
CTETRA     10456       1   17937     133   13400    1085    8356    4409+
+          13717    8577    9813    9812
CTETRA     10457       1   17363     148   12608    1170    7091    7661+
+          12624    9424    9821    9425
CTETRA     10458       1   17660     292   15584     290    9353    8398+
+          15809    8220    9986    2337
CTETRA     10459       1   17237   17238   11759     297   17247   11807+
+          11808    6490    2368    2363
CTETRA     10460       1   16014     717     374    1151    5357   10104+
+           2805    9208    9357   10103
CTETRA     10461       1   18086     398   13162    1193    4769    5569+
+          13198   10331   10136   10135
CTETRA     10462       1   17775   17776   16322     264   17780   16492+
+          16458    2221    4129    2222
CTETRA     10463       1   17409   17410   12754     586   17430   12963+
+          12964    4213    4662    4214
CTETRA     10464       1   17936   17130   17937     882   17153   17151+
+          17944    7319    7062    7061
CTETRA     10465       1   17243     915   11580     916    7349    7420+
+          11634    7358    7360   10709
CTETRA     10466       1   12422     239     238     737    2132    2131+
+           2129    5670    5672    9436
CTETRA     10467       1   17406   12794     238     239   13124    9441+
+           2128    2130   11445    2131
CTETRA     10468       1   12423     239     241    1198    5630    5669+
+           2137   11446   11447   11440
CTETRA     10469       1   17406     239   12423    1198    2130    5630+
+          12528   11439   11447   11446
CTETRA     10470       1   17775     287   13189     265    6482    4463+
+          13335    2223    6483   11448
CTETRA     10471       1   17775   13189     264     265   13335    4462+
+           2221    2223   11448    2224
CTETRA     10472       1   13189     287     264     265    4463    4290+
+           4462   11448    6483    2224
CTETRA     10473       1   17237   11574     297     298   11622    9422+
+           6490   10159   10080    2366
CTETRA     10474       1   13444     446     445    1042    3265    3264+
+           3256    8286   10509    8287
CTETRA     10475       1   17194   11505     445     446   11520    7829+
+           3262    3263   11449    3264
CTETRA     10476       1   17194   13444     662     446   13853    8595+
+           7838    3263    3265   10508
CTETRA     10477       1   17194     662   11505     446    7838   10506+
+          11520    3263   10508   11449
CTETRA     10478       1   12424     100     414    1200    3374    3376+
+           3375   11450   11451   11452
CTETRA     10479       1   12792     100     414     415    3964    3376+
+          11453   11454   11455    3053
CTETRA     10480       1   17408   12424   12425     414   12531   12454+
+          12532    3050    3375    3051
CTETRA     10481       1   17408     413     414     415    3045   11456+
+           3050    3052   11457    3053
CTETRA     10482       1   17638   15347     531     533   15516    5304+
+           3801    3762    3764    3803
CTETRA     10483       1   14735     531     508     533    3802    5291+
+           5307    3804    3803    5306
CTETRA     10484       1     531     529     508     533    6820    3734+
+           5291    3803   10304    5306
CTETRA     10485       1   15347     508     529     711    3758    3734+
+          10303    5489    5310   11458
CTETRA     10486       1   17638   14735   17639     533   15047   15050+
+          17648    3762    3804    3763
CTETRA     10487       1   17639   15347     533     711   15524    3764+
+           3763    5488    5489    5309
CTETRA     10488       1   12426     586     587     650    4663    4216+
+          11459   11460   10564    6396
CTETRA     10489       1   17409   12426     586     587   12534    4663+
+           4213    4215   11459    4216
CTETRA     10490       1   17409   12754   12707     587   12964   12966+
+          12967    4215    4217    6394
CTETRA     10491       1   17409   12426     587     650   12534   11459+
+           4215   11461   11460    6396
CTETRA     10492       1   12425     100     416     415    3025    4306+
+           4322    3054   11455   11462
CTETRA     10493       1   12425     416      99     651    4322    4323+
+           3028    4694   11463    4864
CTETRA     10494       1     100     101      99     416    1587    1586+
+           1583    4306    5680    4323
CTETRA     10495       1   12707     101     100     416    5679    1587+
+           4305    3056    5680    4306
CTETRA     10496       1   17408     416   12792     415    3055    3057+
+          13108    3052   11462   11454
CTETRA     10497       1   17408   12707     416     649   13112    3056+
+           3055    4686    4688   11464
CTETRA     10498       1   17640   14737     393     534   15057    4590+
+           3594    3767    3766    4578
CTETRA     10499       1   14737     508     393    1004    4649    3589+
+           4590    9281    9280    8011
CTETRA     10500       1     508     392     393    1004    3596    3595+
+           3589    9280    8012    8011
CTETRA     10501       1   15349     393     392     534    2925    3595+
+          10278    4579    4578    8010
CTETRA     10502       1   17639   14737     534    1004   15055    3766+
+           3765    9279    9281    8013
CTETRA     10503       1   17639   17640   15349     534   17650   15529+
+          15526    3765    3767    4579
CTETRA     10504       1   17409   12425   12426     650   12533   12458+
+          12534   11461    4691   11460
CTETRA     10505       1   12425      99   12426     650    3028    4697+
+          12458    4691    4863   11460
CTETRA     10506       1   17409     587   12707     649    4215    6394+
+          12967    4687   11465    4688
CTETRA     10507       1   12754     587     586     650    4217    4216+
+           4214    6397    6396   10564
CTETRA     10508       1   12426      99     586     650    4697    5144+
+           4663   11460    4863   10564
CTETRA     10509       1   17603   15340      86     583   15473    4931+
+           4930    4199    4198    5422
CTETRA     10510       1   13535      86     105     583    5421    6895+
+           4929    5423    5422    8175
CTETRA     10511       1     105      86     584     904    6895    7260+
+           4201    7271   11466   11467
CTETRA     10512       1   15340     105     584     904    4110    4201+
+          10372    7272    7271   11467
CTETRA     10513       1   17602     583   13535     904    4197    5423+
+          14167    7270    8177    8176
CTETRA     10514       1   17602   17603   13535     583   17618   14168+
+          14167    4197    4199    5423
CTETRA     10515       1   17639   14735     508     711   15050    5307+
+           5487    5488    5308    5310
CTETRA     10516       1   17639     533   14735     711    3763    3804+
+          15050    5488    5309    5308
CTETRA     10517       1   15347     529     533     711   10303   10304+
+           3764    5489   11458    5309
CTETRA     10518       1     508     533     529     711    5306   10304+
+           3734    5310    5309   11458
CTETRA     10519       1   17407   12792     657     413   13107    4738+
+           4737    3044    3046   11468
CTETRA     10520       1   17407     657   12785     864    4737    4739+
+          13111    9360    6955   11469
CTETRA     10521       1   12424     657     100    1200    6952    5631+
+           3374   11450   11470   11451
CTETRA     10522       1   12424     241     100     657    2138    3369+
+           3374    6952    6951    5631
CTETRA     10523       1   12785     100     241     657    3963    3369+
+           4882    4739    5631    6951
CTETRA     10524       1   12422     241   12423     239    5668    2137+
+          12446    2132    5669    5630
CTETRA     10525       1   15596     629     220     219   11471    6265+
+           2050    6271   11472    6275
CTETRA     10526       1   17743     220   15596     629    4658    2050+
+          15834    4545    6265   11471
CTETRA     10527       1   18104     629   15596     219    4543   11471+
+          15832    6270   11472    6271
CTETRA     10528       1   18104   17743   15596     629   17744   15834+
+          15832    4543    4545   11471
CTETRA     10529       1   18104     217   16225     219    4540    2042+
+          16306    6270    2046    2045
CTETRA     10530       1   18104   16225     629     219   16306    4544+
+           4543    6270    2045   11472
CTETRA     10531       1   16225     220     629     219    4666    6265+
+           4544    2045    6275   11472
CTETRA     10532       1     217     220     218     219    4671    4668+
+           2043    2046    6275    2047
CTETRA     10533       1   16225     218     220     219    2044    4668+
+           4666    2045    2047    6275
CTETRA     10534       1   18098   13462     836     838   13950    6991+
+           6738    6746    9701    6747
CTETRA     10535       1   18098      75      74     838    1481    1483+
+           1480    6746    9702    9700
CTETRA     10536       1   13193     836    1141     838    6737   10868+
+          10875    6748    6747   10874
CTETRA     10537       1      75    1141    1120     838    9101    9699+
+           9696    9702   10874   10873
CTETRA     10538       1   13391     882     883    1191    8389    7064+
+           8166   10049   11027   10050
CTETRA     10539       1   17937   13391     882     883   13666    8389+
+           7061    7063    8166    7064
CTETRA     10540       1   17937   17130     326     883   17151    8029+
+           8028    7063    7065    8165
CTETRA     10541       1   13391     326     328     883    7327    2537+
+          10047    8166    8165   10048
CTETRA     10542       1     326    1048     328     883    8340    8339+
+           2537    8165   11405   10048
CTETRA     10543       1   17130     328    1048     883   11404    8339+
+          11403    7065   10048   11405
CTETRA     10544       1   17602   15340     583     904   15474    4198+
+           4197    7270    7272    8177
CTETRA     10545       1   17602   13535     105     904   14167    4929+
+           4170    7270    8176    7271
CTETRA     10546       1   15340     584     583     904   10372   10374+
+           4198    7272   11467    8177
CTETRA     10547       1      86     583     584     904    5422   10374+
+           7260   11466    8177   11467
CTETRA     10548       1     105     583      86     904    8175    5422+
+           6895    7271    8177   11466
CTETRA     10549       1   18109   16977     352     538   17081    4604+
+           4603    3784   11473    7280
CTETRA     10550       1   15322     538     352    1196    3785    7280+
+           7019   11073   11474   11074
CTETRA     10551       1   18109   17928   16977     538   17931   17082+
+          17081    3784    3786   11473
CTETRA     10552       1   17928     538   15322    1014    3786    3785+
+          15392    8082   11475    8083
CTETRA     10553       1   11580     916     915    1195   10709    7360+
+           7420   10939   10943   11175
CTETRA     10554       1   17562   13183     491     816   13306    5456+
+           5450    7572    6594    7573
CTETRA     10555       1   14668     491     178     493    5021    3528+
+           6333   11476    8821    3523
CTETRA     10556       1     178     491     492     493    3528    5458+
+           3520    3523    8821    3524
CTETRA     10557       1   13183     492     491     816    3521    5458+
+           5456    6594    8820    7573
CTETRA     10558       1   17561   13183   17562     816   13307   13306+
+          17578    6595    6594    7572
CTETRA     10559       1   17561   17562   14668     816   17578   14816+
+          14812    6595    7572    7574
CTETRA     10560       1     102     403     793     794    9249    6432+
+          10146    8035    6435    6434
CTETRA     10561       1   12614     403     102     794    2989    9249+
+           2086    6433    6435    8035
CTETRA     10562       1   12757     102     103     794    8255    1591+
+           7196    7251    8035    8696
CTETRA     10563       1     102     983     103     794    9175    7869+
+           1591    8035    8697    8696
CTETRA     10564       1   12615     983     402     794    7868    8478+
+           2986    7658    8697    7659
CTETRA     10565       1     102     793     402     794   10146   10141+
+           9174    8035    6434    7659
CTETRA     10566       1   12615     794     787    1140    7658   11477+
+           6293    9097    9099    9432
CTETRA     10567       1   17471   12615   12614     794   12668   12670+
+          12669    7252    7658    6433
CTETRA     10568       1   17660     287   13187     290    6478    2331+
+          13334    8220    2335    2334
CTETRA     10569       1   17660   13187     292     290   13334    9354+
+           9353    8220    2334    9986
CTETRA     10570       1   13187     286     292     290    9984    2344+
+           9354    2334    2338    9986
CTETRA     10571       1     286     289     287     290    8823    2332+
+           2326    2338    2336    2335
CTETRA     10572       1   13187     289     286     290    2333    8823+
+           9984    2334    2336    2338
CTETRA     10573       1   17497   15325     443     739   15413    4314+
+           5092    8223    5703    8224
CTETRA     10574       1   12777     443     442    1054    3250    3239+
+           3249   11478   11479    8382
CTETRA     10575       1     442     443     604     739    3239    4316+
+           5702    5704    8224    5705
CTETRA     10576       1   15325     604     443     739    4317    4316+
+           4314    5703    5705    8224
CTETRA     10577       1   17496   15325     739    1054   15414    5703+
+           9202    8381    8383    9121
CTETRA     10578       1   17496   17497   12777     739   17500   13045+
+          13044    9202    8223    8225
CTETRA     10579       1   11574    1161     297     298    9314    9456+
+           9422   10080   10007    2366
CTETRA     10580       1   17237     297   11774     298    6490    2362+
+          11869   10159    2366    2365
CTETRA     10581       1   11774     401     406     298    7949    3005+
+          10157    2365    8282   10158
CTETRA     10582       1   17237     406   11574     298    3095    3097+
+          11622   10159   10158   10080
CTETRA     10583       1     401     849    1192     298    6867   10083+
+          10078    8282    9459   10081
CTETRA     10584       1   11574    1192    1161     298   10079   10082+
+           9314   10080   10081   10007
CTETRA     10585       1   17742   16224     574     507   16299    4087+
+           8925   10493    3584    6354
CTETRA     10586       1   17742     574   16223    1052    8925    4086+
+          16295    9340    8371    8370
CTETRA     10587       1   15614      24      13     574    2257    1295+
+           5746    6351    8369    6352
CTETRA     10588       1      13      24     506     574    1295   10276+
+           3582    6352    8369    4088
CTETRA     10589       1      24     769     506     574    6159   10274+
+          10276    8369   10275    4088
CTETRA     10590       1   16223     769      24     574    6160    6159+
+           2196    4086   10275    8369
CTETRA     10591       1   17496   12777     442    1054   13044    3249+
+           5693    8381   11478    8382
CTETRA     10592       1   17496     739   12777    1054    9202    8225+
+          13044    8381    9121   11478
CTETRA     10593       1     442     443     739    1054    3239    8224+
+           5704    8382   11479    9121
CTETRA     10594       1   12777     739     443    1054    8225    8224+
+           3250   11478    9121   11479
CTETRA     10595       1   17471     794   12614     903    7252    6433+
+          12669    7253    7255    8036
CTETRA     10596       1   17471   12614     231     903   12669    2089+
+           6305    7253    8036    8461
CTETRA     10597       1   12757     102     794     903    8255    8035+
+           7251    7254    8037    7255
CTETRA     10598       1   12757     231     102     903    8460    2090+
+           8255    7254    8461    8037
CTETRA     10599       1   17937   13400     326    1085   13717    2540+
+           8028    8577    9812    8578
CTETRA     10600       1   17937   17127     133    1085   17146    8357+
+           8356    8577    8579    9813
CTETRA     10601       1   17127     326     133    1085    8030    5552+
+           8357    8579    8578    9813
CTETRA     10602       1   17510   13603   17511    1096   14401   14400+
+          17536    8653    8655    8880
CTETRA     10603       1   17510   13175     619    1096   13263    7225+
+           4433    8653    8881    8654
CTETRA     10604       1   17511   13603     440    1096   14400    5879+
+           7159    8880    8655    8733
CTETRA     10605       1   13175     440     619    1096    7161    4431+
+           7225    8881    8733    8654
CTETRA     10606       1   17555   13175     440    1103   13265    7161+
+           7162    8743    8742    8883
CTETRA     10607       1   14720     440     619    1132    4427    4431+
+           4430   11480    9022    9520
CTETRA     10608       1   13175     619     440    1132    7225    4431+
+           7161    9021    9520    9022
CTETRA     10609       1   17554    1103   14720    1132    8741    8884+
+          15106    9519    9023   11480
CTETRA     10610       1   17554   17555   14720    1103   17569   15105+
+          15106    8741    8743    8884
CTETRA     10611       1   17643   15343     363    1124   15498    3436+
+           3435    8926    8930    8927
CTETRA     10612       1   17643   14663     199    1124   14955    5755+
+           8163    8926    8928    8929
CTETRA     10613       1     363     892     199    1124    8016    8015+
+           4974    8927   11193    8929
CTETRA     10614       1     199     892     891    1124    8015    7140+
+           9216    8929   11193   11191
CTETRA     10615       1   15343     891     892    1124   10975    7140+
+          11192    8930   11191   11193
CTETRA     10616       1   17639   15349     508    1004   15526    3759+
+           5487    9279   10279    9280
CTETRA     10617       1   17639     534   15349    1004    3765    4579+
+          15526    9279    8013   10279
CTETRA     10618       1   15349     534     392    1004    4579    8010+
+          10278   10279    8013    8012
CTETRA     10619       1   14737     393     534    1004    4590    4578+
+           3766    9281    8011    8013
CTETRA     10620       1   17634   15335     383    1158   15453    9522+
+           3067    9290    9292    9297
CTETRA     10621       1   14769     383     483    1166    3069    7926+
+           3609   11481    9531    9378
CTETRA     10622       1     483     383     873    1166    7926    7927+
+           6997    9378    9531    9533
CTETRA     10623       1   15335     483     873    1166    9376    6997+
+          10935    9379    9378    9533
CTETRA     10624       1   17635   15335    1158    1166   15454    9292+
+           9291    9377    9379    9532
CTETRA     10625       1   17634   14769   17635    1158   15200   15201+
+          17655    9290    9298    9291
CTETRA     10626       1   17406   12423   17407     240   12528   12529+
+          17427    2133    9329    2134
CTETRA     10627       1   17407     240   12423    1199    2134    9329+
+          12529   11442   11482   11443
CTETRA     10628       1   12785     241     240    1199    4882    9328+
+           2135   11483   11444   11482
CTETRA     10629       1   17406   12785     241     240   13121    4882+
+           9212    2133    2135    9328
CTETRA     10630       1   17741   15614   17742    1052   15915   15917+
+          17753    9337    9338    9340
CTETRA     10631       1   17741   16223      24    1052   16294    2196+
+           2256    9337    8370    8372
CTETRA     10632       1   15614    1052     574     507    9338    8371+
+           6351    6353   11484    6354
CTETRA     10633       1   15614      24     574    1052    2257    8369+
+           6351    9338    8372    8371
CTETRA     10634       1   17407     241     864    1199    2136    6954+
+           9360   11442   11444   11485
CTETRA     10635       1   17407     864   12424     413    9360    6953+
+          12530    3044   11486   11487
CTETRA     10636       1   12785     657     241    1199    4739    6951+
+           4882   11483   11488   11444
CTETRA     10637       1   17635   14769     483    1166   15201    3609+
+           7932    9377   11481    9378
CTETRA     10638       1   17635    1158   14769    1166    9291    9298+
+          15201    9377    9532   11481
CTETRA     10639       1   14769    1158     383    1166    9298    9297+
+           3069   11481    9532    9531
CTETRA     10640       1   15335     873    1158    1166   10935    9530+
+           9292    9379    9533    9532
CTETRA     10641       1   17561     816   14668     493    6595    7574+
+          14812    6596    6597   11476
CTETRA     10642       1   17561   14668     178     493   14812    6333+
+           3768    6596   11476    3523
CTETRA     10643       1   14668     816     491     493    7574    7573+
+           5021   11476    6597    8821
CTETRA     10644       1   13183     492     816     493    3521    8820+
+           6594    3522    3524    6597
CTETRA     10645       1   17363     146   11992    1170    1720    1722+
+          12230    9424    9426   11489
CTETRA     10646       1   17363   11992     148    1170   12230    7092+
+           7091    9424   11489    9821
CTETRA     10647       1   11992     146     148    1170    1722    1728+
+           7092   11489    9426    9821
CTETRA     10648       1   17470     103   12615     787    7195    1925+
+          12667    6292    9431    6293
CTETRA     10649       1   17470   12757     103     787   12975    7196+
+           7195    6292   11490    9431
CTETRA     10650       1   17471     794   12757     787    7252    7251+
+          12977    6294   11477   11490
CTETRA     10651       1   17470   17471   12757     787   17486   12977+
+          12975    6292    6294   11490
CTETRA     10652       1   17554   13175    1103    1132   13264    8742+
+           8741    9519    9021    9023
CTETRA     10653       1   17554   14720     619    1132   15106    4430+
+           7223    9519   11480    9520
CTETRA     10654       1   14720    1103     440    1132    8884    8883+
+           4427   11480    9023    9022
CTETRA     10655       1   18086   13162     560    1193   13198   10326+
+           3955   10331   10135   10332
CTETRA     10656       1   18086     560     561    1193    3955    3958+
+           3957   10331   10332   10330
CTETRA     10657       1   18086   11980     398    1193   12207    4770+
+           4769   10331   10329   10136
CTETRA     10658       1   13162     394     561    1193    5568    5464+
+          10328   10135   10137   10330
CTETRA     10659       1   11980     394     398    1193    5067    5570+
+           4770   10329   10137   10136
CTETRA     10660       1   17742     648   16224     507    8386   10491+
+          16299   10493   10492    3584
CTETRA     10661       1   15614      13     648     507    5746    8235+
+           9336    6353    3585   10492
CTETRA     10662       1   17742    1052   15614     507    9340    9338+
+          15917   10493   11484    6353
CTETRA     10663       1   17742     574    1052     507    8925    8371+
+           9340   10493    6354   11484
CTETRA     10664       1      13     574     506     507    6352    4088+
+           3582    3585    6354    3586
CTETRA     10665       1   16224     506     574     507    3583    4088+
+           4087    3584    3586    6354
CTETRA     10666       1   17884   16954      73    1104   16986    8760+
+           8759    8747   10863   10855
CTETRA     10667       1     967    1068     968    1104    9689    8476+
+           7767    8748   10858    8749
CTETRA     10668       1   17884     968    1068    1104    7766    8476+
+           8474    8747    8749   10858
CTETRA     10669       1      73     967     835    1104    9687   10852+
+           6735   10855    8748   10856
CTETRA     10670       1   13193     835     967    1104    6734   10852+
+          10859   10854   10856    8748
CTETRA     10671       1   16954      72      73    1104    8068    1477+
+           8760   10863   10857   10855
CTETRA     10672       1   17986   17264    1119    1172   11734    8898+
+           8897    9443   10903   10901
CTETRA     10673       1   17986    1122   17264    1172    8912    9145+
+          11734    9443    9446   10903
CTETRA     10674       1   11756     672    1119    1172   10522   10527+
+          10902   10525   10526   10901
CTETRA     10675       1   11756    1122     756    1172    9296    8913+
+          10523   10525    9446    9445
CTETRA     10676       1     672     756     754    1172   10524    5890+
+           9252   10526    9445    9444
CTETRA     10677       1   17986     672     754    1172    9251    9252+
+           5886    9443   10526    9444
CTETRA     10678       1   15322     352    1025    1014    7019    8142+
+          11071    8083   11072   11202
CTETRA     10679       1   16984     814    1065    1015   10817   10818+
+          11213   11214   11216   11211
CTETRA     10680       1     124    1065     814    1015    9806   10818+
+           8292   11207   11211   11216
CTETRA     10681       1    1064    1014    1065    1015   11203   11212+
+           8453   11204    8085   11211
CTETRA     10682       1     352     941    1025    1014    8144    8143+
+           8142   11072   11078   11202
CTETRA     10683       1    1025     941    1017    1014    8143    8565+
+           8564   11202   11078   11209
CTETRA     10684       1    1025    1017    1065    1014    8564   11210+
+          11070   11202   11209   11212
CTETRA     10685       1   17928   16977     538    1014   17082   11473+
+           3786    8082   11068   11475
CTETRA     10686       1   17191   13660    1059    1146   14615    8632+
+           8631    9136   11146   11148
CTETRA     10687       1   11506    1059     998    1146    9036    8421+
+          11177   11186   11148   11178
CTETRA     10688       1     975    1056    1145    1146   11142   11145+
+          11144   11147   11272    9137
CTETRA     10689       1    1145    1056    1057    1146   11145    8413+
+           9135    9137   11272    9138
CTETRA     10690       1   17191    1057    1056    1146    8411    8413+
+           8410    9136    9138   11272
CTETRA     10691       1   15319    1078    1015    1185    8539   11438+
+           8291    9796    9798   11491
CTETRA     10692       1   17928   15319    1078    1015   15391    8539+
+           8538    8084    8291   11438
CTETRA     10693       1   17928   16984    1014    1015   17122   11067+
+           8082    8084   11214    8085
CTETRA     10694       1   15322    1014    1064    1015    8083   11203+
+          11201    8086    8085   11204
CTETRA     10695       1   15319    1015     124    1185    8291   11207+
+           9804    9796   11491    9807
CTETRA     10696       1   16984    1017    1014    1015   11208   11209+
+          11067   11214   11215    8085
CTETRA     10697       1    1017    1065    1014    1015   11210   11212+
+          11209   11215   11211    8085
CTETRA     10698       1   17406   12794     239    1198   13124   11445+
+           2130   11439   11441   11447
CTETRA     10699       1   17406   12423     241    1198   12528    2137+
+           9212   11439   11446   11440
CTETRA     10700       1   12794     241     239    1198    8039    5669+
+          11445   11441   11440   11447
CTETRA     10701       1   17407   12785     240    1199   13111    2135+
+           2134   11442   11483   11482
CTETRA     10702       1   12423     240     241    1199    9329    9328+
+           2137   11443   11482   11444
CTETRA     10703       1   17407     864   12785    1199    9360   11469+
+          13111   11442   11485   11483
CTETRA     10704       1     241     657     864    1199    6951    6955+
+           6954   11444   11488   11485
CTETRA     10705       1   12785     864     657    1199   11469    6955+
+           4739   11483   11485   11488
CTETRA     10706       1   17407   12424   17408     413   12530   12531+
+          17428    3044   11487    3045
CTETRA     10707       1   17408   12424     414     413   12531    3375+
+           3050    3045   11487   11456
CTETRA     10708       1   12424     414     413    1200    3375   11456+
+          11487   11450   11452   11492
CTETRA     10709       1   12424     413     657    1200   11487   11468+
+           6952   11450   11492   11470
CTETRA     10710       1   17407     657     864     413    4737    6955+
+           9360    3044   11468   11486
CTETRA     10711       1   12424     864     657     413    6953    6955+
+           6952   11487   11486   11468
CTETRA     10712       1   17408   12425   17409     649   12532   12533+
+          17429    4686    4693    4687
CTETRA     10713       1   12425     649     416     651    4693   11464+
+           4322    4694    4696   11463
CTETRA     10714       1   17408   12425     649     415   12532    4693+
+           4686    3052    3054   11493
CTETRA     10715       1   17409   12425     650     649   12533    4691+
+          11461    4687    4693    4692
CTETRA     10716       1   12707     587     650     649    6394    6396+
+           6395    4688   11465    4692
CTETRA     10717       1   17409     650     587     649   11461    6396+
+           4215    4687    4692   11465
CTETRA     10718       1   15322    1014     538    1196    8083   11475+
+           3785   11073   11075   11474
CTETRA     10719       1   17471   12615     794     787   12668    7658+
+           7252    6294    6293   11477
CTETRA     10720       1   12425     416     649     415    4322   11464+
+           4693    3054   11462   11493
CTETRA     10721       1   17408     649     416     415    4686   11464+
+           3055    3052   11493   11462
CTETRA     10722       1   12792     416     100     415    3057    4306+
+           3964   11454   11462   11455
CTETRA     10723       1   12425     414     100     415    3051    3376+
+           3025    3054    3053   11455
CTETRA     10724       1   17408   12792     413     415   13108    3046+
+           3045    3052   11454   11457
CTETRA     10725       1   12792     414     413     415   11453   11456+
+           3046   11454    3053   11457
CTETRA     10726       1   12707      99     416     651    4698    4323+
+           3056   11494    4864   11463
CTETRA     10727       1   12707     650      99     651    6395    4863+
+           4698   11494    4695    4864
CTETRA     10728       1   12707     649     650     651    4688    4692+
+           6395   11494    4696    4695
CTETRA     10729       1   12707     416     649     651    3056   11464+
+           4688   11494   11463    4696
CTETRA     10730       1   12794     239     241     737   11445    5669+
+           8039   11495    5672    5671
CTETRA     10731       1   12794     238     239     737    9441    2131+
+          11445   11495    9436    5672
CTETRA     10732       1   12794     471     238     737    5633    4332+
+           9441   11495    6689    9436
CTETRA     10733       1   12794     241     471     737    8039    3391+
+           5633   11495    5671    6689
CTETRA     10734       1   11505     446     662    1042   11449   10508+
+          10506   11496   10509   10505
CTETRA     10735       1   11505     445     446    1042    7829    3264+
+          11449   11496    8287   10509
CTETRA     10736       1   11505     401     445    1042    8280    8285+
+           7829   11496    8288    8287
CTETRA     10737       1   11505     662     401    1042   10506    6206+
+           8280   11496   10505    8288
CTETRA     10738       1   12757     787     794    1140   11490   11477+
+           7251   11497    9432    9099
CTETRA     10739       1   12757     103     787    1140    7196    9431+
+          11490   11497    9098    9432
CTETRA     10740       1   12757     794     103    1140    7251    8696+
+           7196   11497    9099    9098
CTETRA     10741       1   16364     374     717    1151   10105   10104+
+           9002   11498   10103    9357
CTETRA     10742       1   16364     266     374    1151    2230    5872+
+          10105   11498    9209   10103
CTETRA     10743       1   16364     156     266    1151    7796    3909+
+           2230   11498    9210    9209
CTETRA     10744       1   16364     717     156    1151    9002    9356+
+           7796   11498    9357    9210
CTETRA     10745       1   16984     124    1015    1185   10816   11207+
+          11214   11499    9807   11491
CTETRA     10746       1   16984     122     124    1185    9799    1654+
+          10816   11499    9797    9807
CTETRA     10747       1   16984    1078     122    1185    8889    9795+
+           9799   11499    9798    9797
CTETRA     10748       1   16984    1015    1078    1185   11214   11438+
+           8889   11499   11491    9798
CTETRA     10749       1   17130     328     883    1191   11404   10048+
+           7065   11500   10051   10050
CTETRA     10750       1   17130    1088     328    1191   11028    8601+
+          11404   11500   11030   10051
CTETRA     10751       1   17130    1018    1088    1191   11025    8920+
+          11028   11500   11026   11030
CTETRA     10752       1   17130     882    1018    1191    7062   10883+
+          11025   11500   11027   11026
CTETRA     10753       1   17130     883     882    1191    7065    7064+
+           7062   11500   10050   11027
CTETRA     10754       1   11778     915     916    1195    7350    7360+
+           7359   11501   11175   10943
CTETRA     10755       1   11778     859     915    1195    6912    9387+
+           7350   11501   10940   11175
CTETRA     10756       1   11778     875     859    1195    7346    7028+
+           6912   11501   10941   10940
CTETRA     10757       1   11778     916     875    1195    7359   10942+
+           7346   11501   10943   10941
CTETRA     10758       1   16977     538    1014    1196   11473   11475+
+          11068   11502   11474   11075
CTETRA     10759       1   16977     352     538    1196    4604    7280+
+          11473   11502   11074   11474
CTETRA     10760       1   16977    1014     352    1196   11068   11072+
+           4604   11502   11075   11074
CTETRA     10761       1   12792     657     413    1200    4738   11468+
+           3046   11503   11470   11492
CTETRA     10762       1   12792     100     657    1200    3964    5631+
+           4738   11503   11451   11470
CTETRA     10763       1   12792     414     100    1200   11453    3376+
+           3964   11503   11452   11451
CTETRA     10764       1   12792     413     414    1200    3046   11456+
+          11453   11503   11492   11452
$*
$* PROPERTY CARDS
$*
$*  Property: PSOLID1
PSOLID         1       1       0                           SMECH
$*
$* MATERIAL CARDS
$*
$*  Material: Aluminum_6061::024-LSM-CP_fem1::[1]
MAT1           11.0005+7        0.3300002.5368-41.2433-5
MATT1          1       1               2               3
TABLEM1        1                       1                                +
+        68.00001.0005+7 69.99801.0005+7 75.00201.0005+7100.00409.9046+6+
+       125.00609.9046+6150.00809.8046+6174.99209.7045+6199.99409.6045+6+
+       224.99609.5045+6249.99809.4044+6275.00009.3043+6300.00209.2042+6+
+       325.00409.1043+6350.00608.9042+6375.00808.8041+6399.99208.6041+6+
+       424.99408.5040+6449.99608.3038+6474.99808.1038+6500.00007.9037+6+
+       525.00207.7035+6550.00407.5035+6575.00607.3034+6600.00807.1034+6+
+       624.99206.9032+6649.99406.7031+6674.99606.4030+6699.99806.2028+6+
+       725.00006.0028+6750.00205.7026+6775.00405.5026+6800.00605.2024+6+
+           ENDT
TABLEM1        2                       1                                +
+        68.00000.330000 69.99800.330000    ENDT
TABLEM1        3                       1                                +
+        68.00001.2433-5199.99401.2880-5224.99601.2970-5249.99801.3060-5+
+       275.00001.3150-5300.00201.3240-5325.00401.3330-5350.00601.3410-5+
+       375.00801.3500-5399.99201.3580-5424.99401.3660-5449.99601.3740-5+
+       474.99801.3820-5500.00001.3890-5525.00201.3970-5550.00401.4040-5+
+       575.00601.4110-5600.00801.4180-5    ENDT
$*
$* LOAD AND CONSTRAINT CARDS
$*
$*  Constraint: Fixed(1)
SPC            1   18118  123456  0.0000
SPC            1   18119  123456  0.0000
SPC            1   18120  123456  0.0000
SPC            1   18123  123456  0.0000
$*  Load: Force(1)
FORCE          2   18121       0 16.8750  0.00001.000000  0.0000
FORCE          2   18122       0 16.8750  0.00001.000000  0.0000
$*  Load: Force(2)
FORCE          3   18121       0 33.7500  0.0000  0.00001.000000
FORCE          3   18122       0 33.7500  0.0000  0.00001.000000
LOAD         1011.0000001.000000       21.000000       3
ENDDATA 1eb057ea
