$*$$$$$$$$$$$$$$$$$$$$$$$$$$$$$$$$$$$$$$$$$$$$$$$$$$$$$$$$$$$$$$$$$
$*
$*                    Simcenter v12.0.2.9 Translator
$*                    for NX Nastran version 12.2
$*
$*             FEM FILE: \\Client\C$\Users\Braden\Desktop\ENAE484\ENAE484rover\CADv3\025-LSM-CP_fem1.fem
$*             SIM FILE: \\Client\C$\Users\Braden\Desktop\ENAE484\ENAE484rover\CADv3\025-LSM-CP_sim1.sim
$*        ANALYSIS TYPE: Structural
$*        SOLUTION NAME: 025-LSM-CP static sim
$*        SOLUTION TYPE: SOL 101 Linear Statics - Global Constraints
$*
$*    SOLVER INPUT FILE: 025-lsm-cp_sim1-025-lsm-cp_static_sim.dat
$*        CREATION DATE: 25-Feb-2020
$*        CREATION TIME: 22:04:29
$*             HOSTNAME: ENGRAP985
$*      NASTRAN LICENSE: Desktop Bundle
$*
$*                UNITS: Inch (pound f)
$*                      ... LENGTH : inch
$*                      ... TIME   : sec
$*                      ... MASS   : lbf-sec**2/in
$*                      ... TEMPERATURE : deg Fahrenheit
$*                      ... FORCE  : pound (lbf)
$*                      ... THERMAL ENERGY : lbf-in
$*
$* IMPORTANT NOTE:
$*     This banner was generated by Simcenter and altering this 
$*     information may compromise the pre and post processing of results
$*
$*$$$$$$$$$$$$$$$$$$$$$$$$$$$$$$$$$$$$$$$$$$$$$$$$$$$$$$$$$$$$$$$$$
$*
$*$$$$$$$$$$$$$$$$$$$$$$$$$$$$$$$$$$$
$*
$* FILE MANAGEMENT
$*
$*$$$$$$$$$$$$$$$$$$$$$$$$$$$$$$$$$$$
$*
$*
$*$$$$$$$$$$$$$$$$$$$$$$$$$$$$$$$$$$$
$*
$* EXECUTIVE CONTROL
$*
$*$$$$$$$$$$$$$$$$$$$$$$$$$$$$$$$$$$$
$*
ID,NASTRAN,025-lsm-cp_sim1-025-lsm-cp_static_sim
SOL 101
CEND
$*
$*$$$$$$$$$$$$$$$$$$$$$$$$$$$$$$$$$$$
$*
$* CASE CONTROL
$*
$*$$$$$$$$$$$$$$$$$$$$$$$$$$$$$$$$$$$
$*
ECHO = NONE
SPC = 1
OUTPUT
DISPLACEMENT(PLOT,REAL) = ALL
SPCFORCES(PLOT,REAL) = ALL
STRESS(PLOT,REAL,VONMISES,CENTER) = ALL
$*  Step: Subcase - Static Loads 1
SUBCASE 1
  LABEL = Subcase - Static Loads 1
  LOAD = 101
$*
$*$$$$$$$$$$$$$$$$$$$$$$$$$$$$$$$$$$$
$*
$* BULK DATA
$*
$*$$$$$$$$$$$$$$$$$$$$$$$$$$$$$$$$$$$
$*
BEGIN BULK
$*
$* PARAM CARDS
$*
PARAM    AUTOMPC     YES
PARAM      K6ROT100.0000
PARAM     OIBULK     YES
PARAM    OMACHPR     YES
PARAM       POST      -2
PARAM    POSTEXT     YES
PARAM    UNITSYS  LBF-IN
$*
$* GRID CARDS
$*
GRID*                  1               06.2500000000E-010.0000000000E+00+
*       7.5000000000E-01               0
GRID*                  2               0-6.250000000E-010.0000000000E+00+
*       7.5000000000E-01               0
GRID*                  3               01.0000000000E+00-7.500000000E-01+
*       -1.250000000E-01               0
GRID*                  4               01.0000000000E+007.5000000000E-01+
*       -1.250000000E-01               0
GRID*                  5               0-1.000000000E+00-7.500000000E-01+
*       -1.250000000E-01               0
GRID*                  6               0-1.000000000E+007.5000000000E-01+
*       -1.250000000E-01               0
GRID*                  7               0-7.777186419E-01-8.305815162E-01+
*       -1.486251915E-01               0
GRID*                  8               0-8.617582566E-01-8.388456501E-01+
*       -4.159899574E-02               0
GRID*                  9               0-8.155509447E-01-8.168108910E-01+
*       -4.240094905E-02               0
GRID*                 10               05.8069869051E-01-7.577078736E-01+
*       -1.530057370E-01               0
GRID*                 11               05.4360607146E-01-8.636535193E-01+
*       -1.257076230E-01               0
GRID*                 12               04.6968031032E-01-8.567558700E-01+
*       -1.252546144E-01               0
GRID*                 13               06.6181250500E-01-8.820879794E-01+
*       -6.529389472E-02               0
GRID*                 14               06.6721239808E-01-6.595482303E-01+
*       -1.223711713E-01               0
GRID*                 15               04.0614702659E-01-6.883404907E-01+
*       -1.192285316E-01               0
GRID*                 16               05.5450685508E-01-5.936778088E-01+
*       -1.367040859E-01               0
GRID*                 17               0-6.302457761E-01-5.601950117E-01+
*       6.8954617735E-01               0
GRID*                 18               0-6.093708072E-01-6.331064579E-01+
*       5.3235674683E-01               0
GRID*                 19               0-6.220536380E-01-6.756665018E-01+
*       4.1171141724E-01               0
GRID*                 20               0-6.202592970E-01-4.501487266E-01+
*       3.9032263867E-01               0
GRID*                 21               06.6838552216E-019.3713116542E-01+
*       -1.984448383E-01               0
GRID*                 22               07.5421320529E-017.3425787163E-01+
*       -1.425694355E-01               0
GRID*                 23               06.2511072498E-017.6915896911E-01+
*       2.1670668203E-02               0
GRID*                 24               07.2280596061E-018.4837089188E-01+
*       -1.596359379E-01               0
GRID*                 25               05.2137356454E-017.9934857393E-01+
*       -1.445660243E-01               0
GRID*                 26               0-1.114125264E+008.7176083357E-01+
*       -4.311526962E-02               0
GRID*                 27               08.3241523339E-018.7632950415E-01+
*       -1.319078850E-01               0
GRID*                 28               0-1.073791118E+008.8744593444E-01+
*       -4.286162356E-02               0
GRID*                 29               0-1.019418029E+009.0680165801E-01+
*       -4.413085068E-02               0
GRID*                 30               06.2555913868E-01-6.649010877E-01+
*       4.1052868793E-01               0
GRID*                 31               06.4438228660E-01-6.494586769E-01+
*       5.3113144834E-01               0
GRID*                 32               01.0767746646E+008.8505890844E-01+
*       -4.317133118E-02               0
GRID*                 33               06.2532299707E-01-5.601542678E-01+
*       6.8874163109E-01               0
GRID*                 34               0-6.417615711E-016.4414501861E-01+
*       9.7752265182E-01               0
GRID*                 35               0-6.280833526E-014.5233552102E-01+
*       1.0482423173E+00               0
GRID*                 36               0-6.377209623E-015.4430391207E-01+
*       1.1727638878E+00               0
GRID*                 37               0-6.079560222E-015.4528762595E-01+
*       8.3481579835E-01               0
GRID*                 38               0-5.633336784E-014.1237953797E-01+
*       9.1762484497E-01               0
GRID*                 39               07.5789977680E-014.5170317303E-01+
*       -1.249449881E-01               0
GRID*                 40               08.8579351164E-014.0350957666E-01+
*       -1.135527713E-01               0
GRID*                 41               07.7685504885E-013.7643748431E-01+
*       -1.250238852E-01               0
GRID*                 42               01.0666023323E+00-8.872713697E-01+
*       -2.071179358E-01               0
GRID*                 43               0-8.614535886E-01-5.416369075E-01+
*       -1.401565946E-01               0
GRID*                 44               0-9.324637957E-01-6.161979449E-01+
*       -4.373287171E-02               0
GRID*                 45               0-8.872419998E-01-6.398845279E-01+
*       -4.445056438E-02               0
GRID*                 46               01.1397231301E+008.3974447827E-01+
*       -4.234684008E-02               0
GRID*                 47               01.1844214922E+008.4529990756E-01+
*       -1.036181735E-01               0
GRID*                 48               01.1859502527E+008.1447998185E-01+
*       -4.368433224E-02               0
GRID*                 49               0-7.533701492E-01-4.821519255E-01+
*       -1.322285968E-01               0
GRID*                 50               0-8.177291474E-01-6.902841570E-01+
*       -1.289438178E-01               0
GRID*                 51               06.8304011953E-01-3.868555073E-01+
*       5.5260788860E-01               0
GRID*                 52               06.8728061886E-01-3.591590277E-01+
*       4.9412625450E-01               0
GRID*                 53               0-8.811937405E-01-6.479014657E-01+
*       -2.067971284E-01               0
GRID*                 54               0-9.851384344E-01-5.343635961E-01+
*       -1.153704583E-01               0
GRID*                 55               0-9.175169795E-01-3.966642998E-01+
*       -1.135054160E-01               0
GRID*                 56               0-1.047291222E+009.2474339082E-01+
*       -1.036410045E-01               0
GRID*                 57               0-1.004049000E+009.3701665523E-01+
*       -1.474188461E-01               0
GRID*                 58               0-6.054472034E-015.5399403873E-01+
*       6.7864630683E-01               0
GRID*                 59               0-6.277833538E-016.3235452230E-01+
*       5.3345148546E-01               0
GRID*                 60               0-6.161211475E-014.3682245840E-01+
*       3.8696831619E-01               0
GRID*                 61               0-6.093498482E-016.7858008354E-01+
*       4.2114110600E-01               0
GRID*                 62               0-6.053267300E-01-4.666833393E-01+
*       -1.531142648E-01               0
GRID*                 63               0-6.964010117E-01-3.233279774E-01+
*       -1.349435954E-01               0
GRID*                 64               0-5.193524480E-01-4.072088138E-01+
*       -1.282545467E-01               0
GRID*                 65               04.4830640064E-01-2.729407804E-01+
*       -1.326751639E-01               0
GRID*                 66               06.2405042984E-01-1.871895386E-01+
*       -1.296603215E-01               0
GRID*                 67               05.1666267786E-01-1.099915675E-01+
*       -1.283324590E-01               0
GRID*                 68               03.9115278654E-01-8.071294984E-02+
*       -1.402926108E-01               0
GRID*                 69               06.3339675348E-01-1.320126597E-01+
*       5.7185161817E-02               0
GRID*                 70               01.1177298413E+00-9.238756408E-01+
*       -1.479908763E-01               0
GRID*                 71               01.0913785808E+00-9.221351636E-01+
*       -2.055067028E-01               0
GRID*                 72               01.0871346295E+00-9.251094256E-01+
*       -1.660172058E-01               0
GRID*                 73               0-6.040264920E-01-5.441002559E-01+
*       1.1660406310E+00               0
GRID*                 74               0-6.201807864E-01-4.515452435E-01+
*       1.0473696967E+00               0
GRID*                 75               0-6.266917473E-01-6.589340385E-01+
*       9.5513319008E-01               0
GRID*                 76               0-6.282570315E-01-5.466477644E-01+
*       8.4996456202E-01               0
GRID*                 77               0-5.625378203E-01-4.021182971E-01+
*       9.1093127457E-01               0
GRID*                 78               0-1.115354863E+009.2443325418E-01+
*       -1.471365774E-01               0
GRID*                 79               0-6.886612204E-01-3.868129038E-01+
*       9.6748565545E-01               0
GRID*                 80               01.1603967485E+008.8054285886E-01+
*       -1.463672751E-01               0
GRID*                 81               01.0522616581E+005.9464948124E-01+
*       -4.189227305E-02               0
GRID*                 82               01.1112384456E+006.2323033817E-01+
*       -4.587041570E-02               0
GRID*                 83               0-1.147501082E+009.5041809054E-01+
*       -1.900036415E-01               0
GRID*                 84               08.2388375566E-01-8.682376839E-01+
*       -1.704992079E-01               0
GRID*                 85               07.4395840191E-01-9.371713083E-01+
*       -1.975752109E-01               0
GRID*                 86               09.0229626325E-01-5.382262422E-01+
*       -1.001044478E-01               0
GRID*                 87               08.0883802468E-01-6.277894681E-01+
*       -1.162329710E-01               0
GRID*                 88               07.2795686846E-01-4.958955830E-01+
*       -1.560859279E-01               0
GRID*                 89               01.0767393135E+00-5.269567182E-01+
*       -1.200570021E-01               0
GRID*                 90               08.8274449732E-01-3.920809523E-01+
*       -1.186342778E-01               0
GRID*                 91               05.6700676456E-018.9363353950E-02+
*       1.1705320046E+00               0
GRID*                 92               08.8721716347E-01-8.738355729E-01+
*       -4.567914188E-02               0
GRID*                 93               09.0852426782E-01-6.076683379E-01+
*       -2.064321415E-01               0
GRID*                 94               01.1631679821E+003.8275850321E-01+
*       -1.016408383E-01               0
GRID*                 95               01.1897049383E+003.0809851961E-01+
*       -6.220072237E-02               0
GRID*                 96               01.0410652430E+003.0777954791E-01+
*       -9.776404376E-02               0
GRID*                 97               01.0036436257E+004.2487858107E-01+
*       -1.306796472E-01               0
GRID*                 98               01.0986104455E+002.2488477737E-01+
*       -1.349011048E-01               0
GRID*                 99               0-6.500150522E-01-8.087896236E-02+
*       1.3971586342E+00               0
GRID*                100               0-6.206349939E-01-2.377613968E-01+
*       1.3786542541E+00               0
GRID*                101               0-6.457451895E-01-8.275254241E-02+
*       1.5210538216E+00               0
GRID*                102               0-3.690130385E-01-5.295653475E-01+
*       -1.346321757E-01               0
GRID*                103               0-1.083706456E+009.4858777446E-01+
*       -6.189397004E-02               0
GRID*                104               0-6.142531752E-01-4.008185087E-01+
*       1.4544396463E+00               0
GRID*                105               0-3.663669636E-01-3.598658509E-01+
*       -1.395238633E-01               0
GRID*                106               0-1.185027509E+00-3.291268185E-01+
*       -1.862501829E-01               0
GRID*                107               0-4.313357018E-01-1.359507585E-01+
*       -1.099831089E-01               0
GRID*                108               0-4.770662361E-01-2.677037512E-01+
*       -1.252885098E-01               0
GRID*                109               01.1558292233E+00-9.601349647E-01+
*       -6.057682476E-02               0
GRID*                110               0-1.186539683E+002.2059911617E-01+
*       -1.877258027E-01               0
GRID*                111               06.0331537298E-012.2967583032E-01+
*       1.3832052219E+00               0
GRID*                112               06.2819569594E-013.6121994556E-01+
*       1.4573510093E+00               0
GRID*                113               07.6937020638E-01-7.444243509E-01+
*       -1.096246341E-01               0
GRID*                114               05.6655021167E-015.5055338457E-01+
*       1.5187895286E+00               0
GRID*                115               06.2523837218E-014.7034006231E-01+
*       1.4093334811E+00               0
GRID*                116               06.2533975003E-014.6479183282E-01+
*       1.3330572251E+00               0
GRID*                117               06.4392054062E-013.9065446405E-01+
*       1.2660667610E+00               0
GRID*                118               06.4372366357E-016.7609490764E-01+
*       2.8600789273E-01               0
GRID*                119               06.2288166639E-018.0735720795E-01+
*       1.2634706392E-01               0
GRID*                120               06.3689983435E-015.7377535580E-01+
*       8.0770371770E-02               0
GRID*                121               09.2891131556E-015.3627886400E-01+
*       -1.316826899E-01               0
GRID*                122               01.0917378042E+005.1485048331E-01+
*       -1.382822956E-01               0
GRID*                123               0-1.175417701E+00-2.538128713E-01+
*       -1.881596614E-01               0
GRID*                124               0-1.056407871E+00-2.804211310E-01+
*       -1.304387742E-01               0
GRID*                125               0-1.172308998E+00-1.756409506E-01+
*       -1.892354575E-01               0
GRID*                126               0-6.453077077E-018.1318323849E-01+
*       8.9572903429E-01               0
GRID*                127               0-6.251675925E-017.6920740714E-01+
*       1.0832471952E+00               0
GRID*                128               0-5.633969071E-019.0890390560E-01+
*       9.6154662721E-01               0
GRID*                129               0-6.271471295E-016.8119847240E-01+
*       1.1837047897E+00               0
GRID*                130               06.2348224051E-01-8.541700355E-01+
*       4.1978010651E-01               0
GRID*                131               06.2845354051E-01-6.401707401E-01+
*       9.8628913510E-01               0
GRID*                132               06.5439283083E-01-8.156264456E-01+
*       8.9117655595E-01               0
GRID*                133               06.3128067045E-01-7.652700835E-01+
*       1.0821244693E+00               0
GRID*                134               06.4174578356E-01-6.873522622E-01+
*       1.1981754602E+00               0
GRID*                135               05.6357589658E-01-9.087585411E-01+
*       9.6147829924E-01               0
GRID*                136               0-6.597071680E-016.5299147653E-01+
*       -1.520386028E-01               0
GRID*                137               0-6.015926770E-018.2573478930E-01+
*       -1.506216663E-01               0
GRID*                138               0-6.457891223E-015.1480931676E-01+
*       -1.547050119E-01               0
GRID*                139               05.6317431069E-01-9.338874519E-02+
*       1.1791822713E+00               0
GRID*                140               0-8.043366810E-015.8835674518E-01+
*       -1.398788636E-01               0
GRID*                141               05.6281598691E-01-2.465760825E-02+
*       1.1795888708E+00               0
GRID*                142               0-6.050676993E-015.8170632011E-01+
*       8.3580954274E-02               0
GRID*                143               06.2151549947E-01-2.561950702E-01+
*       7.8028921013E-02               0
GRID*                144               06.2098264299E-01-1.261382779E-01+
*       2.4459740181E-01               0
GRID*                145               05.6022982510E-019.4728180366E-01+
*       1.5882332724E-01               0
GRID*                146               05.6492260965E-019.2345889035E-01+
*       2.3204542894E-01               0
GRID*                147               06.4274851573E-01-3.974465050E-01+
*       1.0326888769E-01               0
GRID*                148               06.3554740062E-01-3.241501845E-01+
*       -1.501272006E-01               0
GRID*                149               0-1.434411991E-019.4439275421E-01+
*       -6.214131535E-02               0
GRID*                150               0-9.550768682E-028.8307669482E-01+
*       -1.207357123E-01               0
GRID*                151               0-2.126876411E-019.3854050460E-01+
*       -6.067953024E-02               0
GRID*                152               0-1.480951855E-019.3837403554E-01+
*       -1.889062653E-01               0
GRID*                153               0-6.262488130E-018.4498679200E-01+
*       7.2717625584E-01               0
GRID*                154               0-5.622597968E-019.3434054178E-01+
*       7.0672215851E-01               0
GRID*                155               0-6.219787122E-01-7.734410902E-01+
*       9.3320534881E-03               0
GRID*                156               0-6.264884670E-01-7.022117541E-01+
*       -1.468890496E-01               0
GRID*                157               0-6.877218707E-019.3812956907E-01+
*       7.0647637869E-01               0
GRID*                158               0-7.353945411E-019.3447784579E-01+
*       -1.986925325E-01               0
GRID*                159               0-6.341761117E-019.0326076475E-01+
*       5.8994921968E-01               0
GRID*                160               0-6.882579366E-019.3928031928E-01+
*       6.5781553877E-01               0
GRID*                161               0-6.879829275E-019.4230288205E-01+
*       5.2105733887E-01               0
GRID*                162               0-6.341144254E-018.7379657433E-01+
*       4.1476843937E-01               0
GRID*                163               0-4.455395536E-01-7.652383901E-01+
*       -1.049154544E-01               0
GRID*                164               0-4.698591870E-01-9.233711749E-01+
*       -5.838043510E-02               0
GRID*                165               0-5.515345423E-01-9.203157000E-01+
*       -4.640686288E-02               0
GRID*                166               06.2322825704E-028.3845087837E-01+
*       -1.425306776E-01               0
GRID*                167               0-4.824375922E-01-6.357578855E-01+
*       -1.236876887E-01               0
GRID*                168               08.6622279510E-02-5.212802035E-01+
*       -1.117772994E-01               0
GRID*                169               01.6363256972E-01-4.087513563E-01+
*       -1.220917647E-01               0
GRID*                170               02.6322465715E-01-2.639815208E-01+
*       -1.242347316E-01               0
GRID*                171               03.5826148146E-02-1.515080510E-01+
*       -9.811595786E-02               0
GRID*                172               02.4645361002E-01-1.127151090E-01+
*       -1.429387900E-01               0
GRID*                173               01.7301676817E-015.9269240116E-02+
*       -1.272044782E-01               0
GRID*                174               01.4444471341E-01-4.477260640E-02+
*       -1.266300217E-01               0
GRID*                175               0-8.629665645E-01-8.322748657E-01+
*       -2.084999711E-01               0
GRID*                176               03.4756321991E-015.7731796014E-02+
*       -1.104465611E-01               0
GRID*                177               0-5.624993594E-01-5.518419951E-01+
*       1.5182949159E+00               0
GRID*                178               0-8.448239343E-013.7534992675E-01+
*       -1.052540397E-01               0
GRID*                179               0-6.903581890E-01-1.550765335E-01+
*       3.4410360220E-01               0
GRID*                180               0-1.025104448E+009.6681852175E-01+
*       -6.060390359E-02               0
GRID*                181               0-9.038236905E-015.4582360046E-01+
*       -1.265712763E-01               0
GRID*                182               0-8.900917497E-016.3350492171E-01+
*       -2.071721764E-01               0
GRID*                183               06.5294872111E-01-5.145223464E-02+
*       2.0915268942E-01               0
GRID*                184               08.5917583089E-015.8670894243E-02+
*       -1.011613225E-01               0
GRID*                185               07.5875424730E-019.0780715695E-02+
*       -1.244678710E-01               0
GRID*                186               06.5921652809E-011.2586814362E-02+
*       -1.130978392E-01               0
GRID*                187               05.6089780095E-01-1.535254238E-01+
*       3.4473359476E-01               0
GRID*                188               05.6819555213E-01-2.130188879E-01+
*       3.7039429711E-01               0
GRID*                189               01.1593909318E+00-8.778133971E-01+
*       -1.463647363E-01               0
GRID*                190               01.2011009548E+00-9.534980867E-01+
*       -1.254615877E-01               0
GRID*                191               01.1486670861E+00-9.517852306E-01+
*       -1.887938445E-01               0
GRID*                192               0-1.050713223E+004.7815478148E-01+
*       -1.161832757E-01               0
GRID*                193               0-1.065840879E+002.7319408797E-01+
*       -1.168806332E-01               0
GRID*                194               0-6.299092080E-01-3.703057232E-01+
*       1.6668654964E-01               0
GRID*                195               0-6.244008249E-01-1.173594376E-01+
*       7.0922116987E-02               0
GRID*                196               0-6.278318055E-01-2.323886046E-01+
*       3.7580921241E-04               0
GRID*                197               06.5411607346E-017.9954369273E-01+
*       3.2211018361E-01               0
GRID*                198               0-6.125348740E-01-5.472663031E-01+
*       1.4741988031E-01               0
GRID*                199               0-6.878735471E-019.3524743371E-01+
*       7.7155395481E-01               0
GRID*                200               0-5.629687238E-019.3222249144E-01+
*       7.7547141687E-01               0
GRID*                201               0-6.241328790E-01-3.100678740E-01+
*       8.7446611060E-04               0
GRID*                202               0-6.236522692E-01-3.877806536E-01+
*       1.2750991516E-03               0
GRID*                203               0-6.869960953E-019.3296647075E-01+
*       8.1804484718E-01               0
GRID*                204               01.1835477487E+00-8.466333157E-01+
*       -1.024286115E-01               0
GRID*                205               01.1277138779E+00-8.247831686E-01+
*       -4.075507704E-02               0
GRID*                206               01.1873180673E+00-8.136574691E-01+
*       -4.231087801E-02               0
GRID*                207               09.5165029974E-011.7081796325E-01+
*       -1.110984958E-01               0
GRID*                208               01.1087327961E+008.7762357166E-01+
*       -2.066659631E-01               0
GRID*                209               01.0654441422E+008.9119916549E-01+
*       -2.045149218E-01               0
GRID*                210               01.1104278081E+009.2446452067E-01+
*       -1.450367120E-01               0
GRID*                211               01.0264173281E+008.9945224336E-01+
*       -2.091326834E-01               0
GRID*                212               06.3607115587E-01-9.523624062E-02+
*       1.5538046980E+00               0
GRID*                213               06.8482848120E-01-1.874923840E-01+
*       3.4854224362E-01               0
GRID*                214               06.3541660029E-016.4721346762E-01+
*       -1.439473802E-01               0
GRID*                215               0-9.163748907E-01-2.421129119E-01+
*       -1.130102689E-01               0
GRID*                216               0-6.304605317E-017.4349296318E-01+
*       8.1116475343E-01               0
GRID*                217               0-6.198132637E-017.5327643872E-01+
*       6.3559029247E-01               0
GRID*                218               03.3007018938E-012.4993776946E-01+
*       -1.213534310E-01               0
GRID*                219               0-5.632040333E-01-6.147851463E-01+
*       1.4670636309E+00               0
GRID*                220               0-5.670212187E-01-6.314275197E-01+
*       1.4057971170E+00               0
GRID*                221               05.3651858568E-012.2577926620E-01+
*       -1.108049932E-01               0
GRID*                222               04.9037143454E-011.0922027152E-01+
*       -1.246461742E-01               0
GRID*                223               0-3.460086252E-01-8.707781543E-01+
*       -1.025774812E-01               0
GRID*                224               0-2.702948178E-01-9.300464032E-01+
*       -6.777369794E-02               0
GRID*                225               0-8.561704518E-016.8617989521E-02+
*       -1.572557094E-01               0
GRID*                226               0-7.227842317E-011.5595542823E-01+
*       -1.387834263E-01               0
GRID*                227               0-9.460022588E-012.0565274493E-01+
*       -1.395703863E-01               0
GRID*                228               06.8325886475E-013.9415659779E-01+
*       1.5883123869E+00               0
GRID*                229               0-7.860406663E-01-8.484993957E-03+
*       -1.515935374E-01               0
GRID*                230               0-3.928876116E-011.9094810031E-01+
*       -1.260625722E-01               0
GRID*                231               0-4.036023906E-014.1387251294E-01+
*       -1.043645984E-01               0
GRID*                232               0-5.014522467E-012.9462689254E-01+
*       -1.284331776E-01               0
GRID*                233               0-3.946070277E-012.6828938066E-01+
*       -1.240115127E-01               0
GRID*                234               06.3178399652E-017.2395241784E-01+
*       7.9830401342E-01               0
GRID*                235               06.2287640105E-017.2770104068E-01+
*       6.1057233514E-01               0
GRID*                236               0-1.054879022E+00-1.278247610E-01+
*       -1.276819307E-01               0
GRID*                237               05.6507903954E-01-2.458647738E-01+
*       1.6466392112E+00               0
GRID*                238               06.2062645416E-01-2.324605237E-01+
*       1.5758126288E+00               0
GRID*                239               06.5348515069E-01-2.084397506E-01+
*       1.3870250460E+00               0
GRID*                240               06.2464450279E-01-2.527193426E-01+
*       1.4977214958E+00               0
GRID*                241               05.6070549899E-01-1.698593583E-01+
*       1.6663037405E+00               0
GRID*                242               06.2515811808E-012.4567949083E-01+
*       1.2345205351E+00               0
GRID*                243               05.6274590524E-01-1.141514173E-02+
*       1.6747194998E+00               0
GRID*                244               05.6230442470E-01-8.639418217E-02+
*       1.6698712398E+00               0
GRID*                245               06.2042632122E-01-7.691572064E-02+
*       1.4139973917E+00               0
GRID*                246               01.1851610846E+004.5528670118E-01+
*       -1.875658307E-01               0
GRID*                247               06.4917278790E-01-8.890566124E-01+
*       5.8683097359E-01               0
GRID*                248               05.6208744553E-01-9.415136045E-01+
*       3.6773853191E-01               0
GRID*                249               06.8596513458E-01-9.388870509E-01+
*       6.5882441686E-01               0
GRID*                250               0-6.139018918E-019.7880159409E-02+
*       1.3936571572E+00               0
GRID*                251               0-6.169867942E-011.0237463332E-01+
*       1.5384595872E+00               0
GRID*                252               0-8.919641007E-016.2303313157E-01+
*       -4.303802134E-02               0
GRID*                253               0-5.998978181E-011.0016942377E-01+
*       1.2005001868E+00               0
GRID*                254               0-6.257314484E-01-6.711525495E-01+
*       7.6255093434E-02               0
GRID*                255               0-6.231295263E-01-6.061374566E-02+
*       1.2685846149E+00               0
GRID*                256               09.1741950988E-01-1.045813806E-01+
*       -1.263275422E-01               0
GRID*                257               07.9986100459E-01-2.370959183E-01+
*       -1.305313636E-01               0
GRID*                258               0-6.857025759E-011.3691030011E-01+
*       1.6678802970E+00               0
GRID*                259               0-6.349078212E-012.6200319110E-01+
*       1.4860219452E+00               0
GRID*                260               05.6736815548E-016.1052433214E-01+
*       1.4705055806E+00               0
GRID*                261               0-9.709018564E-01-9.263654924E-01+
*       -1.496628151E-01               0
GRID*                262               0-8.962192756E-01-9.272337895E-01+
*       -1.486621847E-01               0
GRID*                263               0-9.433977692E-01-9.263567969E-01+
*       -2.058697506E-01               0
GRID*                264               0-6.832929978E-01-3.261100116E-01+
*       1.6151437204E+00               0
GRID*                265               0-6.804079610E-01-2.435302303E-01+
*       1.6492533486E+00               0
GRID*                266               0-6.240421066E-01-1.621529762E-01+
*       1.5954971402E+00               0
GRID*                267               0-5.650707048E-01-1.369972134E-01+
*       1.6669813207E+00               0
GRID*                268               0-5.625472781E-01-2.808626601E-01+
*       1.6354243782E+00               0
GRID*                269               06.8735698092E-01-3.127880476E-02+
*       1.1790518298E+00               0
GRID*                270               06.8640536139E-01-9.293070464E-02+
*       1.1696571520E+00               0
GRID*                271               0-6.881346496E-019.2175112928E-01+
*       8.8586002851E-01               0
GRID*                272               0-5.625605596E-011.1768317282E-02+
*       1.6737045725E+00               0
GRID*                273               05.9056874729E-01-4.537712475E-01+
*       -1.394642959E-01               0
GRID*                274               06.2479470786E-01-2.937580402E-01+
*       1.5988196293E-01               0
GRID*                275               0-1.187423861E+00-2.324190710E-01+
*       -6.198723356E-02               0
GRID*                276               06.4529680937E-01-5.743598118E-01+
*       8.2663072664E-02               0
GRID*                277               06.0533094746E-018.7459353081E-01+
*       5.8047698881E-01               0
GRID*                278               0-1.187072214E+007.0021391389E-01+
*       -4.387134952E-02               0
GRID*                279               08.6880924658E-01-6.555829341E-01+
*       -4.169651243E-02               0
GRID*                280               08.4786354564E-01-7.068430587E-01+
*       -4.451512741E-02               0
GRID*                281               0-6.626635151E-02-3.704260909E-01+
*       -1.364716841E-01               0
GRID*                282               0-1.634822582E-01-2.431930099E-01+
*       -1.241970687E-01               0
GRID*                283               0-1.077830700E-01-5.237156793E-01+
*       -1.128662157E-01               0
GRID*                284               09.8624773815E-01-5.826356615E-01+
*       -4.328427429E-02               0
GRID*                285               09.4828372582E-01-5.954922088E-01+
*       -4.129558623E-02               0
GRID*                286               06.3026474929E-01-6.505246866E-01+
*       1.3083080985E+00               0
GRID*                287               05.6405700681E-01-7.561292084E-01+
*       1.3220458711E+00               0
GRID*                288               08.5592998185E-01-6.772694144E-01+
*       -2.064405787E-01               0
GRID*                289               08.3873216299E-01-7.693559017E-01+
*       -2.071617008E-01               0
GRID*                290               08.4629095379E-01-7.496526537E-01+
*       -4.089624489E-02               0
GRID*                291               08.1513989777E-01-8.177227399E-01+
*       -4.462180856E-02               0
GRID*                292               05.0791925870E-016.2460013525E-01+
*       -1.310919622E-01               0
GRID*                293               0-1.794138520E-01-3.092297468E-02+
*       -1.356571040E-01               0
GRID*                294               0-3.001577087E-01-1.431222315E-01+
*       -1.193265377E-01               0
GRID*                295               03.2438625953E-015.2579692973E-01+
*       -1.088641141E-01               0
GRID*                296               04.2258663112E-013.7012028595E-01+
*       -1.086593822E-01               0
GRID*                297               0-2.965233126E-018.2937570105E-02+
*       -1.279999772E-01               0
GRID*                298               06.3660643936E-014.7016647723E-01+
*       -1.458672378E-01               0
GRID*                299               0-1.117265818E+009.2443759423E-01+
*       -1.033098936E-01               0
GRID*                300               06.4029316173E-016.8954088951E-01+
*       1.2052226757E+00               0
GRID*                301               06.3493959054E-017.6226635899E-01+
*       1.0823316282E+00               0
GRID*                302               06.8814171559E-017.9618382982E-01+
*       1.1906472631E+00               0
GRID*                303               06.0928714381E-016.3740021317E-01+
*       9.8880031998E-01               0
GRID*                304               01.0770101216E+00-9.405452857E-01+
*       -1.035349442E-01               0
GRID*                305               01.0522804738E+00-9.376394527E-01+
*       -1.655680969E-01               0
GRID*                306               01.1940990965E+00-9.009678644E-01+
*       -1.883165475E-01               0
GRID*                307               01.1136037109E+00-9.261349281E-01+
*       -1.043232923E-01               0
GRID*                308               06.4174509971E-016.2031176942E-01+
*       1.3233777141E+00               0
GRID*                309               0-7.476863767E-018.0148848905E-01+
*       -1.399644694E-01               0
GRID*                310               0-8.252793200E-018.7551162029E-01+
*       -1.237328171E-01               0
GRID*                311               0-7.412891112E-019.2194023488E-01+
*       -7.573545837E-02               0
GRID*                312               06.2597068575E-015.4174948214E-01+
*       1.2059484488E+00               0
GRID*                313               0-6.597831561E-019.4065655082E-01+
*       -2.011973718E-01               0
GRID*                314               0-5.926154148E-019.4498066388E-01+
*       -1.747306077E-01               0
GRID*                315               03.4555759132E-018.6539103367E-01+
*       -1.033642987E-01               0
GRID*                316               04.4469751127E-019.2878595550E-01+
*       -1.865367313E-01               0
GRID*                317               02.7751984210E-017.4303578626E-01+
*       -1.304310052E-01               0
GRID*                318               02.0147646172E-018.6474939555E-01+
*       -1.250174239E-01               0
GRID*                319               02.9068104515E-019.3127946478E-01+
*       -1.907696271E-01               0
GRID*                320               0-1.155831223E+008.0465860601E-01+
*       -2.065353828E-01               0
GRID*                321               0-1.183812212E+007.7533402382E-01+
*       -1.466662330E-01               0
GRID*                322               0-1.181143153E+008.4779702768E-01+
*       -1.477750524E-01               0
GRID*                323               04.1912902471E-019.4592160482E-01+
*       -5.661361336E-02               0
GRID*                324               0-5.618303153E-019.2678337793E-01+
*       8.2445106587E-01               0
GRID*                325               0-5.625415887E-019.2105113951E-01+
*       8.9229237575E-01               0
GRID*                326               06.2400306732E-01-4.601653961E-01+
*       4.0748160080E-01               0
GRID*                327               06.3299767402E-01-6.736091287E-01+
*       2.9086081392E-01               0
GRID*                328               05.6821652511E-01-2.642269742E-01+
*       3.9887693259E-01               0
GRID*                329               05.6353085568E-01-3.124299902E-01+
*       4.4612876846E-01               0
GRID*                330               06.2613998670E-01-5.228034037E-01+
*       2.8858024255E-01               0
GRID*                331               06.2546287983E-01-4.414521661E-01+
*       2.2680247119E-01               0
GRID*                332               06.2900176596E-01-4.533339116E-01+
*       3.0584565491E-01               0
GRID*                333               06.2330988302E-01-3.832895900E-01+
*       2.9290655711E-01               0
GRID*                334               06.2327475339E-01-3.146604100E-01+
*       3.2141758228E-01               0
GRID*                335               07.8870144728E-012.6666938893E-01+
*       -1.365635028E-01               0
GRID*                336               07.6199572765E-011.6498496230E-01+
*       -1.273096019E-01               0
GRID*                337               0-1.216575732E+008.6127054725E-01+
*       -1.901747268E-01               0
GRID*                338               06.8936682021E-011.7659272048E-01+
*       -1.232728449E-01               0
GRID*                339               09.9691694970E-011.4350116094E-02+
*       -1.287397964E-01               0
GRID*                340               07.9337242721E-01-6.461931276E-02+
*       -1.275025646E-01               0
GRID*                341               0-6.897681718E-01-1.705830598E-01+
*       1.6651550710E+00               0
GRID*                342               0-6.877171684E-01-3.959588161E-01+
*       1.5883979232E+00               0
GRID*                343               06.8730778282E-013.9897819823E-02+
*       3.1760277593E-01               0
GRID*                344               01.1008052866E+00-3.818372562E-01+
*       -1.372499755E-01               0
GRID*                345               01.1070257609E+00-2.137402223E-01+
*       -1.137427554E-01               0
GRID*                346               0-1.184861733E+00-7.773726561E-01+
*       -1.042404190E-01               0
GRID*                347               0-1.154289682E+00-7.491559924E-01+
*       -4.220226087E-02               0
GRID*                348               0-1.185551871E+00-8.197278205E-01+
*       -4.364888264E-02               0
GRID*                349               01.1914683988E+00-8.834275604E-01+
*       -6.166217627E-02               0
GRID*                350               0-1.181772515E+00-8.477794144E-01+
*       -1.022108313E-01               0
GRID*                351               01.1413469053E+00-7.696070693E-02+
*       -1.184405280E-01               0
GRID*                352               01.1870354259E+00-1.534169874E-01+
*       -6.201956559E-02               0
GRID*                353               06.4249650877E-01-5.461384602E-01+
*       1.1690942342E+00               0
GRID*                354               06.8753114646E-01-6.315884907E-01+
*       1.4048136436E+00               0
GRID*                355               06.3403236376E-016.6634992818E-01+
*       4.0890250500E-01               0
GRID*                356               0-1.184604480E+00-1.533534073E-01+
*       -6.111595193E-02               0
GRID*                357               06.3567200433E-01-7.936927572E-01+
*       1.5678314628E-01               0
GRID*                358               0-1.137179790E+006.7031862828E-01+
*       -4.346847913E-02               0
GRID*                359               04.2937231104E-01-5.065457849E-01+
*       -1.268262673E-01               0
GRID*                360               06.4828697886E-013.0581210494E-02+
*       6.7501683074E-02               0
GRID*                361               02.1493207744E-012.0596842559E-01+
*       -1.234354422E-01               0
GRID*                362               05.6437330193E-017.4327370105E-01+
*       1.3297247263E+00               0
GRID*                363               05.6197435146E-017.8258859346E-01+
*       1.2688159499E+00               0
GRID*                364               06.3841992989E-014.4619923536E-01+
*       4.0325591359E-01               0
GRID*                365               06.1847244337E-018.5733489304E-01+
*       4.1768881496E-01               0
GRID*                366               06.2326559660E-016.1985001023E-01+
*       5.4560397942E-01               0
GRID*                367               06.2412441601E-015.3963972466E-01+
*       6.5693791178E-01               0
GRID*                368               0-1.150575282E+007.4576583054E-01+
*       -2.080179375E-01               0
GRID*                369               08.7320809219E-01-9.526832950E-01+
*       -1.922095639E-01               0
GRID*                370               01.1069928025E+00-8.750842000E-01+
*       -2.065739043E-01               0
GRID*                371               01.0341410371E+00-9.612490892E-01+
*       -1.880285685E-01               0
GRID*                372               08.7902757137E-01-6.445006791E-01+
*       -2.071694312E-01               0
GRID*                373               08.3839052886E-01-7.299392647E-01+
*       -2.070258646E-01               0
GRID*                374               0-6.247155773E-014.6010555754E-01+
*       5.5543224010E-01               0
GRID*                375               0-5.629185160E-014.1938240167E-01+
*       5.9548147918E-01               0
GRID*                376               0-3.762020251E-021.1025493162E-02+
*       -1.070018593E-01               0
GRID*                377               0-6.864867330E-014.3285256288E-01+
*       7.2591610932E-01               0
GRID*                378               0-6.879098439E-01-8.590247956E-02+
*       1.6712631093E+00               0
GRID*                379               01.0256003680E+00-9.006112760E-01+
*       -2.059973590E-01               0
GRID*                380               09.4054650433E-01-8.939134087E-01+
*       -2.072602519E-01               0
GRID*                381               0-6.884471182E-013.4884064581E-01+
*       1.6066116693E+00               0
GRID*                382               0-6.865365288E-014.1958030281E-01+
*       1.5823345576E+00               0
GRID*                383               0-6.887756549E-012.7686530462E-01+
*       1.6306455565E+00               0
GRID*                384               0-6.884787132E-012.0767328845E-01+
*       1.6482218878E+00               0
GRID*                385               0-1.196825434E+006.1872954377E-01+
*       -6.004986966E-02               0
GRID*                386               0-9.461350930E-015.9452841080E-01+
*       -4.147746349E-02               0
GRID*                387               0-9.851578963E-015.8246574819E-01+
*       -4.279797422E-02               0
GRID*                388               0-4.396175048E-017.7204239001E-01+
*       -1.478542116E-01               0
GRID*                389               0-4.415017513E-019.3737846283E-01+
*       -1.878204622E-01               0
GRID*                390               0-6.352192002E-017.5921687878E-01+
*       2.3850561633E-02               0
GRID*                391               0-1.082324999E+00-9.464841814E-01+
*       -6.320244690E-02               0
GRID*                392               0-1.044554103E+00-9.253416978E-01+
*       -1.056120109E-01               0
GRID*                393               0-1.334201204E-017.0043505716E-01+
*       -1.175651373E-01               0
GRID*                394               0-1.160239072E+00-8.801599801E-01+
*       -1.038531893E-01               0
GRID*                395               0-1.112755364E+00-9.236389184E-01+
*       -1.048719428E-01               0
GRID*                396               0-1.202487706E+00-9.000743583E-01+
*       -6.172759793E-02               0
GRID*                397               01.1528628952E+007.4694361333E-01+
*       -4.383488993E-02               0
GRID*                398               01.1839670427E+007.3493228358E-01+
*       -1.048694941E-01               0
GRID*                399               01.1949729155E+006.0880362205E-01+
*       -6.128856048E-02               0
GRID*                400               09.4565667215E-01-5.918480360E-01+
*       -2.079161587E-01               0
GRID*                401               09.8312833481E-01-5.562847058E-01+
*       -2.059202160E-01               0
GRID*                402               0-1.108102898E+008.7474322406E-01+
*       -2.078274942E-01               0
GRID*                403               06.3225893554E-01-3.288196211E-02+
*       1.2837931984E+00               0
GRID*                404               05.6265321956E-012.0069324133E-01+
*       1.1315527382E+00               0
GRID*                405               06.5481774046E-019.3875246827E-02+
*       1.3980100878E+00               0
GRID*                406               06.2442246228E-019.4426094416E-02+
*       1.5634389287E+00               0
GRID*                407               06.8711903722E-014.6251102319E-01+
*       1.5523294039E+00               0
GRID*                408               0-5.034060253E-021.6984835086E-01+
*       -1.407238544E-01               0
GRID*                409               06.8805337902E-01-4.204978530E-01+
*       8.4590818980E-01               0
GRID*                410               0-1.081520958E+00-4.926042839E-01+
*       -1.122563929E-01               0
GRID*                411               0-1.051266510E+00-5.933422378E-01+
*       -4.239966030E-02               0
GRID*                412               06.9030651982E-012.3321541917E-02+
*       1.1795008560E+00               0
GRID*                413               06.8506503070E-018.9397465436E-02+
*       1.1792796542E+00               0
GRID*                414               05.6117102622E-01-9.343088569E-01+
*       7.7777756537E-01               0
GRID*                415               05.5134768229E-01-9.398508109E-01+
*       8.4407136959E-01               0
GRID*                416               05.6075664240E-01-9.364002552E-01+
*       7.0483684681E-01               0
GRID*                417               0-9.643059770E-01-5.915319049E-01+
*       -2.077588773E-01               0
GRID*                418               07.0908007608E-02-3.521560399E-02+
*       -1.233668632E-01               0
GRID*                419               0-6.874944832E-019.4342685962E-01+
*       3.7843999906E-01               0
GRID*                420               07.9853196617E-021.7503376883E-01+
*       -1.268193279E-01               0
GRID*                421               01.5204841897E-011.7128685452E-01+
*       -1.253103137E-01               0
GRID*                422               0-2.661769534E-019.1214884339E-01+
*       -6.813337286E-02               0
GRID*                423               0-2.000597295E-018.4833486539E-01+
*       -1.270996675E-01               0
GRID*                424               06.0042890832E-012.4102789417E-01+
*       8.4082994724E-02               0
GRID*                425               01.0212551574E+005.8729366610E-01+
*       -2.063325162E-01               0
GRID*                426               0-1.649627699E-01-6.708367556E-01+
*       -1.038088188E-01               0
GRID*                427               04.7975048683E-03-6.393319508E-01+
*       -1.259511815E-01               0
GRID*                428               0-2.959043823E-01-7.564443413E-01+
*       -1.434554783E-01               0
GRID*                429               0-6.392590094E-01-6.418873483E-01+
*       1.3117397477E+00               0
GRID*                430               0-1.437133310E-015.4072766454E-01+
*       -1.191170797E-01               0
GRID*                431               0-6.087678579E-01-8.124033140E-01+
*       1.4742733313E-01               0
GRID*                432               0-6.849076503E-01-9.225334943E-01+
*       3.9260122641E-02               0
GRID*                433               0-5.619225967E-01-9.447295656E-01+
*       1.6175469359E-01               0
GRID*                434               0-5.576023408E-01-9.442081933E-01+
*       8.6946921062E-02               0
GRID*                435               0-6.272433792E-01-5.394205913E-01+
*       -1.920420801E-03               0
GRID*                436               0-6.166458377E-017.7450099891E-01+
*       3.2019484247E-01               0
GRID*                437               0-6.180881137E-01-6.603621369E-01+
*       2.7802592953E-01               0
GRID*                438               0-6.242462015E-01-4.631262625E-01+
*       -4.092602672E-04               0
GRID*                439               0-6.883657554E-019.2397408486E-01+
*       2.3278545486E-01               0
GRID*                440               0-8.782203683E-018.4771413089E-01+
*       -2.069081919E-01               0
GRID*                441               0-8.548055785E-017.9501594257E-01+
*       -2.060898339E-01               0
GRID*                442               06.3380675015E-01-8.762409082E-01+
*       7.2652533195E-01               0
GRID*                443               0-1.189822663E+001.5037706061E-01+
*       -1.870722289E-01               0
GRID*                444               0-6.057968633E-016.7116766219E-01+
*       2.9124390985E-01               0
GRID*                445               0-6.874394370E-01-5.263049969E-01+
*       1.5130830646E+00               0
GRID*                446               0-6.343120592E-013.0964529191E-01+
*       1.3541557309E+00               0
GRID*                447               0-6.301742386E-012.6741495747E-01+
*       1.2169407911E+00               0
GRID*                448               0-1.181222895E+00-6.631353452E-01+
*       -1.031007949E-01               0
GRID*                449               0-1.154069755E+00-7.033850951E-01+
*       -4.246063481E-02               0
GRID*                450               0-1.130765795E+00-6.563607919E-01+
*       -4.260931556E-02               0
GRID*                451               0-1.217219538E+00-7.309785275E-01+
*       -6.334901818E-02               0
GRID*                452               07.9971379945E-016.1278667381E-01+
*       -1.105324493E-01               0
GRID*                453               07.5704339684E-015.2895597638E-01+
*       -1.253771809E-01               0
GRID*                454               0-7.758816593E-01-1.603362935E-01+
*       -1.262060184E-01               0
GRID*                455               0-5.904969606E-01-1.520267322E-01+
*       -1.450540438E-01               0
GRID*                456               09.6944415650E-016.0541519288E-01+
*       -4.201815615E-02               0
GRID*                457               01.0140209530E+005.8143212839E-01+
*       -4.495822436E-02               0
GRID*                458               06.8656504726E-017.5572304879E-01+
*       1.3224773206E+00               0
GRID*                459               04.4912983336E-022.9525112068E-01+
*       -1.162698495E-01               0
GRID*                460               08.8769277565E-025.1995564826E-01+
*       -1.139269443E-01               0
GRID*                461               0-9.208144437E-023.3674267220E-01+
*       -1.425005673E-01               0
GRID*                462               09.3478753503E-01-9.377210981E-01+
*       -1.498176174E-01               0
GRID*                463               09.7758417207E-01-9.382164147E-01+
*       -2.052669350E-01               0
GRID*                464               0-2.511667757E-013.0076368450E-01+
*       -1.198284047E-01               0
GRID*                465               0-3.189323197E-017.1869031781E-01+
*       -1.191859480E-01               0
GRID*                466               0-3.198896521E-015.5531184969E-01+
*       -1.171499446E-01               0
GRID*                467               0-9.079419528E-01-7.776744467E-02+
*       -1.531203674E-01               0
GRID*                468               07.1917869232E-01-5.081064472E-02+
*       -1.256147000E-01               0
GRID*                469               01.8610670013E-013.5345251298E-01+
*       -1.297760786E-01               0
GRID*                470               02.1521745671E-019.3490416156E-01+
*       -1.858362400E-01               0
GRID*                471               01.5385455305E-016.7645452217E-01+
*       -1.024394555E-01               0
GRID*                472               0-6.569964206E-012.3946865364E-02+
*       -1.309781258E-01               0
GRID*                473               06.8778883415E-01-9.415789377E-01+
*       5.2128044068E-01               0
GRID*                474               0-1.025420293E+004.1124444119E-03+
*       -1.137931170E-01               0
GRID*                475               06.3983460363E-01-7.503588877E-01+
*       6.2241311773E-01               0
GRID*                476               02.9285881742E-01-9.347748648E-01+
*       -1.879838094E-01               0
GRID*                477               0-6.214014774E-01-7.900438578E-01+
*       9.5214070507E-01               0
GRID*                478               0-6.236372843E-01-7.808731991E-01+
*       8.1132702183E-01               0
GRID*                479               0-6.362158444E-01-9.014737446E-01+
*       7.7516155596E-01               0
GRID*                480               0-4.894323553E-016.0682327935E-01+
*       -1.427013977E-01               0
GRID*                481               01.2168371487E-01-6.821299685E-01+
*       -1.168949342E-01               0
GRID*                482               03.0432219612E-01-7.920949553E-01+
*       -1.164578542E-01               0
GRID*                483               0-5.629061445E-019.0208298825E-01+
*       1.0226265805E+00               0
GRID*                484               0-6.183117271E-01-4.154961532E-01+
*       1.2693092836E+00               0
GRID*                485               0-6.153427355E-01-2.350096404E-01+
*       1.2301500306E+00               0
GRID*                486               0-6.212451130E-014.0350939595E-01+
*       1.4514340355E+00               0
GRID*                487               05.1894286587E-013.5353407371E-02+
*       -1.245037092E-01               0
GRID*                488               0-9.329041760E-01-9.362658625E-01+
*       -1.040815579E-01               0
GRID*                489               0-9.819522944E-01-9.074545484E-01+
*       -4.141681799E-02               0
GRID*                490               0-6.704910183E-01-9.427394796E-01+
*       -1.777361208E-01               0
GRID*                491               0-6.005404504E-01-9.343964783E-01+
*       -1.714657793E-01               0
GRID*                492               06.2170932173E-015.6729714640E-01+
*       2.4427459368E-01               0
GRID*                493               0-6.866626694E-019.4569928166E-01+
*       1.6142603431E-01               0
GRID*                494               05.5097132541E-01-9.502298870E-01+
*       6.4127229076E-01               0
GRID*                495               05.9616615328E-01-7.771415222E-01+
*       3.1605229246E-01               0
GRID*                496               06.8708263676E-01-9.428744836E-01+
*       3.7871411674E-01               0
GRID*                497               0-6.799085558E-01-9.215916616E-01+
*       -5.068054185E-02               0
GRID*                498               04.2632456834E-011.5092988382E-01+
*       -1.246549805E-01               0
GRID*                499               06.4267234413E-01-7.491374601E-01+
*       8.0755886817E-01               0
GRID*                500               05.6132674334E-01-3.867591767E-01+
*       9.6753149805E-01               0
GRID*                501               05.6331109030E-01-3.369956032E-01+
*       1.0190927608E+00               0
GRID*                502               0-6.130266421E-01-8.595588454E-01+
*       4.1415754040E-01               0
GRID*                503               0-6.482397701E-01-7.954163403E-01+
*       3.1382618822E-01               0
GRID*                504               0-6.224426881E-01-8.890398155E-01+
*       5.8929084862E-01               0
GRID*                505               0-8.970682439E-019.2522605419E-01+
*       -1.082400880E-01               0
GRID*                506               06.2148226759E-01-2.451051116E-01+
*       3.1188661464E-01               0
GRID*                507               06.3490712590E-01-7.482662509E-01+
*       2.7867985629E-02               0
GRID*                508               06.8499660961E-019.2092981001E-01+
*       3.7769593778E-02               0
GRID*                509               0-6.138279153E-01-6.757158518E-01+
*       1.1720981378E+00               0
GRID*                510               0-6.313636908E-01-7.625113615E-01+
*       1.0940336487E+00               0
GRID*                511               0-6.881712805E-01-7.960403058E-01+
*       1.1902668184E+00               0
GRID*                512               06.2508632777E-018.7421734430E-01+
*       7.2765324461E-01               0
GRID*                513               06.1205020518E-018.0196766666E-01+
*       9.2692706214E-01               0
GRID*                514               07.9295476387E-01-9.455050352E-01+
*       -7.403945003E-02               0
GRID*                515               07.4424946828E-01-9.230438397E-01+
*       -7.435124069E-02               0
GRID*                516               08.6587672076E-01-8.125538649E-01+
*       -2.069807254E-01               0
GRID*                517               02.9715438514E-01-4.972560835E-01+
*       -1.400585144E-01               0
GRID*                518               01.1049129086E+006.0897639208E-01+
*       -2.064184819E-01               0
GRID*                519               01.0594321051E+005.9977370372E-01+
*       -2.086507179E-01               0
GRID*                520               01.1557054374E+007.0411027203E-01+
*       -4.420463632E-02               0
GRID*                521               01.1307503099E+006.5530986197E-01+
*       -4.057106706E-02               0
GRID*                522               0-1.065090417E+00-8.897508854E-01+
*       -2.055103750E-01               0
GRID*                523               0-1.112662126E+00-9.267795754E-01+
*       -1.473569434E-01               0
GRID*                524               0-1.108828645E+00-8.755508864E-01+
*       -2.070494832E-01               0
GRID*                525               0-1.105269196E+00-9.610194867E-01+
*       -1.875076040E-01               0
GRID*                526               0-6.356358537E-011.3370831586E-01+
*       2.0745295947E-01               0
GRID*                527               0-5.613955279E-018.8127253287E-01+
*       1.0869906315E+00               0
GRID*                528               0-6.307122121E-01-7.478024368E-01+
*       6.2387191815E-01               0
GRID*                529               05.6008408431E-01-9.342120282E-01+
*       2.9543882761E-01               0
GRID*                530               0-1.013128117E+00-5.837779872E-01+
*       -4.065660491E-02               0
GRID*                531               01.1596097875E+006.3272310843E-01+
*       -1.470266587E-01               0
GRID*                532               01.1186318716E+006.5030145201E-01+
*       -2.070134251E-01               0
GRID*                533               0-6.828396859E-013.3509119580E-01+
*       -1.472853626E-01               0
GRID*                534               0-5.878011533E-011.7044953868E-01+
*       -1.421786179E-01               0
GRID*                535               05.6112011518E-019.2194346655E-01+
*       3.6030815897E-02               0
GRID*                536               05.4928143319E-019.2100004159E-01+
*       -5.065569059E-02               0
GRID*                537               0-8.931964864E-018.7683951751E-01+
*       -4.344895665E-02               0
GRID*                538               06.2960088901E-013.8014523245E-01+
*       1.8331704596E-01               0
GRID*                539               06.2319980648E-013.8484849531E-01+
*       1.3228964224E-03               0
GRID*                540               05.6105112538E-01-7.967705090E-01+
*       1.2593073593E+00               0
GRID*                541               06.8750058590E-01-7.835882575E-01+
*       1.2701793333E+00               0
GRID*                542               06.8852062037E-01-8.085857295E-01+
*       1.2165750113E+00               0
GRID*                543               08.3362053598E-02-8.806864985E-01+
*       -1.477501130E-01               0
GRID*                544               0-5.657546359E-02-8.294671640E-01+
*       -1.478552327E-01               0
GRID*                545               02.7587649615E-01-6.491547021E-01+
*       -1.248877774E-01               0
GRID*                546               01.0774210689E-01-2.600289770E-01+
*       -1.268045802E-01               0
GRID*                547               01.1441801047E+007.6542016648E-02+
*       -1.267672210E-01               0
GRID*                548               06.8464423166E-019.3695004271E-01+
*       1.4033172594E-01               0
GRID*                549               01.1930744306E+00-6.042243874E-04+
*       -1.874911197E-01               0
GRID*                550               0-5.605926162E-01-8.070000816E-01+
*       1.2170542009E+00               0
GRID*                551               06.7850009475E-019.2011167460E-01+
*       -4.958497491E-02               0
GRID*                552               05.4261730559E-019.6160488626E-01+
*       5.9582867200E-02               0
GRID*                553               06.8662638321E-019.3268475738E-01+
*       2.1770899760E-01               0
GRID*                554               0-3.308269468E-019.5231416444E-01+
*       -6.469502452E-02               0
GRID*                555               0-3.580487860E-011.2225046364E-01+
*       -1.251155153E-01               0
GRID*                556               0-4.332202110E-015.5462237344E-02+
*       -1.106244823E-01               0
GRID*                557               0-5.378253250E-01-5.044714272E-02+
*       -1.246806173E-01               0
GRID*                558               0-6.426035852E-017.9311040770E-01+
*       1.4986113874E-01               0
GRID*                559               06.8904864428E-01-8.888612200E-01+
*       1.0213378055E+00               0
GRID*                560               05.6385626148E-01-7.970489044E-01+
*       1.1898598250E+00               0
GRID*                561               05.6662215848E-011.4501698482E-01+
*       1.1564791755E+00               0
GRID*                562               06.8696679105E-011.4441147015E-01+
*       1.1631390257E+00               0
GRID*                563               05.6378892687E-011.3685937875E-01+
*       1.6685749632E+00               0
GRID*                564               05.6191915936E-016.3071063794E-02+
*       1.6705418325E+00               0
GRID*                565               06.8506941339E-012.4588218805E-01+
*       1.6467732524E+00               0
GRID*                566               09.7615681841E-015.9013010870E-01+
*       -2.075927573E-01               0
GRID*                567               0-1.199314718E+00-9.508054581E-01+
*       -1.265820943E-01               0
GRID*                568               0-1.148549299E+00-9.516255355E-01+
*       -1.887753889E-01               0
GRID*                569               0-1.044784425E+00-9.249773884E-01+
*       -1.452912794E-01               0
GRID*                570               0-1.035116134E+00-9.609361252E-01+
*       -1.888563973E-01               0
GRID*                571               0-1.003081503E+00-9.386775957E-01+
*       -1.035482410E-01               0
GRID*                572               0-9.161095300E-01-9.700503338E-01+
*       -6.335845533E-02               0
GRID*                573               0-6.405914233E-019.9468738417E-02+
*       7.6980076738E-02               0
GRID*                574               0-6.283596850E-01-5.295206746E-01+
*       1.3776227767E+00               0
GRID*                575               0-5.609011882E-01-7.842301182E-01+
*       1.2742003362E+00               0
GRID*                576               09.4581782461E-01-2.773905264E-01+
*       -1.345170645E-01               0
GRID*                577               05.6265011917E-018.8721180879E-01+
*       1.0195099474E+00               0
GRID*                578               0-5.634827891E-01-8.685619474E-01+
*       1.0850582811E+00               0
GRID*                579               05.6166113892E-019.3074871195E-01+
*       8.2044582471E-01               0
GRID*                580               05.6260627819E-019.1273080796E-01+
*       9.5337470835E-01               0
GRID*                581               05.6133399157E-019.2122438003E-01+
*       8.8638209633E-01               0
GRID*                582               0-6.240608398E-014.0480779854E-01+
*       1.0551646769E-01               0
GRID*                583               0-6.381495425E-012.5868749821E-01+
*       7.5199936690E-02               0
GRID*                584               0-6.859739999E-013.0078854912E-01+
*       3.8412214520E-01               0
GRID*                585               0-7.016383487E-012.1574262522E-01+
*       3.8259085019E-01               0
GRID*                586               0-6.878142966E-013.2607850614E-01+
*       4.5478748171E-01               0
GRID*                587               0-7.059436037E-013.4754700681E-01+
*       5.1337314453E-01               0
GRID*                588               0-5.629350579E-01-4.215721236E-01+
*       1.5845007574E+00               0
GRID*                589               0-6.885059244E-01-4.196133606E-01+
*       5.9568427973E-01               0
GRID*                590               0-6.872735419E-014.2077397765E-01+
*       8.4672261309E-01               0
GRID*                591               0-6.855899630E-014.0181229194E-01+
*       9.1177964267E-01               0
GRID*                592               0-9.708737484E-01-6.057841019E-01+
*       -4.147258318E-02               0
GRID*                593               0-8.820815869E-01-8.748880514E-01+
*       -4.595721740E-02               0
GRID*                594               0-1.183235908E+008.4695931766E-01+
*       -1.021055990E-01               0
GRID*                595               0-1.138219760E+008.3896111172E-01+
*       -4.133029765E-02               0
GRID*                596               0-1.185232006E+008.1528790255E-01+
*       -4.364550022E-02               0
GRID*                597               05.6170354319E-01-9.195686678E-01+
*       3.6587369113E-02               0
GRID*                598               01.1931461359E+001.5107058702E-01+
*       -1.877136062E-01               0
GRID*                599               06.8637472859E-01-9.189047711E-01+
*       3.6466828117E-02               0
GRID*                600               05.6209413814E-01-9.364959163E-01+
*       1.4045952197E-01               0
GRID*                601               06.8793435810E-01-9.235597619E-01+
*       2.3277221931E-01               0
GRID*                602               06.5486070600E-02-3.193565307E-01+
*       -1.238031946E-01               0
GRID*                603               01.1851165446E+00-3.083463409E-01+
*       -6.268131880E-02               0
GRID*                604               01.1833169759E+00-4.726854664E-01+
*       -6.403341764E-02               0
GRID*                605               08.8840496173E-016.3822309204E-01+
*       -4.345401223E-02               0
GRID*                606               0-6.870879386E-011.4301960313E-01+
*       1.1542703919E+00               0
GRID*                607               0-6.860580313E-012.0071454861E-01+
*       1.1322247174E+00               0
GRID*                608               06.1557185778E-01-5.242665539E-01+
*       1.3835676907E+00               0
GRID*                609               06.1146117109E-01-4.112753736E-01+
*       1.4540531785E+00               0
GRID*                610               05.6182289670E-01-5.265057751E-01+
*       1.5134909485E+00               0
GRID*                611               06.8700218822E-01-5.518519258E-01+
*       1.5185951478E+00               0
GRID*                612               06.8593077388E-01-4.829761703E-01+
*       1.5482788018E+00               0
GRID*                613               06.8746943814E-01-3.096158208E-01+
*       1.0692247571E+00               0
GRID*                614               0-1.041588317E+00-9.375137349E-01+
*       -4.392106660E-02               0
GRID*                615               0-1.017751456E+00-9.716170706E-01+
*       -4.621012583E-02               0
GRID*                616               06.2813630193E-01-4.520390178E-01+
*       1.0488535890E+00               0
GRID*                617               0-5.639221541E-012.2279952426E-02+
*       1.1788763381E+00               0
GRID*                618               0-6.873290248E-012.9918868681E-02+
*       1.1788253681E+00               0
GRID*                619               0-6.882269980E-01-4.272821643E-01+
*       6.6873945269E-01               0
GRID*                620               0-6.310726937E-01-1.389349415E-01+
*       2.2792227099E-01               0
GRID*                621               08.9527138832E-01-9.229610484E-01+
*       -1.075682344E-01               0
GRID*                622               05.6100163302E-01-4.123716608E-01+
*       9.1455244043E-01               0
GRID*                623               05.6369302994E-01-4.318131866E-01+
*       7.8882248999E-01               0
GRID*                624               05.6141291926E-018.6887559454E-01+
*       1.0868888416E+00               0
GRID*                625               0-6.885322010E-019.3937642975E-01+
*       3.0740575990E-01               0
GRID*                626               0-2.196267508E-019.3685691596E-01+
*       -1.870198285E-01               0
GRID*                627               06.1908464507E-011.4967641501E-01+
*       2.2530783228E-01               0
GRID*                628               0-1.967314519E-01-9.275028142E-01+
*       -6.490090421E-02               0
GRID*                629               0-1.183202496E-01-9.524434421E-01+
*       -6.387140162E-02               0
GRID*                630               0-6.829617623E-01-3.964026962E-01+
*       5.4310504871E-01               0
GRID*                631               0-6.872809579E-01-3.460442090E-01+
*       4.8545449963E-01               0
GRID*                632               0-6.150738874E-01-1.566600396E-02+
*       2.0834707693E-01               0
GRID*                633               0-6.875361861E-01-9.338380390E-01+
*       2.1761476029E-01               0
GRID*                634               0-5.471919345E-01-1.825858257E-01+
*       1.1248777688E+00               0
GRID*                635               0-3.117045816E-02-7.074466174E-01+
*       -1.240817841E-01               0
GRID*                636               05.6114104766E-01-9.319949636E-01+
*       2.1758153270E-01               0
GRID*                637               0-1.027058069E+00-8.964593407E-01+
*       -2.067320044E-01               0
GRID*                638               0-1.197026073E+00-9.035107739E-01+
*       -1.883390041E-01               0
GRID*                639               0-1.279218096E-026.4286072486E-01+
*       -1.259775260E-01               0
GRID*                640               0-6.106770705E-016.4554303593E-01+
*       1.3106875625E+00               0
GRID*                641               0-6.123774470E-015.2442634752E-01+
*       1.3813618318E+00               0
GRID*                642               0-6.029780575E-014.2193724368E-01+
*       1.2508824289E+00               0
GRID*                643               0-6.873042352E-016.3140079053E-01+
*       1.4048894495E+00               0
GRID*                644               0-5.620092025E-015.2637823135E-01+
*       1.5132361147E+00               0
GRID*                645               0-5.634414091E-012.0431996574E-01+
*       1.1295530839E+00               0
GRID*                646               0-5.626447879E-019.3787835750E-01+
*       5.1651672602E-01               0
GRID*                647               0-6.884404700E-01-9.213709270E-01+
*       8.9432700021E-01               0
GRID*                648               0-5.626295103E-01-9.212443144E-01+
*       8.8487966817E-01               0
GRID*                649               0-5.613442748E-01-9.355246177E-01+
*       8.1928783463E-01               0
GRID*                650               0-2.340879719E-01-4.175693051E-01+
*       -1.252374536E-01               0
GRID*                651               0-6.873072896E-014.0835434609E-01+
*       6.0410030029E-01               0
GRID*                652               0-6.872215417E-014.2499975385E-01+
*       6.7129687178E-01               0
GRID*                653               0-5.613099288E-013.1181882076E-01+
*       4.4554668451E-01               0
GRID*                654               05.6280862064E-01-9.372368202E-01+
*       5.1660639711E-01               0
GRID*                655               0-1.108245333E+00-6.235483602E-01+
*       -4.294110240E-02               0
GRID*                656               0-1.215803435E+00-6.593845968E-01+
*       -6.033958708E-02               0
GRID*                657               0-8.620252174E-018.3863401909E-01+
*       -4.108508539E-02               0
GRID*                658               0-9.298843545E-019.4844539409E-01+
*       -6.037139361E-02               0
GRID*                659               0-1.194312120E+00-5.288941397E-01+
*       -6.113037202E-02               0
GRID*                660               0-1.158958121E+00-6.297526843E-01+
*       -1.030740446E-01               0
GRID*                661               0-6.251434170E-01-4.632126147E-01+
*       5.5623153119E-01               0
GRID*                662               0-5.637562153E-01-4.087460778E-01+
*       6.0547464023E-01               0
GRID*                663               0-6.869866535E-01-4.351196260E-01+
*       7.2390033899E-01               0
GRID*                664               01.1914918944E+00-1.555953154E-01+
*       -1.873032730E-01               0
GRID*                665               0-5.632134155E-01-4.330039215E-01+
*       7.2624627915E-01               0
GRID*                666               06.3526094204E-015.4262266126E-01+
*       8.3674925854E-01               0
GRID*                667               06.8476726936E-01-4.025831293E-01+
*       9.1137302834E-01               0
GRID*                668               06.0820146674E-01-5.465990767E-01+
*       8.3987254900E-01               0
GRID*                669               06.8914301917E-01-3.780819532E-01+
*       9.6034964394E-01               0
GRID*                670               05.6223339421E-01-2.465823629E-01+
*       1.1015707157E+00               0
GRID*                671               0-6.861272285E-01-7.554625999E-01+
*       1.3214939781E+00               0
GRID*                672               06.3176447068E-01-2.374365137E-01+
*       1.2309997492E+00               0
GRID*                673               06.2783387592E-01-2.564080278E-01+
*       2.3151046773E-01               0
GRID*                674               0-5.636247508E-01-7.469961902E-02+
*       3.1973429542E-01               0
GRID*                675               0-5.128331402E-019.4228515726E-01+
*       -1.866294984E-01               0
GRID*                676               0-6.762478202E-019.2140017475E-01+
*       -4.879526403E-02               0
GRID*                677               0-8.577644930E-019.4930676564E-01+
*       -6.575559348E-02               0
GRID*                678               03.7848296308E-017.4094414482E-01+
*       -1.233561647E-01               0
GRID*                679               03.7325042012E-016.6457792419E-01+
*       -1.250226953E-01               0
GRID*                680               0-5.523159411E-019.2261422896E-01+
*       -4.921781266E-02               0
GRID*                681               0-4.701141491E-019.1949508963E-01+
*       -6.024981225E-02               0
GRID*                682               0-4.335421801E-019.6340491696E-01+
*       -4.244348749E-02               0
GRID*                683               02.6146146350E-027.0938675800E-01+
*       -1.242248543E-01               0
GRID*                684               0-5.621248784E-011.5435860254E-01+
*       3.4357245421E-01               0
GRID*                685               0-5.602306328E-013.8741807013E-01+
*       9.6876011220E-01               0
GRID*                686               0-5.633076911E-013.3702589931E-01+
*       1.0190938523E+00               0
GRID*                687               0-4.174084484E-01-9.439434142E-01+
*       -5.858676149E-02               0
GRID*                688               0-5.608621853E-012.5045148357E-01+
*       1.1020610053E+00               0
GRID*                689               0-5.634546500E-013.0190948575E-01+
*       1.0632430313E+00               0
GRID*                690               0-2.937226013E-01-9.319652150E-01+
*       -1.908206569E-01               0
GRID*                691               0-5.619009033E-013.2619974266E-01+
*       1.6151915692E+00               0
GRID*                692               0-5.630869616E-012.4446795807E-01+
*       1.6492431285E+00               0
GRID*                693               0-5.619804367E-013.9559406838E-01+
*       1.5864941845E+00               0
GRID*                694               0-1.115394473E+009.8447204872E-02+
*       -1.289664846E-01               0
GRID*                695               0-6.920700504E-01-6.696389287E-01+
*       1.4206630159E+00               0
GRID*                696               0-6.244609569E-01-2.516258970E-01+
*       1.4971452939E+00               0
GRID*                697               0-5.618392283E-01-4.828155987E-01+
*       1.5468157342E+00               0
GRID*                698               04.5975194991E-029.5257309870E-01+
*       -6.499936018E-02               0
GRID*                699               01.2317601119E-019.4695496228E-01+
*       -2.021484850E-01               0
GRID*                700               0-6.279178607E-01-3.140214631E-01+
*       1.5443564387E+00               0
GRID*                701               0-6.283496781E-01-2.314983285E-01+
*       1.5763781839E+00               0
GRID*                702               0-5.619829256E-016.4523206430E-01+
*       1.4242814284E+00               0
GRID*                703               07.4654027918E-01-1.247319143E-01+
*       -1.251070318E-01               0
GRID*                704               08.9593417261E-01-9.229003181E-01+
*       -1.489421703E-01               0
GRID*                705               0-6.884506211E-014.2841239081E-01+
*       7.9350855663E-01               0
GRID*                706               0-1.185418492E+001.5517443317E-01+
*       -6.215260250E-02               0
GRID*                707               09.3217799667E-01-9.366392071E-01+
*       -1.054042938E-01               0
GRID*                708               01.0069565950E+00-9.374928756E-01+
*       -1.067168486E-01               0
GRID*                709               09.8088755449E-01-9.064163340E-01+
*       -4.165865872E-02               0
GRID*                710               0-5.622661341E-014.2566048960E-01+
*       6.7029339100E-01               0
GRID*                711               06.8711788075E-014.3490370494E-01+
*       7.2310195815E-01               0
GRID*                712               05.6410095231E-014.3336262775E-01+
*       7.2643490404E-01               0
GRID*                713               0-1.184829479E+00-7.343176655E-01+
*       -1.049844376E-01               0
GRID*                714               01.1816381059E+00-6.633866086E-01+
*       -1.480678470E-01               0
GRID*                715               01.1845973111E+00-7.361015457E-01+
*       -1.482143086E-01               0
GRID*                716               01.1526396572E+00-7.073538161E-01+
*       -2.094682333E-01               0
GRID*                717               01.2149662500E+00-6.596779933E-01+
*       -1.881500884E-01               0
GRID*                718               05.6171040580E-01-9.200571482E-01+
*       8.9271339989E-01               0
GRID*                719               0-6.862830269E-01-8.808192151E-01+
*       1.0846717688E+00               0
GRID*                720               0-6.871586893E-015.5172360987E-01+
*       1.5183550089E+00               0
GRID*                721               05.6252709269E-01-3.004897424E-01+
*       1.0643162163E+00               0
GRID*                722               06.8665073518E-01-2.448002054E-01+
*       1.1042010824E+00               0
GRID*                723               06.8894479997E-01-3.481665869E-01+
*       1.0262818455E+00               0
GRID*                724               06.2695006073E-015.8009330060E-01+
*       4.7326589244E-01               0
GRID*                725               06.2380191181E-015.0591848722E-01+
*       5.0321889498E-01               0
GRID*                726               06.2652420073E-015.2152603836E-01+
*       2.9064327848E-01               0
GRID*                727               05.6162642474E-013.2679211817E-01+
*       4.5293185393E-01               0
GRID*                728               06.8121577468E-012.6265755933E-01+
*       3.9920213843E-01               0
GRID*                729               06.8654996715E-013.1189882062E-01+
*       4.4590117702E-01               0
GRID*                730               0-8.579568822E-01-6.826381740E-01+
*       -2.094045125E-01               0
GRID*                731               0-8.405812621E-01-7.382364177E-01+
*       -2.073258657E-01               0
GRID*                732               0-9.720112361E-015.9426448876E-01+
*       -2.068132172E-01               0
GRID*                733               06.2764090137E-01-5.110149304E-01+
*       2.0615122998E-01               0
GRID*                734               06.8857693362E-019.0131554250E-01+
*       1.0216305644E+00               0
GRID*                735               0-6.854896921E-019.1938961887E-01+
*       3.5932321997E-02               0
GRID*                736               0-2.397551358E-017.8883442188E-01+
*       -1.270091164E-01               0
GRID*                737               06.8707005921E-019.3554984398E-01+
*       6.5937288413E-01               0
GRID*                738               06.8654026272E-019.2785159003E-01+
*       8.2247645362E-01               0
GRID*                739               06.8705768040E-019.3704132838E-01+
*       5.1636396557E-01               0
GRID*                740               0-3.342583448E-018.8719798833E-01+
*       -1.234604602E-01               0
GRID*                741               09.2313683697E-01-8.883740946E-01+
*       -4.266727622E-02               0
GRID*                742               06.8778805247E-01-6.125440777E-01+
*       1.4728550562E+00               0
GRID*                743               0-5.560408576E-01-2.613668146E-01+
*       -1.232141893E-01               0
GRID*                744               06.1817774313E-01-4.162832611E-01+
*       1.2708826674E+00               0
GRID*                745               0-8.524177847E-017.5522149712E-01+
*       -2.087557948E-01               0
GRID*                746               01.0321030523E+00-5.832312093E-01+
*       -2.074166961E-01               0
GRID*                747               06.2753622555E-014.4801530491E-01+
*       1.0519572587E+00               0
GRID*                748               05.6399392761E-013.1056458804E-01+
*       1.0684346533E+00               0
GRID*                749               0-6.894237697E-016.2576585207E-02+
*       1.6688327123E+00               0
GRID*                750               0-6.880398404E-01-1.083328814E-02+
*       1.6733008505E+00               0
GRID*                751               06.2481286472E-01-3.146399255E-01+
*       1.5454623735E+00               0
GRID*                752               05.6525299264E-01-3.958641797E-01+
*       1.5906364099E+00               0
GRID*                753               0-6.973818240E-013.9246681017E-01+
*       5.1779348096E-01               0
GRID*                754               0-6.873041357E-01-9.274224518E-01+
*       8.2393254892E-01               0
GRID*                755               06.2640433801E-011.0705066345E-01+
*       1.2862071846E+00               0
GRID*                756               06.2260986873E-011.2629052466E-01+
*       1.2247876326E+00               0
GRID*                757               0-6.888383286E-013.4555515758E-01+
*       1.0262428587E+00               0
GRID*                758               0-6.879791037E-013.7832269051E-01+
*       9.6161834135E-01               0
GRID*                759               0-6.885679341E-011.2670550477E-01+
*       3.3565367706E-01               0
GRID*                760               0-6.818028106E-011.8949955232E-01+
*       3.4701001099E-01               0
GRID*                761               0-1.179346287E+004.4345703286E-01+
*       -1.883384335E-01               0
GRID*                762               0-1.174941511E+003.6493965591E-01+
*       -1.880580273E-01               0
GRID*                763               0-1.192650373E+001.5609596645E-02+
*       -1.889886465E-01               0
GRID*                764               05.6247197054E-01-6.451482941E-01+
*       1.4241892585E+00               0
GRID*                765               05.6275004242E-01-4.350456305E-01+
*       7.2369269286E-01               0
GRID*                766               0-5.604993314E-019.1847805201E-01+
*       3.9187849491E-02               0
GRID*                767               06.8555751390E-01-4.323675507E-01+
*       7.2499536914E-01               0
GRID*                768               0-5.454160836E-01-7.379895486E-01+
*       1.3596821416E+00               0
GRID*                769               06.8782442160E-019.2138330406E-01+
*       8.9365378768E-01               0
GRID*                770               0-1.217080305E+007.9141172816E-01+
*       -1.878699628E-01               0
GRID*                771               08.8778499460E-01-8.436037068E-01+
*       -2.093380301E-01               0
GRID*                772               09.0294615601E-01-8.788913345E-01+
*       -2.081733355E-01               0
GRID*                773               0-6.255319377E-015.0921845557E-01+
*       2.1048418827E-01               0
GRID*                774               09.6131197199E-019.5757457009E-01+
*       -1.883560465E-01               0
GRID*                775               01.1495341058E+009.4941726117E-01+
*       -1.890536281E-01               0
GRID*                776               01.0040830579E+009.3696469228E-01+
*       -1.463746448E-01               0
GRID*                777               0-5.673357368E-012.6148366396E-01+
*       4.0124528665E-01               0
GRID*                778               01.1964436115E+009.0364911817E-01+
*       -1.888739156E-01               0
GRID*                779               01.1984663760E+00-6.054380438E-01+
*       -1.863828995E-01               0
GRID*                780               01.1976006347E+00-5.300094881E-01+
*       -1.885145402E-01               0
GRID*                781               0-6.233105984E-013.1421049121E-01+
*       3.2154022377E-01               0
GRID*                782               0-6.264806685E-014.3935424617E-01+
*       2.2702062205E-01               0
GRID*                783               0-6.225312750E-013.8335647333E-01+
*       2.9195648380E-01               0
GRID*                784               06.8848142086E-011.5407514768E-01+
*       3.4404729421E-01               0
GRID*                785               0-6.901988912E-012.4698476917E-01+
*       1.1043255607E+00               0
GRID*                786               0-6.860327215E-013.1091021185E-01+
*       1.0709492918E+00               0
GRID*                787               0-1.075121528E+006.0146408488E-01+
*       -2.057233562E-01               0
GRID*                788               0-1.161506738E+005.0996372986E-01+
*       -1.865466322E-01               0
GRID*                789               0-1.158413183E+005.8253391631E-01+
*       -1.893748603E-01               0
GRID*                790               0-1.184317619E+003.1403667411E-01+
*       -6.369962620E-02               0
GRID*                791               0-1.063768796E+00-6.047516210E-01+
*       -2.084915709E-01               0
GRID*                792               0-1.135992891E+00-8.395948015E-01+
*       -4.316507685E-02               0
GRID*                793               0-1.107860026E+00-5.682235001E-01+
*       -2.059457103E-01               0
GRID*                794               0-1.137262252E+00-6.681831203E-01+
*       -2.087051624E-01               0
GRID*                795               0-1.112605592E+00-6.368903431E-01+
*       -2.069754635E-01               0
GRID*                796               07.3488028724E-019.3899734438E-01+
*       -1.992375533E-01               0
GRID*                797               0-1.159890383E+00-6.288546803E-01+
*       -1.486861604E-01               0
GRID*                798               01.1878723857E+001.5324092468E-01+
*       -6.259050406E-02               0
GRID*                799               01.1922822103E+003.0263057482E-01+
*       -1.873435400E-01               0
GRID*                800               06.2468932358E-018.5991709127E-01+
*       2.2324064622E-01               0
GRID*                801               0-6.874201468E-01-1.029280116E-01+
*       3.2840665754E-01               0
GRID*                802               0-6.817487837E-01-2.141223433E-01+
*       3.7001295214E-01               0
GRID*                803               08.6248164889E-018.3984146630E-01+
*       -4.073787427E-02               0
GRID*                804               08.5162674962E-017.1923048892E-01+
*       -4.341775994E-02               0
GRID*                805               08.6532516234E-016.6971373783E-01+
*       -4.234036830E-02               0
GRID*                806               0-6.238668321E-01-2.477849252E-01+
*       3.1484539442E-01               0
GRID*                807               0-6.871318482E-01-4.143266640E-01+
*       9.1721063357E-01               0
GRID*                808               0-6.873360920E-01-4.235254389E-01+
*       8.4169854680E-01               0
GRID*                809               09.3312313037E-016.1756868184E-01+
*       -4.302453519E-02               0
GRID*                810               0-1.617945564E-011.1655088395E-01+
*       -1.280736766E-01               0
GRID*                811               0-2.233755734E-018.0770288878E-02+
*       -1.252778039E-01               0
GRID*                812               06.8994273866E-01-1.999434865E-01+
*       1.1335866890E+00               0
GRID*                813               06.8785808735E-01-1.444570610E-01+
*       1.1538154729E+00               0
GRID*                814               0-6.890307019E-019.4394390710E-01+
*       8.6815772035E-02               0
GRID*                815               0-5.621997749E-019.3644642600E-01+
*       1.4033276004E-01               0
GRID*                816               0-5.604502274E-019.3114497908E-01+
*       2.1935253396E-01               0
GRID*                817               0-1.217273226E+007.3161905306E-01+
*       -1.873523373E-01               0
GRID*                818               0-1.216829515E+006.5909000758E-01+
*       -1.897009591E-01               0
GRID*                819               0-5.611296347E-01-8.878075444E-01+
*       1.0174088598E+00               0
GRID*                820               0-5.609783723E-01-9.108049726E-01+
*       9.5460390016E-01               0
GRID*                821               06.8827998023E-01-6.332661278E-02+
*       1.6708156351E+00               0
GRID*                822               06.8642639454E-011.3049160679E-02+
*       1.6757428287E+00               0
GRID*                823               0-4.761267692E-01-3.429858852E-01+
*       -1.276933246E-01               0
GRID*                824               0-5.553829893E-01-3.358000365E-01+
*       -1.251568297E-01               0
GRID*                825               0-5.618150432E-01-9.229793563E-02+
*       1.1694054013E+00               0
GRID*                826               0-9.395066945E-018.9125444266E-01+
*       -2.082257378E-01               0
GRID*                827               0-5.631370786E-01-3.512796678E-01+
*       1.6046963580E+00               0
GRID*                828               0-6.897582223E-01-9.097253701E-01+
*       9.6218019480E-01               0
GRID*                829               0-6.872201519E-01-9.009410023E-01+
*       1.0183133604E+00               0
GRID*                830               0-6.876799118E-01-7.976922348E-01+
*       1.2606352859E+00               0
GRID*                831               0-8.658621739E-016.5496683225E-01+
*       -4.193130588E-02               0
GRID*                832               0-8.481749818E-017.0810264337E-01+
*       -4.050959826E-02               0
GRID*                833               0-4.867082829E-01-5.596737336E-01+
*       -1.264591275E-01               0
GRID*                834               0-1.149478563E+007.2261598753E-01+
*       -4.477546311E-02               0
GRID*                835               0-1.184211472E+007.3468033966E-01+
*       -1.048530060E-01               0
GRID*                836               0-1.136751913E+006.6989424951E-01+
*       -2.065426358E-01               0
GRID*                837               0-1.153039036E+007.0686583986E-01+
*       -2.069752305E-01               0
GRID*                838               01.0670870313E+00-6.174252771E-01+
*       -4.242438719E-02               0
GRID*                839               01.1144948540E+00-6.382912219E-01+
*       -4.521570380E-02               0
GRID*                840               08.9895741369E-016.0731280261E-01+
*       -2.073272902E-01               0
GRID*                841               08.7503809338E-016.4757817634E-01+
*       -2.070184138E-01               0
GRID*                842               0-5.633184834E-014.3661015234E-01+
*       7.2403148424E-01               0
GRID*                843               06.8321999005E-013.9564890645E-01+
*       5.4282809910E-01               0
GRID*                844               06.8954357460E-013.4710792988E-01+
*       4.8593080345E-01               0
GRID*                845               0-5.639244028E-01-4.280481179E-01+
*       7.9401666396E-01               0
GRID*                846               0-6.879760562E-01-4.324981950E-01+
*       7.8970827884E-01               0
GRID*                847               06.8647125986E-01-9.456675501E-01+
*       1.6164673053E-01               0
GRID*                848               06.8870136616E-01-7.414997549E-01+
*       1.3301652619E+00               0
GRID*                849               08.4944558622E-016.7980549563E-01+
*       -2.070668934E-01               0
GRID*                850               05.6396173443E-01-4.171664831E-01+
*       5.9527731530E-01               0
GRID*                851               05.6031570680E-01-4.280414144E-01+
*       6.6789482287E-01               0
GRID*                852               06.8938130484E-01-4.254448937E-01+
*       6.7086785976E-01               0
GRID*                853               06.8428359267E-01-4.109754211E-01+
*       6.0497389260E-01               0
GRID*                854               0-8.551598760E-019.6220425182E-01+
*       -2.078349066E-01               0
GRID*                855               0-1.951262701E-011.8451750121E-01+
*       -1.231039486E-01               0
GRID*                856               0-5.606003872E-01-1.279734416E-01+
*       3.3535500086E-01               0
GRID*                857               05.5063857509E-01-9.241795470E-01+
*       -5.111278648E-02               0
GRID*                858               0-1.149090827E+00-7.212232740E-01+
*       -2.091020571E-01               0
GRID*                859               0-1.183903108E+00-7.004822014E-01+
*       -2.056211453E-01               0
GRID*                860               05.6663843320E-011.8852399441E-01+
*       3.4734308101E-01               0
GRID*                861               06.8551362225E-012.1261069065E-01+
*       3.7104354897E-01               0
GRID*                862               0-5.620613123E-019.3563450084E-01+
*       6.5802847558E-01               0
GRID*                863               01.1816380604E+00-5.480696888E-01+
*       -6.088672001E-02               0
GRID*                864               01.1980558375E+00-4.628000493E-01+
*       -1.877208516E-01               0
GRID*                865               08.8766846198E-018.7561929542E-01+
*       -4.350978442E-02               0
GRID*                866               08.9695651821E-019.2313244135E-01+
*       -1.043363324E-01               0
GRID*                867               08.3581264919E-017.7601562060E-01+
*       -2.067297207E-01               0
GRID*                868               0-5.649143163E-014.0155420585E-02+
*       3.1738207670E-01               0
GRID*                869               0-6.291986504E-012.9495242324E-01+
*       1.6266936860E-01               0
GRID*                870               05.6019052162E-014.2083088315E-01+
*       8.4702060399E-01               0
GRID*                871               0-5.620961309E-014.3208572767E-01+
*       7.8899752804E-01               0
GRID*                872               0-6.876746355E-01-4.097857804E-02+
*       3.1771150267E-01               0
GRID*                873               06.2559429770E-01-5.692985009E-01+
*       2.4484282027E-01               0
GRID*                874               05.6311504452E-01-9.019162244E-01+
*       1.0226183128E+00               0
GRID*                875               05.6154966894E-01-8.811955785E-01+
*       1.0868856557E+00               0
GRID*                876               06.8829757026E-01-9.219571756E-01+
*       8.8567272887E-01               0
GRID*                877               06.8596707479E-01-9.320067305E-01+
*       8.1817543184E-01               0
GRID*                878               05.6132518512E-012.9247394941E-02+
*       1.1787309095E+00               0
GRID*                879               05.6429855607E-01-3.941754706E-01+
*       5.4342909414E-01               0
GRID*                880               06.8881231067E-01-4.297007698E-01+
*       7.9287503969E-01               0
GRID*                881               05.5981507941E-01-3.487732587E-01+
*       4.8592283414E-01               0
GRID*                882               0-8.134843646E-018.1401690865E-01+
*       -4.266408395E-02               0
GRID*                883               0-5.560663541E-01-2.930013329E-01+
*       1.1088586156E+00               0
GRID*                884               0-6.876534551E-01-2.046465334E-01+
*       1.1303681753E+00               0
GRID*                885               0-5.872311723E-01-2.231836983E-01+
*       1.1055361348E+00               0
GRID*                886               0-9.702165600E-019.2521624874E-01+
*       -1.021304225E-01               0
GRID*                887               0-6.875109757E-01-1.453374224E-01+
*       1.1641252799E+00               0
GRID*                888               0-9.775313289E-019.3661574697E-01+
*       -2.073952763E-01               0
GRID*                889               0-9.320777266E-019.3652935344E-01+
*       -1.510395209E-01               0
GRID*                890               06.8801554691E-013.8650702824E-01+
*       9.6877251913E-01               0
GRID*                891               01.1832244875E+00-7.769232267E-01+
*       -1.455417882E-01               0
GRID*                892               01.2185191485E+00-7.328122745E-01+
*       -1.883109169E-01               0
GRID*                893               06.8815559237E-014.1308466702E-01+
*       9.1727524780E-01               0
GRID*                894               01.1509569012E+00-7.642611753E-01+
*       -2.073981366E-01               0
GRID*                895               01.1924078316E+004.6007131784E-01+
*       -6.222012972E-02               0
GRID*                896               0-4.513004289E-02-9.514547935E-01+
*       -6.449528169E-02               0
GRID*                897               0-2.219655716E-01-9.336312507E-01+
*       -1.859581094E-01               0
GRID*                898               0-1.215542483E+005.9258669421E-01+
*       -2.061583477E-01               0
GRID*                899               0-8.383696656E-01-7.778599091E-01+
*       -2.069612588E-01               0
GRID*                900               08.9219258835E-01-6.210448162E-01+
*       -4.233270154E-02               0
GRID*                901               01.0691570247E+00-5.937669900E-01+
*       -2.085535583E-01               0
GRID*                902               01.1125339971E+00-6.250522676E-01+
*       -2.066593959E-01               0
GRID*                903               0-1.183660945E+00-1.981184787E-04+
*       -6.238455191E-02               0
GRID*                904               01.1429482563E+006.8134104410E-01+
*       -2.096383598E-01               0
GRID*                905               01.1870227700E+007.0152943986E-01+
*       -2.051561960E-01               0
GRID*                906               09.8572002589E-01-9.691142936E-01+
*       -6.232836241E-02               0
GRID*                907               06.8766711514E-01-9.452880406E-01+
*       8.7953940008E-02               0
GRID*                908               0-5.639990822E-012.1304073014E-01+
*       3.7112568827E-01               0
GRID*                909               0-5.621224360E-01-6.299435479E-02+
*       1.6692927639E+00               0
GRID*                910               0-1.074454308E+00-8.865706604E-01+
*       -4.053601984E-02               0
GRID*                911               01.2177699643E+00-7.922770138E-01+
*       -1.859949317E-01               0
GRID*                912               01.2164485408E+00-8.612141390E-01+
*       -1.877884228E-01               0
GRID*                913               0-5.608023067E-01-9.407410841E-01+
*       3.7988162278E-01               0
GRID*                914               06.8829166962E-019.3669289456E-01+
*       2.9663592311E-01               0
GRID*                915               05.6205175349E-019.4141803451E-01+
*       5.2101325944E-01               0
GRID*                916               0-1.149147727E+00-7.634656662E-01+
*       -2.099358840E-01               0
GRID*                917               0-1.184279514E+00-8.186629656E-01+
*       -2.065911618E-01               0
GRID*                918               0-5.622498082E-019.4161591726E-01+
*       3.6733021273E-01               0
GRID*                919               0-5.624473133E-019.3494739643E-01+
*       2.9630506941E-01               0
GRID*                920               0-1.029196731E+006.0363710126E-01+
*       -4.242538531E-02               0
GRID*                921               01.4230592884E-01-9.393729443E-01+
*       -5.960461685E-02               0
GRID*                922               01.9816938609E-01-9.139971422E-01+
*       -6.439773176E-02               0
GRID*                923               0-1.490613043E-01-9.348868525E-01+
*       -1.850043119E-01               0
GRID*                924               01.4222226319E-03-9.329429263E-01+
*       -1.885296238E-01               0
GRID*                925               0-6.908175748E-019.0963187483E-01+
*       9.5484591659E-01               0
GRID*                926               0-6.858628103E-018.8756215934E-01+
*       1.0200637547E+00               0
GRID*                927               04.6917236809E-019.2070434349E-01+
*       -6.132329566E-02               0
GRID*                928               0-5.616582945E-01-9.244363272E-01+
*       2.3377046030E-01               0
GRID*                929               0-5.611794341E-01-9.198431387E-01+
*       3.6422260765E-02               0
GRID*                930               0-5.620936265E-017.9616161516E-01+
*       1.1902225376E+00               0
GRID*                931               0-1.157016988E+00-3.533336368E-02+
*       -1.856867035E-01               0
GRID*                932               0-6.888071520E-018.6897090977E-01+
*       1.0870687718E+00               0
GRID*                933               0-1.065026417E+008.8700254016E-01+
*       -2.062113289E-01               0
GRID*                934               0-6.875478949E-017.3274435230E-02+
*       3.1776657067E-01               0
GRID*                935               0-6.859668305E-011.3222975894E-02+
*       3.1868900503E-01               0
GRID*                936               0-1.201896015E+009.5440203815E-01+
*       -1.253457086E-01               0
GRID*                937               0-8.646575790E-01-6.721989236E-01+
*       -4.154076149E-02               0
GRID*                938               0-8.536895219E-01-7.203928959E-01+
*       -4.163070855E-02               0
GRID*                939               0-1.183367950E+003.8921899592E-01+
*       -6.013757637E-02               0
GRID*                940               0-4.463093543E-01-9.295338362E-01+
*       -1.866950830E-01               0
GRID*                941               0-8.932161732E-01-9.290353607E-01+
*       -1.041320549E-01               0
GRID*                942               0-8.333240555E-01-9.217374046E-01+
*       -1.172128826E-01               0
GRID*                943               01.1815355771E+006.6396820768E-01+
*       -1.039216416E-01               0
GRID*                944               0-5.609235801E-01-1.374972069E-02+
*       3.1865801166E-01               0
GRID*                945               02.7233380192E-019.3115660267E-01+
*       -6.356824257E-02               0
GRID*                946               01.9838351830E-019.2891702213E-01+
*       -6.286137563E-02               0
GRID*                947               0-5.631650354E-01-3.858408941E-01+
*       5.5161217918E-01               0
GRID*                948               0-5.620705900E-01-3.265449565E-01+
*       4.5166052881E-01               0
GRID*                949               05.6119994482E-01-1.023406684E-01+
*       3.2762555772E-01               0
GRID*                950               05.6233559827E-01-4.130562233E-02+
*       3.1829124242E-01               0
GRID*                951               05.6411933637E-014.2805481846E-01+
*       7.9358340739E-01               0
GRID*                952               06.8624628869E-015.8725943354E-01+
*       1.4686534313E+00               0
GRID*                953               06.8900275207E-016.4605422981E-01+
*       1.4261678822E+00               0
GRID*                954               04.6756585121E-01-9.198652340E-01+
*       -5.988181563E-02               0
GRID*                955               0-5.609973868E-01-3.099238516E-02+
*       1.1784944917E+00               0
GRID*                956               0-6.874723208E-01-2.637869305E-01+
*       4.0105177550E-01               0
GRID*                957               0-6.878820461E-01-3.125829170E-01+
*       4.4452940403E-01               0
GRID*                958               0-8.139544814E-017.0079107740E-01+
*       -4.619081722E-02               0
GRID*                959               01.0634927050E+00-8.886848758E-01+
*       -1.673709430E-01               0
GRID*                960               0-8.653377509E-016.6485478165E-01+
*       -2.091372326E-01               0
GRID*                961               0-8.326146776E-017.0433959967E-01+
*       -2.075169830E-01               0
GRID*                962               0-1.196488639E+00-5.465236673E-01+
*       -1.878926851E-01               0
GRID*                963               0-1.214173596E+00-4.502267380E-01+
*       -1.977818679E-01               0
GRID*                964               0-5.615648235E-01-9.415152381E-01+
*       3.0911696291E-01               0
GRID*                965               05.9777860668E-019.3603955171E-01+
*       -1.745889387E-01               0
GRID*                966               0-8.524911645E-01-7.603259198E-01+
*       -4.502312038E-02               0
GRID*                967               0-7.444311745E-01-9.229673382E-01+
*       -7.359596287E-02               0
GRID*                968               0-6.871887142E-01-9.373331090E-01+
*       5.1665693912E-01               0
GRID*                969               0-8.151969430E-017.4203295715E-01+
*       -4.303584419E-02               0
GRID*                970               0-5.624914736E-01-9.400467185E-01+
*       6.6014425600E-01               0
GRID*                971               0-6.879216329E-01-9.365098936E-01+
*       6.6019156945E-01               0
GRID*                972               06.2329361325E-015.0923848978E-01+
*       2.0780197709E-01               0
GRID*                973               0-1.186701044E+002.9514814349E-01+
*       -1.886484158E-01               0
GRID*                974               0-9.410207372E-01-8.958756137E-01+
*       -4.223379571E-02               0
GRID*                975               0-8.536197520E-01-9.503991705E-01+
*       -6.426260015E-02               0
GRID*                976               01.1837764728E+00-6.648814618E-01+
*       -1.025081648E-01               0
GRID*                977               01.1871778365E+00-7.341894698E-01+
*       -1.023119031E-01               0
GRID*                978               01.1836395866E+00-7.009576013E-01+
*       -4.148904776E-02               0
GRID*                979               01.1981336543E+00-6.228842057E-01+
*       -6.141394014E-02               0
GRID*                980               01.1490193684E+007.2346894481E-01+
*       -2.068960385E-01               0
GRID*                981               01.1301666429E+00-8.449901075E-01+
*       -2.089684437E-01               0
GRID*                982               01.1525850844E+00-8.035179586E-01+
*       -2.068625139E-01               0
GRID*                983               0-1.187577765E+00-7.736441680E-02+
*       -6.326678367E-02               0
GRID*                984               06.2406755453E-012.4673677216E-01+
*       3.1180429568E-01               0
GRID*                985               06.8753878246E-011.0344446364E-01+
*       3.2810013392E-01               0
GRID*                986               0-1.113401657E+00-8.736069316E-01+
*       -4.410580252E-02               0
GRID*                987               0-8.861664708E-01-8.711972676E-01+
*       -2.073970949E-01               0
GRID*                988               0-8.320752439E-01-9.217958946E-01+
*       -1.552999704E-01               0
GRID*                989               0-1.112936641E+006.3540586843E-01+
*       -4.468876792E-02               0
GRID*                990               0-1.158082175E+006.3162532290E-01+
*       -1.046592573E-01               0
GRID*                991               0-1.064876163E+006.1651854276E-01+
*       -4.307868035E-02               0
GRID*                992               0-6.877091668E-016.1253445866E-01+
*       1.4728378396E+00               0
GRID*                993               06.8793021318E-01-2.337415601E-01+
*       3.7720225288E-01               0
GRID*                994               06.8726344006E-01-3.043924905E-01+
*       3.8701221180E-01               0
GRID*                995               0-6.865248020E-01-9.369870428E-02+
*       1.1797082481E+00               0
GRID*                996               0-5.190440774E-01-9.361081017E-01+
*       -1.834587987E-01               0
GRID*                997               0-6.894729684E-017.8408628565E-01+
*       1.2735680878E+00               0
GRID*                998               0-6.881878784E-018.0852650031E-01+
*       1.2163766676E+00               0
GRID*                999               01.1994310956E-019.5150917689E-01+
*       -6.204602072E-02               0
GRID*               1000               0-5.648452432E-01-1.866545030E-01+
*       3.4799677134E-01               0
GRID*               1001               0-6.249403111E-01-3.152933101E-01+
*       3.2487529203E-01               0
GRID*               1002               0-5.638215923E-01-3.025599313E-01+
*       3.8420170398E-01               0
GRID*               1003               01.4798999238E-01-9.313391832E-01+
*       -1.873853267E-01               0
GRID*               1004               02.2055497817E-01-9.341667106E-01+
*       -1.870996095E-01               0
GRID*               1005               03.6633172720E-01-9.327685458E-01+
*       -1.872537276E-01               0
GRID*               1006               04.4026246299E-01-9.334934299E-01+
*       -1.847424565E-01               0
GRID*               1007               0-1.185928175E+00-6.647496916E-01+
*       -1.483801614E-01               0
GRID*               1008               0-1.186155364E+00-7.366461923E-01+
*       -1.491526784E-01               0
GRID*               1009               0-6.876004512E-01-3.380594822E-01+
*       1.0195331161E+00               0
GRID*               1010               01.1591824553E+00-6.307102703E-01+
*       -1.455256128E-01               0
GRID*               1011               0-6.846064806E-01-3.015575777E-01+
*       1.0622522567E+00               0
GRID*               1012               0-1.158662860E+006.3083273047E-01+
*       -1.471467754E-01               0
GRID*               1013               0-1.007853208E+00-9.353269584E-01+
*       -1.480575469E-01               0
GRID*               1014               0-1.184089046E+00-8.471985434E-01+
*       -1.485684107E-01               0
GRID*               1015               09.8069307334E-019.0931296680E-01+
*       -4.325605731E-02               0
GRID*               1016               0-1.196550314E+00-6.048642545E-01+
*       -6.220518364E-02               0
GRID*               1017               0-6.872430137E-018.9891679196E-02+
*       1.1678154739E+00               0
GRID*               1018               01.0478352547E+009.4049214683E-01+
*       -4.285466805E-02               0
GRID*               1019               05.6277902293E-013.5165138711E-01+
*       1.6060050651E+00               0
GRID*               1020               05.6688569634E-012.8030578866E-01+
*       1.6316838346E+00               0
GRID*               1021               0-1.182813280E+006.6556157675E-01+
*       -1.451704331E-01               0
GRID*               1022               09.3325003628E-019.3555793197E-01+
*       -1.500565757E-01               0
GRID*               1023               01.2182553526E+007.3233494364E-01+
*       -6.190898165E-02               0
GRID*               1024               01.2170996695E+006.6004124433E-01+
*       -6.084183043E-02               0
GRID*               1025               01.2057236279E+006.3535499949E-01+
*       -1.888455632E-01               0
GRID*               1026               05.6237743862E-01-3.273492424E-01+
*       1.6188964052E+00               0
GRID*               1027               06.2434564968E-015.1732907280E-01+
*       1.4565150454E+00               0
GRID*               1028               05.6117124232E-014.1904795689E-01+
*       1.5839885450E+00               0
GRID*               1029               05.6356140881E-014.8161172492E-01+
*       1.5488473742E+00               0
GRID*               1030               0-1.024973350E+00-5.930037854E-01+
*       -2.057603659E-01               0
GRID*               1031               0-5.620115436E-01-2.352113027E-01+
*       3.7619446786E-01               0
GRID*               1032               06.8624773282E-012.0342384605E-01+
*       1.1304681687E+00               0
GRID*               1033               05.5193729280E-01-1.928748708E-01+
*       1.1168525408E+00               0
GRID*               1034               0-7.037659584E-01-6.341143104E-01+
*       1.4560637088E+00               0
GRID*               1035               0-5.622500302E-01-2.108052964E-01+
*       1.6513143836E+00               0
GRID*               1036               0-6.872147170E-01-9.412868200E-01+
*       3.6736438219E-01               0
GRID*               1037               0-6.249125767E-012.5552705977E-01+
*       2.3249316024E-01               0
GRID*               1038               0-5.604815621E-014.2401095225E-01+
*       8.4262969582E-01               0
GRID*               1039               06.2701664686E-013.1183266313E-01+
*       1.5437799156E+00               0
GRID*               1040               06.2389192086E-012.5051424867E-01+
*       1.4977847737E+00               0
GRID*               1041               05.6218562269E-019.3918501787E-01+
*       6.5888830711E-01               0
GRID*               1042               0-6.887574420E-01-2.582650691E-02+
*       1.1803269725E+00               0
GRID*               1043               0-5.634524655E-017.9843584441E-01+
*       1.2619455037E+00               0
GRID*               1044               06.8469649547E-013.0187124372E-01+
*       1.0627658497E+00               0
GRID*               1045               0-1.193057698E+009.0416584237E-01+
*       -1.876298758E-01               0
GRID*               1046               0-6.873950689E-01-9.351092947E-01+
*       2.9582952438E-01               0
GRID*               1047               05.9351739351E-01-9.386111667E-01+
*       -1.737295730E-01               0
GRID*               1048               0-5.622401287E-01-9.416685672E-01+
*       5.2108809958E-01               0
GRID*               1049               0-5.626635496E-013.5205279393E-01+
*       4.8760166587E-01               0
GRID*               1050               0-5.641171304E-013.9534757703E-01+
*       5.4278944668E-01               0
GRID*               1051               0-5.608339593E-01-3.600247508E-01+
*       4.9385431049E-01               0
GRID*               1052               0-5.610794686E-01-4.205046760E-01+
*       8.4651492556E-01               0
GRID*               1053               0-2.734758414E-018.5136971276E-01+
*       -1.241341438E-01               0
GRID*               1054               01.1596249344E+006.3012886474E-01+
*       -1.051188870E-01               0
GRID*               1055               08.5578808250E-01-9.469682341E-01+
*       -6.349852683E-02               0
GRID*               1056               09.1276825731E-01-9.677026715E-01+
*       -6.472671859E-02               0
GRID*               1057               08.3572467077E-017.3571218917E-01+
*       -2.087958922E-01               0
GRID*               1058               0-6.877370520E-014.8270264059E-01+
*       1.5466394400E+00               0
GRID*               1059               06.2677215735E-01-3.240424692E-01+
*       2.3589606063E-01               0
GRID*               1060               05.6358807195E-017.4715535270E-02+
*       3.2009306059E-01               0
GRID*               1061               05.6419191108E-011.2114063878E-02+
*       3.1886725464E-01               0
GRID*               1062               0-1.195042693E+00-4.601459421E-01+
*       -6.270812138E-02               0
GRID*               1063               0-1.192016007E+00-3.865194304E-01+
*       -6.100213866E-02               0
GRID*               1064               0-1.185438254E+00-3.118690942E-01+
*       -6.151879979E-02               0
GRID*               1065               0-1.160627727E+008.7918688781E-01+
*       -1.449242793E-01               0
GRID*               1066               0-1.211693977E+007.4860448191E-01+
*       -6.055712698E-02               0
GRID*               1067               0-1.147495430E+007.6027499748E-01+
*       -4.139101837E-02               0
GRID*               1068               0-1.221438176E+00-7.781662998E-01+
*       -2.054059445E-01               0
GRID*               1069               0-1.154214820E+00-9.471079940E-01+
*       -6.122113189E-02               0
GRID*               1070               0-1.027582098E+008.9781029388E-01+
*       -2.082479873E-01               0
GRID*               1071               09.1772134607E-018.8303343422E-01+
*       -2.072512819E-01               0
GRID*               1072               08.8659976231E-019.5749555226E-01+
*       -1.905081129E-01               0
GRID*               1073               09.5529495508E-018.9557689961E-01+
*       -2.074468989E-01               0
GRID*               1074               0-9.253065863E-01-6.030416816E-01+
*       -2.068047544E-01               0
GRID*               1075               01.2188920274E+00-7.322077501E-01+
*       -4.366534423E-02               0
GRID*               1076               0-1.201101252E+00-6.181804449E-01+
*       -1.905769624E-01               0
GRID*               1077               07.0307022831E-01-8.746024823E-01+
*       1.1131363047E+00               0
GRID*               1078               06.8970917599E-01-9.114820999E-01+
*       9.5376902540E-01               0
GRID*               1079               0-1.205508424E+00-3.952807165E-01+
*       -1.937783549E-01               0
GRID*               1080               0-1.157303278E+00-1.078286455E-01+
*       -1.875767098E-01               0
GRID*               1081               0-1.130386969E+008.4339935650E-01+
*       -2.078718026E-01               0
GRID*               1082               0-1.198764611E+008.9984602356E-01+
*       -6.247227732E-02               0
GRID*               1083               0-1.154235714E+009.4724224830E-01+
*       -6.272476804E-02               0
GRID*               1084               01.1947975477E+00-3.114820210E-01+
*       -1.871632994E-01               0
GRID*               1085               01.0302729527E+00-6.051691038E-01+
*       -4.168252051E-02               0
GRID*               1086               06.8744733605E-014.3074670389E-01+
*       7.9058455984E-01               0
GRID*               1087               0-7.937728110E-01-9.452849737E-01+
*       -7.232290433E-02               0
GRID*               1088               0-7.948281746E-01-9.395640194E-01+
*       -2.000876096E-01               0
GRID*               1089               0-7.360432803E-01-9.422820291E-01+
*       -2.000190516E-01               0
GRID*               1090               0-5.600109873E-011.6995542301E-01+
*       1.6661420645E+00               0
GRID*               1091               06.2680332727E-013.1712833421E-01+
*       3.2236578649E-01               0
GRID*               1092               0-5.614612668E-018.6628281899E-02+
*       1.6696319171E+00               0
GRID*               1093               08.5612223720E-019.4712239001E-01+
*       -6.260362547E-02               0
GRID*               1094               0-3.235551375E-039.3432694888E-01+
*       -1.877071746E-01               0
GRID*               1095               08.9741306696E-019.2415922678E-01+
*       -1.482770353E-01               0
GRID*               1096               01.1881960953E+00-1.368760697E-04+
*       -6.225338984E-02               0
GRID*               1097               06.8692649271E-019.0791673325E-01+
*       9.6137010280E-01               0
GRID*               1098               05.6020131686E-019.4254328225E-01+
*       3.1045298372E-01               0
GRID*               1099               05.6443718274E-013.8476963110E-01+
*       5.5463077113E-01               0
GRID*               1100               05.1805044676E-019.3541657756E-01+
*       -1.852274064E-01               0
GRID*               1101               01.0433954470E+009.2431981801E-01+
*       -1.451148286E-01               0
GRID*               1102               0-2.932404933E-019.4253148242E-01+
*       -1.865986353E-01               0
GRID*               1103               01.1987676712E+009.0116060821E-01+
*       -6.256939567E-02               0
GRID*               1104               0-3.681179786E-019.3879135366E-01+
*       -1.832441591E-01               0
GRID*               1105               01.1822160559E+007.7600001106E-01+
*       -1.050299209E-01               0
GRID*               1106               06.8762382162E-013.2734397174E-01+
*       1.6189097943E+00               0
GRID*               1107               05.6128278264E-012.0778015806E-01+
*       1.6489532681E+00               0
GRID*               1108               06.9003993483E-012.4930579034E-01+
*       1.1019316899E+00               0
GRID*               1109               06.8883375230E-013.3696705737E-01+
*       1.0199577995E+00               0
GRID*               1110               05.6255072895E-018.0833957444E-01+
*       1.2167264073E+00               0
GRID*               1111               09.4206650579E-018.9441782253E-01+
*       -4.212328104E-02               0
GRID*               1112               05.6518596139E-014.0252011182E-01+
*       9.1136908535E-01               0
GRID*               1113               0-1.035837261E+009.6139635090E-01+
*       -1.889024939E-01               0
GRID*               1114               08.6278061753E-018.2656525692E-01+
*       -2.076581592E-01               0
GRID*               1115               08.8407670423E-018.5681346645E-01+
*       -2.074846728E-01               0
GRID*               1116               01.1499167798E+007.6456603375E-01+
*       -2.098106729E-01               0
GRID*               1117               01.1842823678E+008.1873069293E-01+
*       -2.065991779E-01               0
GRID*               1118               01.1301166513E+008.4343272357E-01+
*       -2.067500992E-01               0
GRID*               1119               01.2202185175E+007.3527945763E-01+
*       -2.076646652E-01               0
GRID*               1120               01.2227535408E+007.7998508851E-01+
*       -2.013511258E-01               0
GRID*               1121               0-5.622936609E-01-4.250314365E-01+
*       6.7172828364E-01               0
GRID*               1122               05.6101162681E-013.7803128274E-01+
*       9.6037644599E-01               0
GRID*               1123               0-5.389678241E-01-2.991424234E-01+
*       1.0442661175E+00               0
GRID*               1124               0-5.793284430E-01-3.170823828E-01+
*       1.0281735628E+00               0
GRID*               1125               0-5.625718122E-01-3.110306935E-01+
*       1.0683811352E+00               0
GRID*               1126               0-5.409134034E-01-2.412714573E-01+
*       1.0859552375E+00               0
GRID*               1127               0-5.635571870E-01-2.018177476E-01+
*       1.1330973062E+00               0
GRID*               1128               0-9.338016435E-016.0820898452E-01+
*       -2.073351203E-01               0
GRID*               1129               0-5.604718525E-011.0297512232E-01+
*       3.2766984036E-01               0
GRID*               1130               0-1.183303949E+00-7.754527951E-01+
*       -1.481000763E-01               0
GRID*               1131               0-9.902015864E-01-8.867271000E-01+
*       -2.072725044E-01               0
GRID*               1132               09.1270480160E-019.6799781450E-01+
*       -6.428628648E-02               0
GRID*               1133               01.0099615245E+009.3868794605E-01+
*       -1.049522645E-01               0
GRID*               1134               06.8854061936E-019.3917367354E-01+
*       3.6888352693E-01               0
GRID*               1135               01.1842959006E+008.4718183624E-01+
*       -1.478147077E-01               0
GRID*               1136               01.1839116916E+007.7565801026E-01+
*       -1.487350013E-01               0
GRID*               1137               06.8739243083E-015.2643301971E-01+
*       1.5144649044E+00               0
GRID*               1138               01.1833836644E+00-7.748064719E-01+
*       -1.019032037E-01               0
GRID*               1139               01.1477119802E+00-7.600256785E-01+
*       -4.296759131E-02               0
GRID*               1140               05.6029551714E-012.4702453291E-01+
*       1.1048695104E+00               0
GRID*               1141               01.1346549147E+00-6.565977109E-01+
*       -2.079464415E-01               0
GRID*               1142               06.8944834890E-011.6989637840E-01+
*       1.6665360916E+00               0
GRID*               1143               06.8884614611E-018.8116561365E-01+
*       1.0870817216E+00               0
GRID*               1144               01.0824638508E+00-8.758766231E-01+
*       -4.123081420E-02               0
GRID*               1145               06.8338029919E-01-2.814992891E-01+
*       1.6314527625E+00               0
GRID*               1146               06.8915926469E-01-2.079129539E-01+
*       1.6487968542E+00               0
GRID*               1147               05.6734525836E-014.1057649986E-01+
*       6.0497933179E-01               0
GRID*               1148               05.6112115778E-014.2402600624E-01+
*       6.7141900391E-01               0
GRID*               1149               01.1856628596E+00-8.461283184E-01+
*       -1.472670351E-01               0
GRID*               1150               06.8737571327E-014.1734681646E-01+
*       5.9576526112E-01               0
GRID*               1151               0-5.616578850E-017.5363529724E-01+
*       1.3222436894E+00               0
GRID*               1152               05.6075740328E-013.6205797034E-01+
*       4.9399722309E-01               0
GRID*               1153               01.0461991623E+00-8.879511441E-01+
*       -4.338386628E-02               0
GRID*               1154               05.6276526705E-013.0221933152E-01+
*       3.8473502814E-01               0
GRID*               1155               0-1.006232527E+009.3435517465E-01+
*       -1.034169188E-01               0
GRID*               1156               0-1.104464382E+009.6136859010E-01+
*       -1.866421998E-01               0
GRID*               1157               01.1051758439E+00-8.571055745E-01+
*       -4.205451404E-02               0
GRID*               1158               01.1164918930E+00-8.857168534E-01+
*       -4.436215211E-02               0
GRID*               1159               05.6220555732E-012.3508039234E-01+
*       3.7892332340E-01               0
GRID*               1160               08.1515404351E-018.1699295418E-01+
*       -4.608247364E-02               0
GRID*               1161               02.6907280579E-01-9.129375686E-01+
*       -6.060894442E-02               0
GRID*               1162               03.2733928816E-01-9.491728563E-01+
*       -6.165517015E-02               0
GRID*               1163               09.8536623954E-019.6877520927E-01+
*       -6.066473178E-02               0
GRID*               1164               0-5.513973918E-01-3.615703848E-01+
*       9.5663711968E-01               0
GRID*               1165               0-8.959357017E-019.2410932742E-01+
*       -1.506876890E-01               0
GRID*               1166               06.8770986594E-018.6269436556E-02+
*       1.6702340250E+00               0
GRID*               1167               0-1.033542359E+005.8877375850E-01+
*       -2.073059103E-01               0
GRID*               1168               0-6.266044669E-015.6845070544E-01+
*       2.4536882189E-01               0
GRID*               1169               0-9.829399234E-018.9422507134E-01+
*       -4.234643803E-02               0
GRID*               1170               0-6.241346248E-015.2434962472E-01+
*       2.9075387992E-01               0
GRID*               1171               04.0007685252E-01-9.498608245E-01+
*       -6.062191611E-02               0
GRID*               1172               01.1090985576E+00-9.620490682E-01+
*       -4.399642957E-02               0
GRID*               1173               0-5.494375010E-01-3.376514511E-01+
*       1.0062321096E+00               0
GRID*               1174               09.4021103354E-016.0026548427E-01+
*       -2.075698163E-01               0
GRID*               1175               01.1878829976E+005.9119991624E-01+
*       -1.891224611E-01               0
GRID*               1176               06.8832435910E-01-9.387550175E-01+
*       3.0768337638E-01               0
GRID*               1177               06.8816128760E-014.2476390774E-01+
*       8.4338952876E-01               0
GRID*               1178               06.8751419268E-01-1.382105156E-01+
*       1.6676596670E+00               0
GRID*               1179               0-1.111331974E+006.4040710598E-01+
*       -2.078976884E-01               0
GRID*               1180               05.1406267468E-01-9.358333905E-01+
*       -1.863993595E-01               0
GRID*               1181               06.8847942986E-01-4.199439144E-01+
*       1.5839247225E+00               0
GRID*               1182               06.8626468624E-011.0056672600E-01+
*       -1.256135453E-01               0
GRID*               1183               0-6.862954756E-01-2.489931630E-01+
*       1.1018405091E+00               0
GRID*               1184               0-6.244790005E-013.2518147473E-01+
*       2.3735397298E-01               0
GRID*               1185               0-8.489397326E-017.4708140585E-01+
*       -4.206456669E-02               0
GRID*               1186               0-1.183640206E+005.4452277817E-01+
*       -6.318998386E-02               0
GRID*               1187               0-1.182547679E+004.7092304567E-01+
*       -6.093564244E-02               0
GRID*               1188               01.1608620925E+00-8.797956851E-01+
*       -1.016656873E-01               0
GRID*               1189               06.2957533295E-012.3225499007E-01+
*       1.5759610164E+00               0
GRID*               1190               0-2.585048920E-011.4843030619E-01+
*       -1.253675771E-01               0
GRID*               1191               01.1818176000E+009.5553931147E-01+
*       -4.717026462E-02               0
GRID*               1192               08.4948469509E-017.6125158954E-01+
*       -4.157436224E-02               0
GRID*               1193               05.4645600708E-019.5387250450E-01+
*       3.9944269411E-01               0
GRID*               1194               06.8842402021E-017.9835740572E-01+
*       1.2610944718E+00               0
GRID*               1195               06.8718272673E-01-3.514269712E-01+
*       1.6039870849E+00               0
GRID*               1196               05.6201052741E-011.2819154822E-01+
*       3.3553124414E-01               0
GRID*               1197               06.8815345947E-01-1.428472556E-02+
*       3.1816787928E-01               0
GRID*               1198               0-1.130018791E+00-8.429146729E-01+
*       -2.071127286E-01               0
GRID*               1199               0-9.011728772E-018.7735168013E-01+
*       -2.077098744E-01               0
GRID*               1200               01.2028907851E+009.5342806118E-01+
*       -1.247373568E-01               0
GRID*               1201               05.4532457398E-01-4.153466716E-01+
*       8.1716984399E-01               0
GRID*               1202               01.1142792618E+009.2443651904E-01+
*       -1.010430038E-01               0
GRID*               1203               01.1164584729E+008.7296070511E-01+
*       -4.255781575E-02               0
GRID*               1204               05.6119482496E-013.4817929819E-01+
*       1.0263962856E+00               0
GRID*               1205               01.1358123722E+00-6.713404772E-01+
*       -4.051752127E-02               0
GRID*               1206               01.1481169058E+00-7.215603613E-01+
*       -4.157996149E-02               0
GRID*               1207               0-3.193131498E-011.8499029500E-01+
*       -1.226098209E-01               0
GRID*               1208               0-1.045809580E+009.2729071289E-01+
*       -1.474901626E-01               0
GRID*               1209               06.8839461790E-01-3.264328944E-01+
*       4.5161439326E-01               0
GRID*               1210               0-8.574724771E-01-9.421817915E-01+
*       -1.932971524E-01               0
GRID*               1211               01.1598844409E+00-6.310840388E-01+
*       -1.048707708E-01               0
GRID*               1212               01.1856404714E+007.3827829593E-01+
*       -1.473447114E-01               0
GRID*               1213               0-7.045827492E-017.3804294425E-01+
*       1.3597041725E+00               0
GRID*               1214               01.0782363088E+009.3729543885E-01+
*       -1.019250423E-01               0
GRID*               1215               08.6350496329E-01-8.395120059E-01+
*       -4.392903992E-02               0
GRID*               1216               01.0342645801E+009.6003339652E-01+
*       -1.894916041E-01               0
GRID*               1217               01.2039725401E+00-9.138934345E-01+
*       -6.189624743E-02               0
GRID*               1218               06.8923844700E-014.2774234103E-01+
*       6.6707049707E-01               0
GRID*               1219               01.1048894322E+009.6128463564E-01+
*       -1.885185474E-01               0
GRID*               1220               09.3465280073E-019.3804377437E-01+
*       -1.071281878E-01               0
GRID*               1221               01.0313301914E+00-8.990578459E-01+
*       -1.652314798E-01               0
GRID*               1222               01.1614243927E+008.8087262383E-01+
*       -1.045302101E-01               0
GRID*               1223               0-1.161242492E+008.7960827844E-01+
*       -1.046112074E-01               0
GRID*               1224               05.6086350021E-019.4487921981E-01+
*       8.7234292913E-02               0
GRID*               1225               0-1.183368529E+006.6508193313E-01+
*       -1.039399796E-01               0
GRID*               1226               01.0613194905E+00-9.627874956E-01+
*       -4.381024299E-02               0
GRID*               1227               01.0028098295E+00-9.370805043E-01+
*       -1.474479789E-01               0
GRID*               1228               0-1.183606255E+007.7648418792E-01+
*       -1.028990370E-01               0
GRID*               1229               0-1.162407312E+00-8.789716805E-01+
*       -1.477331771E-01               0
GRID*               1230               0-1.184634802E+007.3640977614E-01+
*       -1.460899377E-01               0
GRID*               1231               01.1852816215E+006.6550722649E-01+
*       -1.460928429E-01               0
GRID*               1232               0-7.024240023E-01-9.498207557E-01+
*       1.4278521913E-01               0
GRID*               1233               0-9.031293167E-019.6372686071E-01+
*       -2.062637653E-01               0
GRID*               1234               0-4.024430075E-019.4821689248E-01+
*       -6.120499836E-02               0
GRID*               1235               0-6.265928632E-012.4535673754E-01+
*       3.1538243361E-01               0
GRID*               1236               06.2515875928E-014.6140657248E-01+
*       5.5399961091E-01               0
GRID*               1237               0-1.198684792E+006.2391336048E-01+
*       -1.886630791E-01               0
GRID*               1238               0-5.465977910E-01-1.477265349E-01+
*       1.1392159560E+00               0
GRID*               1239               05.5126050183E-01-1.456914947E-01+
*       1.1441551370E+00               0
GRID*               1240               0-7.638593210E-01-8.383676812E-01+
*       -7.431259575E-02               0
GRID*               1241               0-8.197384493E-01-8.347135831E-01+
*       -9.511209361E-02               0
GRID*               1242               0-8.058791283E-01-8.424997481E-01+
*       -2.079949787E-02               0
GRID*               1243               0-7.827754724E-01-8.314823686E-01+
*       -2.120047452E-02               0
GRID*               1244               0-7.966347933E-01-8.236962036E-01+
*       -9.551307027E-02               0
GRID*               1245               0-8.386546007E-01-8.278282705E-01+
*       -4.199997239E-02               0
GRID*               1246               05.4034934526E-01-8.019308599E-01+
*       -7.650286850E-02               0
GRID*               1247               05.6215238099E-01-8.106806965E-01+
*       -1.393566800E-01               0
GRID*               1248               05.2180303573E-01-8.549036827E-01+
*       -6.285381152E-02               0
GRID*               1249               04.8484015516E-01-8.514548581E-01+
*       -6.262730718E-02               0
GRID*               1250               05.2518950041E-01-8.072318718E-01+
*       -1.391301757E-01               0
GRID*               1251               05.0664319089E-01-8.602046946E-01+
*       -1.254811187E-01               0
GRID*               1252               06.2586279494E-01-8.780485119E-01+
*       -1.576469474E-01               0
GRID*               1253               06.6019795780E-01-8.167092057E-01+
*       -1.576469474E-01               0
GRID*               1254               05.8530588770E-01-8.158584590E-01+
*       -2.015028685E-01               0
GRID*               1255               06.2125559776E-01-8.198979265E-01+
*       -1.091498159E-01               0
GRID*               1256               06.1964105055E-01-7.545191528E-01+
*       -2.015028685E-01               0
GRID*               1257               06.6289790434E-01-7.054393311E-01+
*       -1.861855857E-01               0
GRID*               1258               06.2540865475E-01-6.445340614E-01+
*       -1.861855857E-01               0
GRID*               1259               05.8215180097E-01-6.936138831E-01+
*       -2.015028685E-01               0
GRID*               1260               06.2395554429E-01-7.086280520E-01+
*       -1.376884542E-01               0
GRID*               1261               04.6029897577E-01-7.184462454E-01+
*       -1.846142658E-01               0
GRID*               1262               04.2408926789E-01-7.804436668E-01+
*       -1.846142658E-01               0
GRID*               1263               05.1136509985E-01-8.151273583E-01+
*       -2.015028685E-01               0
GRID*               1264               05.4757480773E-01-7.531299369E-01+
*       -2.015028685E-01               0
GRID*               1265               04.9342285855E-01-7.230241822E-01+
*       -1.361171343E-01               0
GRID*               1266               06.1085962658E-01-6.266130196E-01+
*       -1.295376286E-01               0
GRID*               1267               05.6905588325E-01-6.115988506E-01+
*       -1.933520429E-01               0
GRID*               1268               05.6760277279E-01-6.756928412E-01+
*       -1.448549114E-01               0
GRID*               1269               04.5307351330E-01-6.903240915E-01+
*       -5.961426581E-02               0
GRID*               1270               04.8032694083E-01-6.410091497E-01+
*       -1.279663087E-01               0
GRID*               1271               05.2725342754E-01-6.429927505E-01+
*       -6.835204293E-02               0
GRID*               1272               05.4034934526E-01-7.250077830E-01+
*       -7.650286850E-02               0
GRID*               1273               0-6.901228880E-01-5.155216001E-01+
*       6.1703370007E-01               0
GRID*               1274               0-6.901228880E-01-5.871960249E-01+
*       6.6012755809E-01               0
GRID*               1275               0-6.796854036E-01-6.236517480E-01+
*       5.8153284283E-01               0
GRID*               1276               0-6.796854036E-01-5.519773232E-01+
*       5.3843898481E-01               0
GRID*               1277               0-6.198082916E-01-5.966507348E-01+
*       6.1095146209E-01               0
GRID*               1278               0-6.860268190E-01-5.951925269E-01+
*       3.9955158646E-01               0
GRID*               1279               0-6.211564675E-01-5.629076142E-01+
*       4.0101702796E-01               0
GRID*               1280               0-6.851296485E-01-4.824336393E-01+
*       3.8885719718E-01               0
GRID*               1281               0-6.796854036E-01-5.739125049E-01+
*       4.5987425126E-01               0
GRID*               1282               0-6.157122226E-01-6.543864798E-01+
*       4.7203408203E-01               0
GRID*               1283               0-6.148150521E-01-5.416275922E-01+
*       4.6133969275E-01               0
GRID*               1284               06.6507511402E-019.6856558271E-01+
*       -2.242224192E-01               0
GRID*               1285               06.3252082318E-019.0515989013E-01+
*       -2.242224192E-01               0
GRID*               1286               06.9850964077E-019.0773453019E-01+
*       -2.242224192E-01               0
GRID*               1287               07.5210660264E-017.9020585889E-01+
*       -7.128471773E-02               0
GRID*               1288               06.8966196514E-017.5170842037E-01+
*       -6.044938363E-02               0
GRID*               1289               06.8755536249E-018.0765640763E-01+
*       1.0835334102E-02               0
GRID*               1290               07.3640298031E-018.4726236902E-01+
*       -7.981796896E-02               0
GRID*               1291               07.3850958295E-017.9131438176E-01+
*       -1.511026867E-01               0
GRID*               1292               06.7395834280E-018.0876493049E-01+
*       -6.898263485E-02               0
GRID*               1293               07.1460540883E-017.5625990684E-01+
*       -1.962847177E-01               0
GRID*               1294               07.7231312645E-017.4741825226E-01+
*       -1.962847177E-01               0
GRID*               1295               07.5660950412E-018.0447476239E-01+
*       -2.048179690E-01               0
GRID*               1296               06.9890178649E-018.1331641696E-01+
*       -2.048179690E-01               0
GRID*               1297               05.5901484436E-018.3626859438E-01+
*       -1.972830121E-01               0
GRID*               1298               05.9818558845E-017.8880525798E-01+
*       -1.972830121E-01               0
GRID*               1299               06.5973104240E-018.6077975335E-01+
*       -2.048179690E-01               0
GRID*               1300               06.2208976257E-018.2385973290E-01+
*       -1.521009811E-01               0
GRID*               1301               0-1.093818975E+008.6142941399E-01+
*       -2.155763481E-02               0
GRID*               1302               0-1.093819800E+008.6142873941E-01+
*       -6.322419229E-02               0
GRID*               1303               0-1.116505141E+008.3018939377E-01+
*       -2.155763481E-02               0
GRID*               1304               07.9331421934E-018.0529368789E-01+
*       -1.372386602E-01               0
GRID*               1305               08.1141414050E-018.1845406852E-01+
*       -1.909539425E-01               0
GRID*               1306               07.7761059700E-018.6235019801E-01+
*       -1.457719114E-01               0
GRID*               1307               0-1.036895559E+008.8122296722E-01+
*       -6.309747845E-02               0
GRID*               1308               0-1.036895559E+008.8122296722E-01+
*       -2.143081178E-02               0
GRID*               1309               0-1.009709014E+008.9090082901E-01+
*       -6.373209201E-02               0
GRID*               1310               0-1.046604573E+008.9712379623E-01+
*       -4.349623712E-02               0
GRID*               1311               0-1.009709014E+008.9090082901E-01+
*       -2.206542534E-02               0
GRID*               1312               0-1.073651902E+008.6927196443E-01+
*       -2.143081178E-02               0
GRID*               1313               06.8777956934E-01-6.029655024E-01+
*       4.3468886547E-01               0
GRID*               1314               06.8777956934E-01-6.736211457E-01+
*       4.3841557138E-01               0
GRID*               1315               06.9719114330E-01-5.952442970E-01+
*       4.9499024568E-01               0
GRID*               1316               06.3497071264E-01-6.571798823E-01+
*       4.7083006814E-01               0
GRID*               1317               06.9719114330E-01-6.658999403E-01+
*       4.9871695159E-01               0
GRID*               1318               01.0383873323E+008.8002945422E-01+
*       -6.325233226E-02               0
GRID*               1319               01.0383873323E+008.8002945422E-01+
*       -2.158566559E-02               0
GRID*               1320               01.0751029295E+008.6810777989E-01+
*       -2.158566559E-02               0
GRID*               1321               06.8766149854E-01-5.867099019E-01+
*       6.4942089510E-01               0
GRID*               1322               06.8766149854E-01-5.052885710E-01+
*       6.2746752631E-01               0
GRID*               1323               06.9719114330E-01-5.499407755E-01+
*       5.4866243494E-01               0
GRID*               1324               06.9719114330E-01-6.313621065E-01+
*       5.7061580373E-01               0
GRID*               1325               06.3485264184E-01-6.048064723E-01+
*       6.0993653972E-01               0
GRID*               1326               0-5.708807856E-016.2206029936E-01+
*       1.0214689170E+00               0
GRID*               1327               0-5.708807856E-016.2258895804E-01+
*       9.4729253414E-01               0
GRID*               1328               0-5.640416763E-015.2615555056E-01+
*       1.0568287497E+00               0
GRID*               1329               0-6.349224619E-015.4824026982E-01+
*       1.0128824846E+00               0
GRID*               1330               0-5.640416763E-015.2668420924E-01+
*       9.8265236688E-01               0
GRID*               1331               0-5.688604811E-015.1077083354E-01+
*       1.1599647645E+00               0
GRID*               1332               0-5.688604811E-015.7213974609E-01+
*       1.1190895350E+00               0
GRID*               1333               0-5.640416763E-014.6478663801E-01+
*       1.0977039793E+00               0
GRID*               1334               0-6.329021574E-014.9831971654E-01+
*       1.1105031025E+00               0
GRID*               1335               0-6.248587967E-015.9471632228E-01+
*       9.0616922509E-01               0
GRID*               1336               0-5.539780111E-015.7316026171E-01+
*       8.7593910740E-01               0
GRID*               1337               0-6.180196874E-014.9881157348E-01+
*       9.4152905783E-01               0
GRID*               1338               0-6.164788282E-014.5494584683E-01+
*       8.4593995681E-01               0
GRID*               1339               0-6.265424934E-014.0846979436E-01+
*       9.5265321629E-01               0
GRID*               1340               0-5.941676563E-013.8849180284E-01+
*       8.8734448012E-01               0
GRID*               1341               0-5.856448503E-014.7883358196E-01+
*       8.7622032166E-01               0
GRID*               1342               0-5.957085155E-014.3235752949E-01+
*       9.8293358113E-01               0
GRID*               1343               0-6.265414384E-013.8600629468E-01+
*       1.0018420649E+00               0
GRID*               1344               0-5.941666013E-013.6602830316E-01+
*       9.3653332878E-01               0
GRID*               1345               07.5394988840E-014.1815927883E-01+
*       -6.247249407E-02               0
GRID*               1346               08.2184664422E-014.2760637485E-01+
*       -1.192488797E-01               0
GRID*               1347               08.1789675582E-013.9406248064E-01+
*       -5.677638565E-02               0
GRID*               1348               07.6342752443E-013.8052643446E-01+
*       -6.251194260E-02               0
GRID*               1349               07.6737741282E-014.1407032867E-01+
*       -1.249844367E-01               0
GRID*               1350               08.3132428024E-013.8997353048E-01+
*       -1.192883282E-01               0
GRID*               1351               0-6.958807856E-015.8407374738E-01+
*       1.0313307026E+00               0
GRID*               1352               0-6.397412667E-015.9422446534E-01+
*       1.0751432698E+00               0
GRID*               1353               0-6.938604811E-015.3415319411E-01+
*       1.1289513206E+00               0
GRID*               1354               0-6.890416763E-014.8816899859E-01+
*       1.0666905354E+00               0
GRID*               1355               01.0700485427E+00-8.691909009E-01+
*       -1.452253383E-01               0
GRID*               1356               01.0333376461E+00-8.811356742E-01+
*       -1.868923013E-01               0
GRID*               1357               01.0700442013E+00-8.691940933E-01+
*       -1.868925849E-01               0
GRID*               1358               0-6.958807856E-016.0777093472E-01+
*       9.6409258615E-01               0
GRID*               1359               0-6.890416763E-015.1186618592E-01+
*       9.9945241889E-01               0
GRID*               1360               0-8.940133110E-01-5.952385836E-01+
*       -1.117446818E-01               0
GRID*               1361               0-8.969586922E-01-5.789174262E-01+
*       -9.194473313E-02               0
GRID*               1362               0-9.295184145E-01-6.325191023E-01+
*       -6.353282039E-02               0
GRID*               1363               0-9.069075166E-01-6.443623938E-01+
*       -6.389166673E-02               0
GRID*               1364               0-8.743477942E-01-5.907607177E-01+
*       -9.230357947E-02               0
GRID*               1365               0-9.098528978E-01-6.280412364E-01+
*       -4.409171804E-02               0
GRID*               1366               01.1948615651E+008.4294916221E-01+
*       -2.117342004E-02               0
GRID*               1367               01.1620723111E+008.4252219291E-01+
*       -7.298250680E-02               0
GRID*               1368               01.2172107461E+008.4572687686E-01+
*       -5.180908676E-02               0
GRID*               1369               01.2179751264E+008.3031691400E-01+
*       -2.184216612E-02               0
GRID*               1370               01.1628366914E+008.2711223006E-01+
*       -4.301558616E-02               0
GRID*               1371               01.1851858724E+008.2988994471E-01+
*       -7.365125288E-02               0
GRID*               1372               0-7.516850746E-01-5.103067320E-01+
*       -6.611429842E-02               0
GRID*               1373               0-7.855496483E-01-5.862180412E-01+
*       -1.305862073E-01               0
GRID*               1374               0-7.838645737E-01-6.143728477E-01+
*       -6.447190889E-02               0
GRID*               1375               0-8.057267943E-01-5.400492230E-01+
*       -7.007829728E-02               0
GRID*               1376               0-8.074118689E-01-5.118944165E-01+
*       -1.361925957E-01               0
GRID*               1377               0-8.395913680E-01-6.159605322E-01+
*       -1.345502062E-01               0
GRID*               1378               0-8.494261014E-01-7.008217176E-01+
*       -1.061384172E-01               0
GRID*               1379               0-8.721510904E-01-6.695622083E-01+
*       -1.061382934E-01               0
GRID*               1380               0-8.841825276E-01-6.756219030E-01+
*       -6.389179047E-02               0
GRID*               1381               0-8.524855736E-01-6.650843424E-01+
*       -8.669719108E-02               0
GRID*               1382               07.1652005976E-01-3.532658625E-01+
*       5.4858222848E-01               0
GRID*               1383               06.5402029766E-01-3.532662941E-01+
*       5.4858304110E-01               0
GRID*               1384               07.1864030943E-01-3.394176226E-01+
*       5.1934141143E-01               0
GRID*               1385               06.8516036919E-01-3.730072675E-01+
*       5.2336707155E-01               0
GRID*               1386               06.5614054733E-01-3.394180542E-01+
*       5.1934222405E-01               0
GRID*               1387               0-8.940089776E-01-5.952417618E-01+
*       -1.534119268E-01               0
GRID*               1388               0-8.721467570E-01-6.695653866E-01+
*       -1.478055384E-01               0
GRID*               1389               0-9.038790536E-01-6.483740409E-01+
*       -1.867321937E-01               0
GRID*               1390               0-8.713236645E-01-5.947691866E-01+
*       -1.734768615E-01               0
GRID*               1391               0-8.494614439E-01-6.690928113E-01+
*       -1.678704731E-01               0
GRID*               1392               0-9.625051837E-01-5.611215332E-01+
*       -5.768522917E-02               0
GRID*               1393               0-9.350182926E-01-5.075283873E-01+
*       -5.768522917E-02               0
GRID*               1394               0-8.731758697E-01-5.111650430E-01+
*       -7.007829728E-02               0
GRID*               1395               0-9.006627608E-01-5.647581889E-01+
*       -7.007829728E-02               0
GRID*               1396               0-9.232960115E-01-5.380002518E-01+
*       -1.277635264E-01               0
GRID*               1397               0-9.513277070E-01-4.655139480E-01+
*       -1.144379372E-01               0
GRID*               1398               0-9.012075652E-01-4.386787392E-01+
*       -5.675270802E-02               0
GRID*               1399               0-8.894852841E-01-4.691506037E-01+
*       -1.268310053E-01               0
GRID*               1400               0-1.023645611E+008.9987169541E-01+
*       -1.351538356E-01               0
GRID*               1401               0-1.060402780E+008.8792001804E-01+
*       -9.348705975E-02               0
GRID*               1402               0-1.023645611E+008.9987169541E-01+
*       -9.348716894E-02               0
GRID*               1403               0-1.002024500E+009.0600832762E-01+
*       -1.570427564E-01               0
GRID*               1404               0-1.002024500E+009.0600832762E-01+
*       -1.153760897E-01               0
GRID*               1405               0-9.653110250E-018.9408819498E-01+
*       -1.153758076E-01               0
GRID*               1406               0-5.527236017E-015.1242111218E-01+
*       6.1158376126E-01               0
GRID*               1407               0-5.527236017E-015.8409553802E-01+
*       6.5467762018E-01               0
GRID*               1408               0-5.638916769E-016.2327577980E-01+
*       5.8208020950E-01               0
GRID*               1409               0-5.638916769E-015.5160135396E-01+
*       5.3898635058E-01               0
GRID*               1410               0-6.166152786E-015.9317428052E-01+
*       6.0604889614E-01               0
GRID*               1411               0-6.830605738E-014.8892618668E-01+
*       4.2290867703E-01               0
GRID*               1412               0-6.127354978E-015.5770127097E-01+
*       4.0405471109E-01               0
GRID*               1413               0-6.796749241E-016.0980499926E-01+
*       4.3999507193E-01               0
GRID*               1414               0-6.888916769E-015.8669221863E-01+
*       4.9615026167E-01               0
GRID*               1415               0-6.219522507E-015.3458849035E-01+
*       4.6020990082E-01               0
GRID*               1416               0-6.185666010E-016.5546730292E-01+
*       4.7729629573E-01               0
GRID*               1417               0-5.526633650E-01-4.256493619E-01+
*       -7.655713239E-02               0
GRID*               1418               0-6.508638708E-01-3.950056583E-01+
*       -1.440289301E-01               0
GRID*               1419               0-5.982005059E-01-3.539716810E-01+
*       -6.747179771E-02               0
GRID*               1420               0-5.096762240E-01-3.959120992E-01+
*       -6.412727333E-02               0
GRID*               1421               0-5.623395890E-01-4.369460765E-01+
*       -1.406844057E-01               0
GRID*               1422               0-6.078767298E-01-3.652683956E-01+
*       -1.315990710E-01               0
GRID*               1423               0-6.776633650E-01-4.256493619E-01+
*       -7.655713239E-02               0
GRID*               1424               0-6.793484396E-01-4.744176324E-01+
*       -1.426714308E-01               0
GRID*               1425               0-7.516850746E-01-4.333836550E-01+
*       -6.611429842E-02               0
GRID*               1426               0-7.232005059E-01-3.539716810E-01+
*       -6.747179771E-02               0
GRID*               1427               0-7.248855804E-01-4.027399514E-01+
*       -1.335860961E-01               0
GRID*               1428               0-6.535510233E-01-4.448148527E-01+
*       -2.015571324E-01               0
GRID*               1429               0-5.719573491E-01-4.501711103E-01+
*       -2.015571324E-01               0
GRID*               1430               0-6.990881642E-01-3.731371718E-01+
*       -1.924717977E-01               0
GRID*               1431               0-6.174944899E-01-3.784934293E-01+
*       -1.924717977E-01               0
GRID*               1432               04.8629404694E-01-2.650743136E-01+
*       -1.913375819E-01               0
GRID*               1433               05.3617841524E-01-2.300651595E-01+
*       -1.311677427E-01               0
GRID*               1434               05.7416606154E-01-2.221986927E-01+
*       -1.898301608E-01               0
GRID*               1435               05.2047218555E-01-1.835997072E-01+
*       -1.891662295E-01               0
GRID*               1436               04.8248453925E-01-1.914661740E-01+
*       -1.305038114E-01               0
GRID*               1437               05.7035655385E-01-1.485905531E-01+
*       -1.289963902E-01               0
GRID*               1438               04.2582768048E-01-9.975837013E-02+
*       -1.951463054E-01               0
GRID*               1439               04.1972959359E-01-1.768268651E-01+
*       -1.364838873E-01               0
GRID*               1440               04.5440448753E-01-1.958722854E-01+
*       -1.913375819E-01               0
GRID*               1441               04.8858262614E-01-1.143976790E-01+
*       -1.891662295E-01               0
GRID*               1442               04.5390773220E-01-9.535225867E-02+
*       -1.343125349E-01               0
GRID*               1443               04.6679239103E-01-3.984439738E-02+
*       -1.951463054E-01               0
GRID*               1444               05.2954733669E-01-5.448370620E-02+
*       -1.891662295E-01               0
GRID*               1445               05.6669837674E-01-1.813909452E-01+
*       2.8592580909E-02               0
GRID*               1446               06.2872359166E-01-1.596010992E-01+
*       -3.623757985E-02               0
GRID*               1447               05.6202521492E-01-2.089793847E-01+
*       -6.483016076E-02               0
GRID*               1448               05.0833133893E-01-1.703803991E-01+
*       -6.416622948E-02               0
GRID*               1449               05.7502971567E-01-1.210021136E-01+
*       -3.557364857E-02               0
GRID*               1450               03.8297139864E-01-1.172999724E-01+
*       -7.014630538E-02               0
GRID*               1451               04.4557639327E-01-7.881801338E-02+
*       -7.014630538E-02               0
GRID*               1452               05.0833133893E-01-9.345732221E-02+
*       -6.416622948E-02               0
GRID*               1453               04.4572634431E-01-1.319392812E-01+
*       -6.416622948E-02               0
GRID*               1454               04.1154820569E-01-2.134138877E-01+
*       -6.633758193E-02               0
GRID*               1455               01.1103355089E+00-9.619378204E-01+
*       -1.989954382E-01               0
GRID*               1456               01.1045542111E+00-9.230054022E-01+
*       -1.767487896E-01               0
GRID*               1457               01.0971598787E+00-9.610675818E-01+
*       -2.277533514E-01               0
GRID*               1458               01.0950379030E+00-9.625547128E-01+
*       -2.080086029E-01               0
GRID*               1459               01.1024322354E+00-9.244925332E-01+
*       -1.570040410E-01               0
GRID*               1460               01.0892566052E+00-9.236222946E-01+
*       -1.857619543E-01               0
GRID*               1461               0-6.770132460E-01-5.106690037E-01+
*       1.1566031382E+00               0
GRID*               1462               0-6.770132460E-01-5.720379170E-01+
*       1.1157279085E+00               0
GRID*               1463               0-6.850903932E-01-4.643914975E-01+
*       1.0972676710E+00               0
GRID*               1464               0-6.121036392E-01-4.978227497E-01+
*       1.1067051638E+00               0
GRID*               1465               0-6.850903932E-01-5.257604108E-01+
*       1.0563924414E+00               0
GRID*               1466               0-6.883458737E-01-6.294548083E-01+
*       1.0102741881E+00               0
GRID*               1467               0-6.883458737E-01-6.299834673E-01+
*       9.3609780585E-01               0
GRID*               1468               0-6.234362668E-01-5.552396410E-01+
*       1.0012514434E+00               0
GRID*               1469               0-6.850903932E-01-5.262890698E-01+
*       9.8221605915E-01               0
GRID*               1470               0-6.274743894E-01-6.027909015E-01+
*       9.0254887605E-01               0
GRID*               1471               0-6.891285157E-01-5.738403303E-01+
*       8.8351349182E-01               0
GRID*               1472               0-6.242189089E-01-4.990965040E-01+
*       9.4866712935E-01               0
GRID*               1473               0-6.225895761E-01-4.080746540E-01+
*       9.5221691147E-01               0
GRID*               1474               0-6.266276986E-01-4.556259145E-01+
*       8.5351434414E-01               0
GRID*               1475               0-5.937680930E-01-3.833611808E-01+
*       8.8399770042E-01               0
GRID*               1476               0-5.913593033E-01-4.268317703E-01+
*       9.7915048562E-01               0
GRID*               1477               0-5.953974259E-01-4.743830308E-01+
*       8.8044791829E-01               0
GRID*               1478               0-1.060403047E+008.8791980077E-01+
*       -1.351536916E-01               0
GRID*               1479               0-1.094434600E+008.8776494971E-01+
*       -1.152348462E-01               0
GRID*               1480               0-1.081323043E+009.2458832250E-01+
*       -1.253887910E-01               0
GRID*               1481               0-1.094434867E+008.8776473245E-01+
*       -1.569014781E-01               0
GRID*               1482               0-6.225906311E-01-3.856111528E-01+
*       1.0014057595E+00               0
GRID*               1483               0-6.568308481E-01-3.532449829E-01+
*       9.6146373885E-01               0
GRID*               1484               0-6.568297931E-01-3.757084841E-01+
*       9.1227489086E-01               0
GRID*               1485               0-6.544210034E-01-4.191790736E-01+
*       1.0074276761E+00               0
GRID*               1486               0-5.610268190E-01-7.143662938E-01+
*       3.8417838051E-01               0
GRID*               1487               0-5.610268190E-01-7.339564511E-01+
*       4.3606462155E-01               0
GRID*               1488               0-5.610268190E-01-6.790038527E-01+
*       4.3900693603E-01               0
GRID*               1489               01.1169118543E+008.6585130609E-01+
*       -1.148500221E-01               0
GRID*               1490               01.1396366000E+008.3459246476E-01+
*       -1.565167302E-01               0
GRID*               1491               01.1169161837E+008.6584812253E-01+
*       -1.565172671E-01               0
GRID*               1492               01.0628759889E+006.2176788870E-01+
*       -2.094613652E-02               0
GRID*               1493               01.0628782018E+006.2176952174E-01+
*       -6.261250695E-02               0
GRID*               1494               01.0923643826E+006.3605831717E-01+
*       -2.293520785E-02               0
GRID*               1495               01.0817500519E+006.0893990971E-01+
*       -4.388134437E-02               0
GRID*               1496               01.0923665955E+006.3605995021E-01+
*       -6.460157828E-02               0
GRID*               1497               0-1.198750541E+009.7520904527E-01+
*       -2.200018208E-01               0
GRID*               1498               0-1.144019816E+009.2524575471E-01+
*       -2.200018208E-01               0
GRID*               1499               0-1.125221129E+009.7520904527E-01+
*       -2.200018208E-01               0
GRID*               1500               0-5.633458737E-01-5.914682559E-01+
*       1.0201359740E+00               0
GRID*               1501               0-5.633458737E-01-6.613935164E-01+
*       1.0130294625E+00               0
GRID*               1502               0-5.520132460E-01-5.340513646E-01+
*       1.1255896945E+00               0
GRID*               1503               0-6.153591197E-01-6.015171472E-01+
*       1.0605869105E+00               0
GRID*               1504               0-5.520132460E-01-6.039766251E-01+
*       1.1184831829E+00               0
GRID*               1505               07.8132458138E-01-9.341188420E-01+
*       -1.590925022E-01               0
GRID*               1506               08.1635364253E-01-9.341188420E-01+
*       -2.102496039E-01               0
GRID*               1507               07.7639096566E-01-9.685856541E-01+
*       -2.237876054E-01               0
GRID*               1508               07.4136190450E-01-9.685856541E-01+
*       -1.726305037E-01               0
GRID*               1509               07.8392107878E-01-9.027044961E-01+
*       -1.840372094E-01               0
GRID*               1510               0-5.633458737E-01-6.151654437E-01+
*       9.5289785796E-01               0
GRID*               1511               0-5.600903932E-01-5.114710462E-01+
*       9.9901611126E-01               0
GRID*               1512               0-5.600903932E-01-4.877738584E-01+
*       1.0662542273E+00               0
GRID*               1513               08.2614813162E-01-5.383438903E-01+
*       -5.005222388E-02               0
GRID*               1514               08.5556714396E-01-5.830078552E-01+
*       -1.081687094E-01               0
GRID*               1515               07.7941901234E-01-5.831255033E-01+
*       -5.811648549E-02               0
GRID*               1516               07.3897843423E-01-5.171785607E-01+
*       -7.804296395E-02               0
GRID*               1517               08.1512656585E-01-5.170609126E-01+
*       -1.280951878E-01               0
GRID*               1518               07.6839744657E-01-5.618425256E-01+
*       -1.361594494E-01               0
GRID*               1519               01.0332257425E+00-4.579515426E-01+
*       -6.002850104E-02               0
GRID*               1520               01.0242350969E+00-5.340883144E-01+
*       -6.002850104E-02               0
GRID*               1521               09.4600421732E-01-4.635863046E-01+
*       -5.005222388E-02               0
GRID*               1522               09.8951778839E-01-5.325914802E-01+
*       -1.100807249E-01               0
GRID*               1523               09.3701357177E-01-5.397230764E-01+
*       -5.005222388E-02               0
GRID*               1524               08.7479236202E-01-4.917921813E-01+
*       -1.750522239E-01               0
GRID*               1525               09.3251618985E-01-5.131988225E-01+
*       -1.750522239E-01               0
GRID*               1526               08.6501647905E-01-4.187195364E-01+
*       -1.843171389E-01               0
GRID*               1527               08.9252038028E-01-4.651535972E-01+
*       -1.093693628E-01               0
GRID*               1528               09.2274030688E-01-4.401261775E-01+
*       -1.843171389E-01               0
GRID*               1529               07.9332371171E-01-5.825612001E-01+
*       -1.831164855E-01               0
GRID*               1530               08.5005751881E-01-5.962034130E-01+
*       -1.831164855E-01               0
GRID*               1531               08.4005283100E-01-5.377795871E-01+
*       -1.750522239E-01               0
GRID*               1532               08.9678663810E-01-5.514218000E-01+
*       -1.750522239E-01               0
GRID*               1533               08.8353152156E-01-4.996944665E-01+
*       -5.005222388E-02               0
GRID*               1534               09.3622833435E-01-3.905136597E-01+
*       -5.931713892E-02               0
GRID*               1535               08.7375563860E-01-4.266218216E-01+
*       -5.931713892E-02               0
GRID*               1536               09.5114813162E-01-5.816131211E-01+
*       -1.333855572E-01               0
GRID*               1537               09.1439069223E-01-5.935650127E-01+
*       -1.333854132E-01               0
GRID*               1538               09.1439095953E-01-5.935647957E-01+
*       -9.171878135E-02               0
GRID*               1539               05.3350338228E-011.2361041020E-01+
*       1.1330958494E+00               0
GRID*               1540               05.9600208733E-017.1716387720E-02+
*       1.1483321148E+00               0
GRID*               1541               05.9600415157E-011.2361306531E-01+
*       1.1330944265E+00               0
GRID*               1542               09.0688179214E-01-8.624882632E-01+
*       -2.283957094E-02               0
GRID*               1543               09.0688069315E-01-8.624873662E-01+
*       -6.450638242E-02               0
GRID*               1544               09.4364506187E-01-8.744177758E-01+
*       -6.450623762E-02               0
GRID*               1545               09.5426213391E-01-6.163341690E-01+
*       -1.865494041E-01               0
GRID*               1546               09.1750469452E-01-6.282860606E-01+
*       -1.865492601E-01               0
GRID*               1547               09.0541026554E-01-5.729472901E-01+
*       -1.532682947E-01               0
GRID*               1548               01.0197377150E+00-5.075640605E-01+
*       -1.850285010E-01               0
GRID*               1549               09.7974190543E-01-4.595188352E-01+
*       -1.193456400E-01               0
GRID*               1550               01.1462604839E+003.4570206546E-01+
*       -5.082041915E-02               0
GRID*               1551               01.2065839910E+003.8368694391E-01+
*       -5.082041915E-02               0
GRID*               1552               01.2198524692E+003.4635695211E-01+
*       -3.110036118E-02               0
GRID*               1553               01.1595289620E+003.0837207367E-01+
*       -3.110036118E-02               0
GRID*               1554               01.1764364602E+003.4542851141E-01+
*       -8.192078033E-02               0
GRID*               1555               0-1.006703774E+00-5.377917533E-01+
*       -5.768522917E-02               0
GRID*               1556               01.0868533801E+003.8576427711E-01+
*       -5.082041915E-02               0
GRID*               1557               01.1021166125E+003.4526902556E-01+
*       -9.970244103E-02               0
GRID*               1558               01.0258020106E+003.4827479946E-01+
*       -4.888202188E-02               0
GRID*               1559               01.0070912019E+004.0682431604E-01+
*       -6.533982362E-02               0
GRID*               1560               01.0834058039E+004.0381854214E-01+
*       -1.161602428E-01               0
GRID*               1561               01.0223544343E+003.6632906449E-01+
*       -1.142218455E-01               0
GRID*               1562               01.0852091143E+003.0821258781E-01+
*       -4.888202188E-02               0
GRID*               1563               01.1139817156E+002.6676520254E-01+
*       -6.745055242E-02               0
GRID*               1564               01.0698378442E+002.6633216264E-01+
*       -1.163325743E-01               0
GRID*               1565               01.1308892138E+003.0382164029E-01+
*       -1.182709716E-01               0
GRID*               1566               01.1493122691E+004.2196089443E-01+
*       -5.082041915E-02               0
GRID*               1567               01.0695500909E+004.4302093336E-01+
*       -6.533982362E-02               0
GRID*               1568               0-5.750075261E-01-1.265025536E-01+
*       1.4218235586E+00               0
GRID*               1569               0-6.353250231E-01-1.593201796E-01+
*       1.3879064442E+00               0
GRID*               1570               0-5.603174970E-01-2.049437708E-01+
*       1.4125713685E+00               0
GRID*               1571               0-5.728725948E-01-1.274393436E-01+
*       1.4837711523E+00               0
GRID*               1572               0-6.478801209E-01-8.181575238E-02+
*       1.4591062279E+00               0
GRID*               1573               0-6.331900917E-01-1.602569696E-01+
*       1.4498540378E+00               0
GRID*               1574               0-4.345065192E-01-4.570903661E-01+
*       -6.731608787E-02               0
GRID*               1575               0-4.871698842E-01-4.981243434E-01+
*       -1.438732203E-01               0
GRID*               1576               0-4.441827432E-01-4.683870806E-01+
*       -1.314433612E-01               0
GRID*               1577               0-1.083519895E+009.7429388723E-01+
*       -3.094698502E-02               0
GRID*               1578               0-1.119165449E+009.7429388723E-01+
*       -9.360196323E-02               0
GRID*               1579               0-1.048206734E+009.7429388723E-01+
*       -9.363388153E-02               0
GRID*               1580               0-5.603174970E-01-2.520958720E-01+
*       1.4705710395E+00               0
GRID*               1581               0-5.603174970E-01-2.725824956E-01+
*       1.3955145228E+00               0
GRID*               1582               0-5.571265876E-01-3.541110515E-01+
*       1.4334072189E+00               0
GRID*               1583               0-5.571265876E-01-3.336244279E-01+
*       1.5084637356E+00               0
GRID*               1584               0-6.174440846E-01-3.192899528E-01+
*       1.4165469502E+00               0
GRID*               1585               0-3.735879530E-01-4.873135023E-01+
*       -1.923160879E-01               0
GRID*               1586               0-2.957378059E-01-4.919704235E-01+
*       -1.923160879E-01               0
GRID*               1587               0-3.722649156E-01-4.024637541E-01+
*       -1.947619317E-01               0
GRID*               1588               0-3.676900011E-01-4.447155992E-01+
*       -1.370780195E-01               0
GRID*               1589               0-2.944147685E-01-4.071206752E-01+
*       -1.947619317E-01               0
GRID*               1590               0-1.217513755E+00-3.568711015E-01+
*       -2.181250914E-01               0
GRID*               1591               0-1.152842984E+00-3.367445022E-01+
*       -2.181250914E-01               0
GRID*               1592               0-1.217513755E+00-2.799480246E-01+
*       -2.181250914E-01               0
GRID*               1593               0-3.300945727E-01-3.374205121E-01+
*       -1.947619317E-01               0
GRID*               1594               0-4.656678509E-01-1.833599946E-01+
*       -5.499155446E-02               0
GRID*               1595               0-3.988513327E-01-2.479083047E-01+
*       -1.247534861E-01               0
GRID*               1596               0-4.331834818E-01-2.953175409E-01+
*       -6.976193167E-02               0
GRID*               1597               0-4.885331181E-01-2.492364910E-01+
*       -6.264425491E-02               0
GRID*               1598               0-4.542009690E-01-2.018272548E-01+
*       -1.176358094E-01               0
GRID*               1599               0-4.217165999E-01-3.137848011E-01+
*       -1.324061866E-01               0
GRID*               1600               01.2029146117E+00-9.800674823E-01+
*       -3.028841238E-02               0
GRID*               1601               01.1552268329E+00-9.800674823E-01+
*       -9.294339059E-02               0
GRID*               1602               01.1195812783E+00-9.800674823E-01+
*       -3.028841238E-02               0
GRID*               1603               0-1.218269841E+002.2568417347E-01+
*       -2.188629013E-01               0
GRID*               1604               0-1.160327557E+001.8277388352E-01+
*       -2.188629013E-01               0
GRID*               1605               0-1.154914722E+002.5194413847E-01+
*       -2.188629013E-01               0
GRID*               1606               0-4.079607003E-01-3.317293883E-01+
*       -1.947619317E-01               0
GRID*               1607               0-4.524774659E-01-3.967623661E-01+
*       -1.947619317E-01               0
GRID*               1608               0-4.331834818E-01-3.722406178E-01+
*       -6.976193167E-02               0
GRID*               1609               0-4.885331181E-01-3.261595679E-01+
*       -6.264425491E-02               0
GRID*               1610               06.7665768649E-012.9711489793E-01+
*       1.3790060057E+00               0
GRID*               1611               06.7665768649E-012.3383168393E-01+
*       1.4096774070E+00               0
GRID*               1612               06.8909784797E-013.6288695556E-01+
*       1.4160788994E+00               0
GRID*               1613               06.1575553446E-012.9544788794E-01+
*       1.4202781156E+00               0
GRID*               1614               06.8909784797E-012.9960374156E-01+
*       1.4467503008E+00               0
GRID*               1615               07.8657783140E-01-8.711669124E-01+
*       -2.102496039E-01               0
GRID*               1616               07.9662698102E-01-8.063310174E-01+
*       -1.400619210E-01               0
GRID*               1617               07.5932105676E-01-8.092602458E-01+
*       -1.798123170E-01               0
GRID*               1618               07.0554220608E-01-8.780920601E-01+
*       -1.576469474E-01               0
GRID*               1619               07.4284813033E-01-8.751628317E-01+
*       -1.178965513E-01               0
GRID*               1620               07.1559135569E-01-8.132561652E-01+
*       -8.745926440E-02               0
GRID*               1621               08.0100574967E-01-6.926236975E-01+
*       -1.798123170E-01               0
GRID*               1622               07.4323011535E-01-6.908699937E-01+
*       -1.798123170E-01               0
GRID*               1623               07.8274429732E-01-7.462524179E-01+
*       -1.798123170E-01               0
GRID*               1624               05.6409784797E-013.8304710618E-01+
*       1.4874200446E+00               0
GRID*               1625               05.6409784797E-014.5274016612E-01+
*       1.4609144009E+00               0
GRID*               1626               05.3327510584E-014.7771382568E-01+
*       1.5181393042E+00               0
GRID*               1627               05.9737295381E-014.5588666506E-01+
*       1.4880702690E+00               0
GRID*               1628               05.3327510584E-015.4740688562E-01+
*       1.4916336605E+00               0
GRID*               1629               05.6261918609E-014.5734818759E-01+
*       1.3893609024E+00               0
GRID*               1630               06.2671703406E-014.1578000394E-01+
*       1.4333422452E+00               0
GRID*               1631               05.6409784797E-014.0278812922E-01+
*       1.4133696665E+00               0
GRID*               1632               05.6266987502E-014.5457407284E-01+
*       1.3512227744E+00               0
GRID*               1633               06.2528906111E-014.6756594757E-01+
*       1.3711953531E+00               0
GRID*               1634               06.2676772299E-014.1300588919E-01+
*       1.3952041172E+00               0
GRID*               1635               06.8909784797E-014.2348945276E-01+
*       1.3781842235E+00               0
GRID*               1636               06.9696027031E-014.3820671200E-01+
*       1.2825420994E+00               0
GRID*               1637               06.9696027031E-013.7760421480E-01+
*       1.3204367753E+00               0
GRID*               1638               06.3605811828E-013.7593720480E-01+
*       1.3617088852E+00               0
GRID*               1639               06.2361795680E-013.1016514718E-01+
*       1.3246359914E+00               0
GRID*               1640               01.1005760187E+003.6904573826E-01+
*       -1.758204191E-01               0
GRID*               1641               01.1413644202E+004.1621908177E-01+
*       -1.758204191E-01               0
GRID*               1642               01.0616022420E+004.3727912070E-01+
*       -1.903398236E-01               0
GRID*               1643               01.0208138405E+003.9010577719E-01+
*       -1.903398236E-01               0
GRID*               1644               06.9686183179E-017.0736352669E-01+
*       2.1478119213E-01               0
GRID*               1645               06.3330266498E-017.4172605779E-01+
*       2.0617747833E-01               0
GRID*               1646               06.8644083319E-017.7299467684E-01+
*       1.3495077773E-01               0
GRID*               1647               06.9344991718E-016.5620375077E-01+
*       1.1216243165E-01               0
GRID*               1648               06.4031174896E-016.2493513172E-01+
*       1.8338913225E-01               0
GRID*               1649               06.2989075037E-016.9056628187E-01+
*       1.0355871785E-01               0
GRID*               1650               06.8644083319E-018.2675552705E-01+
*       6.3173531962E-02               0
GRID*               1651               06.8644083319E-018.3892928945E-01+
*       1.6855001948E-01               0
GRID*               1652               09.0893614472E-015.0196802787E-01+
*       -1.908413449E-01               0
GRID*               1653               09.0735241360E-014.6989422033E-01+
*       -1.226177306E-01               0
GRID*               1654               08.8737724276E-014.3558338420E-01+
*       -1.817763856E-01               0
GRID*               1655               09.4630229978E-014.4626788640E-01+
*       -1.903398236E-01               0
GRID*               1656               09.6627747062E-014.8057872253E-01+
*       -1.311811686E-01               0
GRID*               1657               09.4471856866E-014.1419407886E-01+
*       -1.221162093E-01               0
GRID*               1658               09.6240192673E-014.9567173930E-01+
*       -1.908413449E-01               0
GRID*               1659               09.9976808180E-014.3997159784E-01+
*       -1.903398236E-01               0
GRID*               1660               09.0700258761E-015.0847642325E-01+
*       -6.584134493E-02               0
GRID*               1661               09.7864419512E-015.3873326099E-01+
*       -6.584134493E-02               0
GRID*               1662               09.4436874268E-014.5277628178E-01+
*       -6.533982362E-02               0
GRID*               1663               01.0160103502E+004.8303311953E-01+
*       -6.533982362E-02               0
GRID*               1664               08.8544368566E-014.4209177958E-01+
*       -5.677638565E-02               0
GRID*               1665               01.0103245599E+005.2556467365E-01+
*       -1.349824927E-01               0
GRID*               1666               01.0600574394E+005.2801907065E-01+
*       -6.914114778E-02               0
GRID*               1667               01.0476907149E+004.6986453219E-01+
*       -1.344809714E-01               0
GRID*               1668               0-1.138054033E+00-2.266216274E-01+
*       -2.190798307E-01               0
GRID*               1669               0-1.115912786E+00-2.671170012E-01+
*       -1.592992178E-01               0
GRID*               1670               0-1.078549118E+00-2.399257573E-01+
*       -1.902193871E-01               0
GRID*               1671               0-1.136499681E+00-1.875356671E-01+
*       -2.196177288E-01               0
GRID*               1672               0-1.173863350E+00-2.147269110E-01+
*       -1.886975595E-01               0
GRID*               1673               0-1.114358435E+00-2.280310408E-01+
*       -1.598371158E-01               0
GRID*               1674               0-5.726538539E-018.3086651482E-01+
*       9.2001265742E-01               0
GRID*               1675               0-5.726538539E-017.6866373500E-01+
*       9.4616130480E-01               0
GRID*               1676               0-5.625837962E-018.0887859915E-01+
*       1.0137717379E+00               0
GRID*               1677               0-6.352376501E-017.9119532282E-01+
*       9.8948811476E-01               0
GRID*               1678               0-5.625837962E-017.4667581933E-01+
*       1.0399203853E+00               0
GRID*               1679               09.3442050695E-015.6206699857E-01+
*       -6.584134493E-02               0
GRID*               1680               0-6.250836106E-018.7136694813E-01+
*       1.0309105128E+00               0
GRID*               1681               0-6.351536683E-018.9335486380E-01+
*       9.3715143237E-01               0
GRID*               1682               0-5.941982680E-019.4121519736E-01+
*       9.7006022883E-01               0
GRID*               1683               0-5.942822498E-018.3905565637E-01+
*       1.0223969112E+00               0
GRID*               1684               0-6.043523074E-018.6104357205E-01+
*       9.2863783075E-01               0
GRID*               1685               0-6.958807856E-016.7809929280E-01+
*       9.6025781449E-01               0
GRID*               1686               0-6.435346394E-017.2866412855E-01+
*       9.3662584306E-01               0
GRID*               1687               0-6.976538539E-017.6261840274E-01+
*       9.1936100573E-01               0
GRID*               1688               0-6.875837962E-017.4063048707E-01+
*       1.0131200862E+00               0
GRID*               1689               0-6.334645818E-017.0667621288E-01+
*       1.0303849235E+00               0
GRID*               1690               0-6.344543503E-016.6267174551E-01+
*       1.0806137208E+00               0
GRID*               1691               0-5.635735647E-016.4058702626E-01+
*       1.1245599859E+00               0
GRID*               1692               0-5.625837962E-016.8459149363E-01+
*       1.0743311887E+00               0
GRID*               1693               0-6.261573610E-017.2520293977E-01+
*       1.1334759925E+00               0
GRID*               1694               05.6174112026E-01-8.007217782E-01+
*       4.9496561868E-01               0
GRID*               1695               05.6174112026E-01-8.044117492E-01+
*       4.2271363183E-01               0
GRID*               1696               05.7219114330E-01-6.983660990E-01+
*       5.5064128960E-01               0
GRID*               1697               06.3393226355E-01-7.518143562E-01+
*       4.7545577743E-01               0
GRID*               1698               05.7219114330E-01-7.020560699E-01+
*       4.7838930275E-01               0
GRID*               1699               0-5.708807856E-016.8414462506E-01+
*       9.8705811356E-01               0
GRID*               1700               06.8922677026E-01-6.761121531E-01+
*       9.6464105771E-01               0
GRID*               1701               06.4142318567E-01-7.278985929E-01+
*       9.3873284553E-01               0
GRID*               1702               07.0219641541E-01-7.638400058E-01+
*       9.1708476814E-01               0
GRID*               1703               06.9064033523E-01-7.386618247E-01+
*       1.0125587248E+00               0
GRID*               1704               06.2986710548E-01-7.027204118E-01+
*       1.0342068022E+00               0
GRID*               1705               06.4283675064E-01-7.904482645E-01+
*       9.8665051265E-01               0
GRID*               1706               05.6422677026E-01-6.200731591E-01+
*       1.0258521606E+00               0
GRID*               1707               06.3509966204E-01-6.637615012E-01+
*       1.0922322977E+00               0
GRID*               1708               05.7087289178E-01-6.436639201E-01+
*       1.1317953232E+00               0
GRID*               1709               05.6564033523E-01-6.826228308E-01+
*       1.0737698277E+00               0
GRID*               1710               06.3651322701E-01-7.263111728E-01+
*       1.1401499648E+00               0
GRID*               1711               05.7719641541E-01-8.320881182E-01+
*       9.1773641905E-01               0
GRID*               1712               05.7719641541E-01-7.698853381E-01+
*       9.4388506708E-01               0
GRID*               1713               05.6564033523E-01-8.069099371E-01+
*       1.0132103757E+00               0
GRID*               1714               05.6564033523E-01-7.447071570E-01+
*       1.0393590238E+00               0
GRID*               1715               05.3178794829E-01-8.786541659E-01+
*       9.5288729069E-01               0
GRID*               1716               06.0898436371E-01-8.621924934E-01+
*       9.2632742760E-01               0
GRID*               1717               05.9742828352E-01-8.370143123E-01+
*       1.0218013843E+00               0
GRID*               1718               05.6422677026E-01-6.821574853E-01+
*       9.9144135665E-01               0
GRID*               1719               0-6.476003288E-017.1401279282E-01+
*       -2.010193014E-01               0
GRID*               1720               0-6.169753847E-016.6457001863E-01+
*       -2.010193014E-01               0
GRID*               1721               0-5.879181392E-017.5094167502E-01+
*       -2.003108331E-01               0
GRID*               1722               0-6.185430834E-018.0038444920E-01+
*       -2.003108331E-01               0
GRID*               1723               0-6.306499225E-017.3936313291E-01+
*       -1.513301345E-01               0
GRID*               1724               0-6.464522311E-016.1784694053E-01+
*       -2.010193014E-01               0
GRID*               1725               0-7.038724455E-016.2326323599E-01+
*       -2.010193014E-01               0
GRID*               1726               0-6.969134226E-015.5417215611E-01+
*       -2.023525060E-01               0
GRID*               1727               0-6.394932082E-015.4875586064E-01+
*       -2.023525060E-01               0
GRID*               1728               0-6.527481451E-015.8390039665E-01+
*       -1.533718074E-01               0
GRID*               1729               05.3158715534E-01-7.373414258E-02+
*       1.1526567568E+00               0
GRID*               1730               05.3158715534E-01-1.256231006E-01+
*       1.1374209851E+00               0
GRID*               1731               05.9408845029E-01-7.372907766E-02+
*       1.1526572490E+00               0
GRID*               1732               0-7.238026255E-016.7412060268E-01+
*       -2.010193014E-01               0
GRID*               1733               0-7.961173820E-016.4180323700E-01+
*       -1.949394318E-01               0
GRID*               1734               0-7.761872020E-015.9094587032E-01+
*       -1.949394318E-01               0
GRID*               1735               0-7.320219245E-016.2067411085E-01+
*       -1.459587332E-01               0
GRID*               1736               0-6.958807856E-016.3401981041E-01+
*       8.8834291097E-01               0
GRID*               1737               05.3140799346E-01-3.936857411E-02+
*       1.1528600566E+00               0
GRID*               1738               05.9390928841E-01-3.936350919E-02+
*       1.1528605487E+00               0
GRID*               1739               05.9390669850E-011.4705906621E-02+
*       1.1528605479E+00               0
GRID*               1740               0-7.048535840E-015.9572650750E-01+
*       -7.601930138E-02               0
GRID*               1741               0-7.048535840E-016.7264958442E-01+
*       -7.601930138E-02               0
GRID*               1742               0-6.775338497E-016.3700700621E-01+
*       4.1790477137E-02               0
GRID*               1743               0-6.775338497E-015.6008392928E-01+
*       4.1790477137E-02               0
GRID*               1744               0-6.323874336E-016.1734889832E-01+
*       -3.422882425E-02               0
GRID*               1745               0-7.771683405E-015.6340914182E-01+
*       -6.993943182E-02               0
GRID*               1746               0-6.978945611E-015.2663542761E-01+
*       -7.735250597E-02               0
GRID*               1747               0-7.250629016E-015.5158303097E-01+
*       -1.472919378E-01               0
GRID*               1748               06.9169837674E-01-1.441097920E-01+
*       9.9399248217E-02               0
GRID*               1749               06.9169837674E-01-1.813909452E-01+
*       2.8592580909E-02               0
GRID*               1750               06.8575774973E-01-2.434821505E-01+
*       3.9014460507E-02               0
GRID*               1751               06.8575774973E-01-2.062009972E-01+
*       1.0982112782E-01               0
GRID*               1752               06.2745612648E-01-1.941038650E-01+
*       6.7607041415E-02               0
GRID*               1753               05.6669837674E-01-1.289721181E-01+
*       1.0029034649E-01               0
GRID*               1754               06.2718969824E-01-1.290754688E-01+
*       1.5089128181E-01               0
GRID*               1755               05.6049132150E-01-1.260349271E-01+
*       1.9399646649E-01               0
GRID*               1756               05.6075774973E-01-1.910633233E-01+
*       1.1071222609E-01               0
GRID*               1757               06.2124907123E-01-1.911666740E-01+
*       1.6131316141E-01               0
GRID*               1758               05.3011491255E-019.7364090183E-01+
*       1.5441166362E-01               0
GRID*               1759               05.9226621400E-019.7364090183E-01+
*       1.9168628779E-01               0
GRID*               1760               05.3246130483E-019.6172944517E-01+
*       1.9102271447E-01               0
GRID*               1761               05.6257621738E-019.3537034700E-01+
*       1.9543437809E-01               0
GRID*               1762               05.9461260628E-019.6172944517E-01+
*       2.2829733864E-01               0
GRID*               1763               05.7137425787E-01-3.910309448E-01+
*       5.1634443845E-02               0
GRID*               1764               06.3914795818E-01-3.607983448E-01+
*       -2.342915645E-02               0
GRID*               1765               05.6777370031E-01-3.543827846E-01+
*       -7.506360030E-02               0
GRID*               1766               05.6075774973E-01-3.204052274E-01+
*       3.9014460507E-02               0
GRID*               1767               06.3213200760E-01-3.268207876E-01+
*       9.0648904352E-02               0
GRID*               1768               06.2853145004E-01-2.901726274E-01+
*       -3.604913979E-02               0
GRID*               1769               0-1.409388117E-019.1270662157E-01+
*       -3.107065768E-02               0
GRID*               1770               0-1.194744430E-019.1373472451E-01+
*       -9.143851382E-02               0
GRID*               1771               0-1.169720556E-018.8204859188E-01+
*       -6.036785614E-02               0
GRID*               1772               0-1.755620327E-019.0978049677E-01+
*       -3.033976512E-02               0
GRID*               1773               0-1.780644201E-019.4146662941E-01+
*       -6.141042279E-02               0
GRID*               1774               0-1.540976639E-019.1080859971E-01+
*       -9.070762126E-02               0
GRID*               1775               0-8.346812912E-029.4153834741E-01+
*       -6.036785614E-02               0
GRID*               1776               0-1.202273871E-019.4153834741E-01+
*       -1.228416497E-01               0
GRID*               1777               0-4.775384277E-029.4153834741E-01+
*       -1.228357906E-01               0
GRID*               1778               06.9637425787E-01-3.910309448E-01+
*       5.1634443845E-02               0
GRID*               1779               06.9637425787E-01-3.491941839E-01+
*       1.2692264475E-01               0
GRID*               1780               06.8575774973E-01-3.204052274E-01+
*       3.9014460507E-02               0
GRID*               1781               06.8575774973E-01-2.785684665E-01+
*       1.1430266141E-01               0
GRID*               1782               0-1.108122986E-019.6918701777E-01+
*       -2.194531326E-01               0
GRID*               1783               0-1.843417104E-019.6918701777E-01+
*       -2.194531326E-01               0
GRID*               1784               0-1.500760956E-019.0598658074E-01+
*       -2.194531326E-01               0
GRID*               1785               05.6075774973E-01-2.434821505E-01+
*       3.9014460507E-02               0
GRID*               1786               05.7137425787E-01-3.448469150E-01+
*       1.3695215350E-01               0
GRID*               1787               05.6075774973E-01-2.742211976E-01+
*       1.2433217017E-01               0
GRID*               1788               0-6.256244065E-019.2249339600E-01+
*       7.3858812792E-01               0
GRID*               1789               0-6.256187042E-019.2249339600E-01+
*       6.9288296919E-01               0
GRID*               1790               0-5.936298984E-019.6717027089E-01+
*       7.2836107926E-01               0
GRID*               1791               0-5.942543049E-018.8966366689E-01+
*       7.1694920717E-01               0
GRID*               1792               0-5.936241961E-019.6717027089E-01+
*       6.8265592052E-01               0
GRID*               1793               0-6.118076400E-01-8.252206283E-01+
*       -1.203339733E-01               0
GRID*               1794               0-6.242335896E-01-7.378264221E-01+
*       -6.877849807E-02               0
GRID*               1795               0-6.140625174E-01-7.896059603E-01+
*       -1.984445248E-01               0
GRID*               1796               0-6.896776048E-01-8.537908413E-01+
*       -1.993125957E-01               0
GRID*               1797               0-6.998486770E-01-8.020113032E-01+
*       -6.964656900E-02               0
GRID*               1798               0-7.021035545E-01-7.663966351E-01+
*       -1.477571206E-01               0
GRID*               1799               0-6.563609354E-019.6906478453E-01+
*       7.2823818935E-01               0
GRID*               1800               0-7.188609354E-019.6906478453E-01+
*       7.2823818935E-01               0
GRID*               1801               0-6.563552331E-019.6906478453E-01+
*       6.8253303062E-01               0
GRID*               1802               0-6.985796235E-019.6723892289E-01+
*       -2.243462662E-01               0
GRID*               1803               0-7.721090352E-019.6723892289E-01+
*       -2.243462662E-01               0
GRID*               1804               0-7.338668583E-019.0488527634E-01+
*       -2.243462662E-01               0
GRID*               1805               0-6.295823536E-019.5163038237E-01+
*       6.2426945111E-01               0
GRID*               1806               0-6.302124624E-018.7412377837E-01+
*       6.5856273776E-01               0
GRID*               1807               0-6.566232660E-019.6964015964E-01+
*       6.5820261065E-01               0
GRID*               1808               0-6.612170242E-019.2127054201E-01+
*       6.2388237922E-01               0
GRID*               1809               0-6.572533748E-018.9213355564E-01+
*       6.9249589730E-01               0
GRID*               1810               0-6.295588730E-019.5163038237E-01+
*       5.5625727138E-01               0
GRID*               1811               0-6.920880559E-019.5163038237E-01+
*       5.9497460984E-01               0
GRID*               1812               0-7.189914637E-019.7115144103E-01+
*       5.6052866943E-01               0
GRID*               1813               0-6.564622809E-019.7115144103E-01+
*       5.2181133098E-01               0
GRID*               1814               0-6.610795196E-019.2278182340E-01+
*       5.5550327927E-01               0
GRID*               1815               0-6.920572127E-018.3302148714E-01+
*       4.3759313153E-01               0
GRID*               1816               0-6.920572127E-018.7883686205E-01+
*       4.6787158954E-01               0
GRID*               1817               0-6.920880559E-018.9356895725E-01+
*       5.5546197969E-01               0
GRID*               1818               0-6.920880559E-018.4775358235E-01+
*       5.2518352168E-01               0
GRID*               1819               0-6.341452686E-018.8852866954E-01+
*       5.0235882953E-01               0
GRID*               1820               0-4.727697768E-01-8.056961181E-01+
*       -5.245772721E-02               0
GRID*               1821               0-4.576993703E-01-8.443047825E-01+
*       -8.164794476E-02               0
GRID*               1822               0-4.849295935E-01-8.847625105E-01+
*       -2.919021755E-02               0
GRID*               1823               0-5.257672711E-01-8.832347731E-01+
*       -2.320343144E-02               0
GRID*               1824               0-4.985370479E-01-8.427770450E-01+
*       -7.566115865E-02               0
GRID*               1825               0-5.106968646E-01-9.218434375E-01+
*       -5.239364899E-02               0
GRID*               1826               0-6.003524769E-028.5609008478E-01+
*       -6.036785614E-02               0
GRID*               1827               0-1.962087313E-048.9377063683E-01+
*       -6.036785614E-02               0
GRID*               1828               07.8719047530E-028.7145772861E-01+
*       -7.126533879E-02               0
GRID*               1829               01.8880008571E-028.3377717655E-01+
*       -7.126533879E-02               0
GRID*               1830               0-1.659243056E-028.6076378660E-01+
*       -1.316331949E-01               0
GRID*               1831               0-4.550998771E-01-6.719451980E-01+
*       -1.774577272E-01               0
GRID*               1832               0-4.148591268E-01-7.446169830E-01+
*       -1.774577272E-01               0
GRID*               1833               0-4.168366195E-01-5.541086767E-01+
*       -1.923160879E-01               0
GRID*               1834               0-4.072762960E-01-6.474018688E-01+
*       -1.197738151E-01               0
GRID*               1835               0-3.765958693E-01-6.267804617E-01+
*       -1.923160879E-01               0
GRID*               1836               0-5.609893561E-01-7.328743912E-01+
*       4.6660267440E-03               0
GRID*               1837               0-5.632442335E-01-6.972597232E-01+
*       -7.344452481E-02               0
GRID*               1838               0-4.727697768E-01-7.287730412E-01+
*       -5.245772721E-02               0
GRID*               1839               0-5.337591329E-01-7.693397401E-01+
*       -4.779170046E-02               0
GRID*               1840               0-5.360140103E-01-7.337250721E-01+
*       -1.259022520E-01               0
GRID*               1841               0-4.912187961E-01-6.640327889E-01+
*       -6.184384434E-02               0
GRID*               1842               0-4.639885729E-01-7.004981378E-01+
*       -1.143015715E-01               0
GRID*               1843               0-5.544630296E-01-6.689848198E-01+
*       -1.352883691E-01               0
GRID*               1844               08.3186135999E-02-4.961079840E-01+
*       -1.808886497E-01               0
GRID*               1845               01.5691175890E-01-5.008610280E-01+
*       -1.808886497E-01               0
GRID*               1846               01.2169128111E-01-4.398435603E-01+
*       -1.860458823E-01               0
GRID*               1847               01.2512742462E-01-4.650157799E-01+
*       -1.169345320E-01               0
GRID*               1848               01.9541690400E-01-4.445966044E-01+
*       -1.860458823E-01               0
GRID*               1849               01.9446694233E-01-2.852628341E-01+
*       -6.211736579E-02               0
GRID*               1850               02.5671267356E-01-3.237820122E-01+
*       -6.211736579E-02               0
GRID*               1851               02.0691662985E-01-3.961669300E-01+
*       -6.104588233E-02               0
GRID*               1852               01.4467089861E-01-3.576477519E-01+
*       -6.104588233E-02               0
GRID*               1853               02.1342861344E-01-3.363664385E-01+
*       -1.231632481E-01               0
GRID*               1854               02.1023511409E-01-3.050716856E-01+
*       -1.871173658E-01               0
GRID*               1855               01.7566127139E-01-2.366031365E-01+
*       -1.871173658E-01               0
GRID*               1856               01.2586522767E-01-3.089880542E-01+
*       -1.860458823E-01               0
GRID*               1857               01.6043907037E-01-3.774566033E-01+
*       -1.860458823E-01               0
GRID*               1858               06.1962016884E-02-1.803664016E-01+
*       -1.740579789E-01               0
GRID*               1859               01.4952540265E-01-2.077447859E-01+
*       -1.111753447E-01               0
GRID*               1860               01.6727574782E-01-1.609699306E-01+
*       -1.964693950E-01               0
GRID*               1861               01.4113987908E-01-1.321115800E-01+
*       -1.205273739E-01               0
GRID*               1862               02.5483913359E-01-1.883483149E-01+
*       -1.335867608E-01               0
GRID*               1863               08.0396798908E-02-1.526106602E-01+
*       -4.905797893E-02               0
GRID*               1864               08.0283865571E-02-7.583798539E-02+
*       -4.905797893E-02               0
GRID*               1865               01.8559759651E-01-5.644151440E-02+
*       -7.146939502E-02               0
GRID*               1866               01.8571052985E-01-1.332141893E-01+
*       -7.146939502E-02               0
GRID*               1867               02.0712849223E-01-9.850416857E-02+
*       -1.964693950E-01               0
GRID*               1868               02.0973518910E-01-2.672293446E-02+
*       -1.350716341E-01               0
GRID*               1869               01.7041007131E-01-1.251199399E-02+
*       -1.886022391E-01               0
GRID*               1870               01.5612404393E-01-6.453291725E-02+
*       -1.883150109E-01               0
GRID*               1871               01.9544916172E-01-7.874385772E-02+
*       -1.347844059E-01               0
GRID*               1872               01.5873074079E-017.2483168601E-03+
*       -1.269172499E-01               0
GRID*               1873               0-1.151363244E-018.1767401284E-01+
*       -6.036785614E-02               0
GRID*               1874               0-1.715122293E-018.5541562045E-01+
*       -6.036785614E-02               0
GRID*               1875               0-8.294095536E-01-8.095763422E-01+
*       -1.576460846E-01               0
GRID*               1876               0-8.521163070E-01-8.408491691E-01+
*       -1.576462127E-01               0
GRID*               1877               0-8.720335149E-01-8.104230170E-01+
*       -1.875834744E-01               0
GRID*               1878               0-8.203426032E-01-8.314281909E-01+
*       -1.785625813E-01               0
GRID*               1879               0-8.947402682E-01-8.416958439E-01+
*       -1.875836025E-01               0
GRID*               1880               03.3121883008E-01-2.115287729E-02+
*       -1.802232805E-01               0
GRID*               1881               02.9806453061E-014.8982350210E-02+
*       -1.802232805E-01               0
GRID*               1882               02.4750972567E-01-3.624110231E-02+
*       -1.964693950E-01               0
GRID*               1883               02.8066402514E-01-1.063763298E-01+
*       -1.964693950E-01               0
GRID*               1884               02.9700841496E-01-2.749165651E-02+
*       -1.266926755E-01               0
GRID*               1885               02.9862938700E-01-9.661979225E-03+
*       -5.522328053E-02               0
GRID*               1886               03.6935800322E-01-1.149057692E-02+
*       -1.253695859E-01               0
GRID*               1887               03.2042417031E-01-7.888435215E-02+
*       -7.014630538E-02               0
GRID*               1888               02.4807458205E-01-9.488543175E-02+
*       -7.146939502E-02               0
GRID*               1889               03.1880319828E-01-9.671402944E-02+
*       -1.416157004E-01               0
GRID*               1890               06.8549132150E-01-1.419978744E-01+
*       3.2446885571E-01               0
GRID*               1891               06.8549132150E-01-9.010891342E-02+
*       3.0923309257E-01               0
GRID*               1892               06.8549132150E-01-1.110604882E-01+
*       2.5673204491E-01               0
GRID*               1893               0-5.312496797E-01-5.876657397E-01+
*       1.5250629950E+00               0
GRID*               1894               0-5.937503164E-01-6.160086602E-01+
*       1.5006719618E+00               0
GRID*               1895               0-5.937496248E-01-5.575808818E-01+
*       1.5472669199E+00               0
GRID*               1896               0-7.974119671E-014.5690573261E-01+
*       -5.262701987E-02               0
GRID*               1897               0-8.245803076E-014.8185333596E-01+
*       -1.225664517E-01               0
GRID*               1898               0-7.453065283E-014.4507962176E-01+
*       -1.299795258E-01               0
GRID*               1899               0-7.201790945E-01-1.564670022E-01+
*       3.7422195591E-01               0
GRID*               1900               0-7.201790945E-01-1.045780412E-01+
*       3.5898619276E-01               0
GRID*               1901               0-6.576783252E-01-1.564696567E-01+
*       3.7422337905E-01               0
GRID*               1902               0-1.054218890E+009.8340926088E-01+
*       -3.030195179E-02               0
GRID*               1903               0-1.054405452E+009.5770314811E-01+
*       -6.124893682E-02               0
GRID*               1904               0-1.018905729E+009.8340926088E-01+
*       -9.298884831E-02               0
GRID*               1905               0-9.190541487E-013.5215258800E-01+
*       -1.776270199E-01               0
GRID*               1906               0-8.537038154E-013.0918307305E-01+
*       -1.776270199E-01               0
GRID*               1907               0-8.661518091E-013.7715053002E-01+
*       -1.776270199E-01               0
GRID*               1908               0-8.654253182E-016.1861995870E-01+
*       -1.532730488E-01               0
GRID*               1909               0-8.540801857E-015.6709017282E-01+
*       -1.332250700E-01               0
GRID*               1910               0-9.151688230E-015.9735338635E-01+
*       -1.466192552E-01               0
GRID*               1911               0-9.083028526E-016.4119404697E-01+
*       -1.869197052E-01               0
GRID*               1912               0-8.472142153E-016.1093083345E-01+
*       -1.735255200E-01               0
GRID*               1913               0-8.969577201E-015.8966426109E-01+
*       -1.668717264E-01               0
GRID*               1914               07.0147436055E-01-1.038295794E-01+
*       1.7538301202E-01               0
GRID*               1915               06.4317273730E-01-9.173244718E-02+
*       1.3316892562E-01               0
GRID*               1916               06.8549132150E-01-1.411726010E-01+
*       1.9310536821E-01               0
GRID*               1917               06.3696568205E-01-8.879525625E-02+
*       2.2687504562E-01               0
GRID*               1918               05.7647436055E-01-8.869190552E-02+
*       1.7627411029E-01               0
GRID*               1919               05.7647436055E-01-3.923474785E-02+
*       2.3678572312E-01               0
GRID*               1920               05.6049132150E-01-7.657776946E-02+
*       2.5450807931E-01               0
GRID*               1921               08.0458791544E-011.4472006251E-01+
*       -5.058066125E-02               0
GRID*               1922               08.0458791544E-016.7796985583E-02+
*       -5.058066125E-02               0
GRID*               1923               07.5437712365E-011.6077497323E-01+
*       -6.223393548E-02               0
GRID*               1924               08.0896503909E-017.4725804969E-02+
*       -1.128145967E-01               0
GRID*               1925               07.5437712365E-018.3851896309E-02+
*       -6.223393548E-02               0
GRID*               1926               06.8549132150E-01-1.720522235E-01+
*       2.6693075649E-01               0
GRID*               1927               07.5919617949E-013.5628854303E-02+
*       -1.071295808E-01               0
GRID*               1928               07.0460826404E-014.4754945643E-02+
*       -5.654891959E-02               0
GRID*               1929               07.0898538769E-015.1683765029E-02+
*       -1.187828551E-01               0
GRID*               1930               05.9294966977E-01-1.556941019E-01+
*       3.7453837533E-01               0
GRID*               1931               05.9094022197E-01-1.398318508E-01+
*       2.9466549829E-01               0
GRID*               1932               06.2299209079E-01-1.420005289E-01+
*       3.2447027886E-01               0
GRID*               1933               05.9659854536E-01-1.854408339E-01+
*       3.8736872651E-01               0
GRID*               1934               05.6454667654E-01-1.832721559E-01+
*       3.5756394594E-01               0
GRID*               1935               05.9458909756E-01-1.695785829E-01+
*       3.0749584946E-01               0
GRID*               1936               06.8549132150E-01-2.135400704E-01+
*       1.9758690181E-01               0
GRID*               1937               01.1391449845E+00-8.331929675E-01+
*       -1.148492753E-01               0
GRID*               1938               01.1164428425E+00-8.644619146E-01+
*       -1.148487386E-01               0
GRID*               1939               01.1164385011E+00-8.644651070E-01+
*       -1.565159851E-01               0
GRID*               1940               0-8.941339860E-01-8.449796789E-01+
*       -2.079949787E-02               0
GRID*               1941               0-8.714296369E-01-8.137091022E-01+
*       -6.246640500E-02               0
GRID*               1942               0-8.714288603E-01-8.137071640E-01+
*       -2.079949787E-02               0
GRID*               1943               01.1035719414E+00-8.936706622E-01+
*       -2.285589679E-01               0
GRID*               1944               01.0847717544E+00-9.436356849E-01+
*       -2.285589679E-01               0
GRID*               1945               01.1159600657E+00-9.111025591E-01+
*       -2.277533514E-01               0
GRID*               1946               01.0789904566E+00-9.047032667E-01+
*       -2.063123193E-01               0
GRID*               1947               05.6049132150E-01-2.091928014E-01+
*       2.0761641056E-01               0
GRID*               1948               05.6049132150E-01-1.394761256E-01+
*       2.6465204267E-01               0
GRID*               1949               05.6049132150E-01-1.992043041E-01+
*       2.9294301990E-01               0
GRID*               1950               01.1778626986E+00-9.767490434E-01+
*       -1.253857721E-01               0
GRID*               1951               01.2255504774E+00-9.767490434E-01+
*       -1.877307939E-01               0
GRID*               1952               01.1993335430E+00-9.758926153E-01+
*       -2.193969222E-01               0
GRID*               1953               01.1516457642E+00-9.758926153E-01+
*       -1.570519005E-01               0
GRID*               1954               01.1748840204E+00-9.526416587E-01+
*       -1.571277161E-01               0
GRID*               1955               0-9.477685787E-014.2675235412E-01+
*       -1.107186577E-01               0
GRID*               1956               0-1.021998793E+004.0355501537E-01+
*       -1.830916379E-01               0
GRID*               1957               0-1.029562621E+003.0107466861E-01+
*       -1.834403166E-01               0
GRID*               1958               0-9.553324066E-013.2427200736E-01+
*       -1.110673365E-01               0
GRID*               1959               0-1.058277051E+003.7567443472E-01+
*       -1.165319545E-01               0
GRID*               1960               0-5.649546040E-01-3.005374770E-01+
*       8.3343274822E-02               0
GRID*               1961               0-6.271550164E-01-2.438325804E-01+
*       1.1880433332E-01               0
GRID*               1962               0-5.622004124E-01-1.740643342E-01+
*       3.5461058494E-02               0
GRID*               1963               0-5.639159027E-01-2.315789177E-01+
*       1.8790460620E-04               0
GRID*               1964               0-6.288705067E-01-3.013471639E-01+
*       8.3531179428E-02               0
GRID*               1965               0-6.261163152E-01-1.748740211E-01+
*       3.5648963100E-02               0
GRID*               1966               07.0205803673E-017.7904773996E-01+
*       3.0386461606E-01               0
GRID*               1967               07.0205803673E-018.3798056689E-01+
*       3.4292947965E-01               0
GRID*               1968               07.0205803673E-018.3502253184E-01+
*       2.6643157933E-01               0
GRID*               1969               0-9.708855571E-019.8340926088E-01+
*       -3.030195179E-02               0
GRID*               1970               0-6.812674370E-01-5.498726963E-01+
*       1.9965921023E-01               0
GRID*               1971               0-6.812674370E-01-5.072040206E-01+
*       1.4301767910E-01               0
GRID*               1972               0-6.899546040E-01-4.187237306E-01+
*       1.5265101377E-01               0
GRID*               1973               0-6.899546040E-01-4.613924063E-01+
*       2.0929254489E-01               0
GRID*               1974               0-6.212220410E-01-4.587860131E-01+
*       1.5705321498E-01               0
GRID*               1975               0-6.564367736E-019.6762371686E-01+
*       7.6077697741E-01               0
GRID*               1976               0-7.189367736E-019.6762371686E-01+
*       7.6077697741E-01               0
GRID*               1977               0-6.877977089E-019.3668850139E-01+
*       7.3901516675E-01               0
GRID*               1978               0-5.314843619E-019.6611124572E-01+
*       7.6273570844E-01               0
GRID*               1979               0-5.939834518E-019.6405581996E-01+
*       8.0802319681E-01               0
GRID*               1980               0-5.939843619E-019.6611124572E-01+
*       7.6273570844E-01               0
GRID*               1981               0-6.851296485E-01-5.013139080E-01+
*       3.2111058941E-01               0
GRID*               1982               0-6.163970855E-01-4.987075148E-01+
*       2.6887125949E-01               0
GRID*               1983               0-6.250842525E-01-4.102272249E-01+
*       2.7850459416E-01               0
GRID*               1984               0-5.620664395E-01-2.704185524E-01+
*       4.3723305530E-04               0
GRID*               1985               0-6.270210435E-01-3.401867986E-01+
*       8.3780507877E-02               0
GRID*               1986               0-6.259823422E-01-2.712282393E-01+
*       6.2513766151E-04               0
GRID*               1987               0-5.562674370E-01-4.659408439E-01+
*       7.3709940155E-02               0
GRID*               1988               0-5.649546040E-01-3.774605539E-01+
*       8.3343274822E-02               0
GRID*               1989               0-5.618261346E-01-3.861980191E-01+
*       6.3754957578E-04               0
GRID*               1990               0-6.180935716E-01-4.675234784E-01+
*       7.4347489731E-02               0
GRID*               1991               0-6.267807386E-01-3.790431884E-01+
*       8.3980824398E-02               0
GRID*               1992               0-6.559980477E-019.6648323537E-01+
*       7.8402242359E-01               0
GRID*               1993               0-6.559971376E-019.6442780962E-01+
*       8.2930991197E-01               0
GRID*               1994               0-7.184980477E-019.6648323537E-01+
*       7.8402242359E-01               0
GRID*               1995               01.2167738743E+00-8.463935809E-01+
*       -5.121430573E-02               0
GRID*               1996               01.1556308133E+00-8.357082421E-01+
*       -7.159184425E-02               0
GRID*               1997               01.1888569389E+00-8.354685074E-01+
*       -2.037753852E-02               0
GRID*               1998               01.2186590337E+00-8.299056576E-01+
*       -2.115543901E-02               0
GRID*               1999               01.1854329080E+00-8.301453924E-01+
*       -7.236974474E-02               0
GRID*               2000               01.1575159726E+00-8.192203189E-01+
*       -4.153297753E-02               0
GRID*               2001               01.0879723875E+003.0225370185E-01+
*       -1.738820219E-01               0
GRID*               2002               01.0249317352E+002.6301333785E-01+
*       -1.738820219E-01               0
GRID*               2003               01.1167449887E+002.6080631658E-01+
*       -1.924505524E-01               0
GRID*               2004               01.0537043364E+002.2156595258E-01+
*       -1.924505524E-01               0
GRID*               2005               01.2255504774E+00-9.767490434E-01+
*       -1.252307939E-01               0
GRID*               2006               08.8226401159E-013.5704962703E-01+
*       -5.677638565E-02               0
GRID*               2007               09.6342937730E-013.5564456228E-01+
*       -1.056584075E-01               0
GRID*               2008               09.5989987726E-013.0918461266E-01+
*       -4.888202188E-02               0
GRID*               2009               09.1519240564E-012.4070382033E-01+
*       -5.554924791E-02               0
GRID*               2010               09.1872190569E-012.8716376996E-01+
*       -1.123256336E-01               0
GRID*               2011               09.9635777135E-012.3929875558E-01+
*       -1.044312698E-01               0
GRID*               2012               09.4816614491E-013.9613981383E-01+
*       -5.677638565E-02               0
GRID*               2013               01.0910842075E+008.6438847893E-01+
*       -1.866666111E-01               0
GRID*               2014               01.0870884691E+008.8441136858E-01+
*       -2.055904424E-01               0
GRID*               2015               01.0694398805E+008.7117627584E-01+
*       -1.855910904E-01               0
GRID*               2016               01.0919317135E+008.8780895343E-01+
*       -1.558519855E-01               0
GRID*               2017               01.1095803021E+009.0104404617E-01+
*       -1.758513375E-01               0
GRID*               2018               01.0879359752E+009.0783184308E-01+
*       -1.747758169E-01               0
GRID*               2019               09.8656120781E-013.2847766340E-01+
*       -1.738820219E-01               0
GRID*               2020               09.0892534214E-013.7634267777E-01+
*       -1.817763856E-01               0
GRID*               2021               09.4185373619E-012.5999687107E-01+
*       -1.805492479E-01               0
GRID*               2022               01.0910819952E+008.6439011150E-01+
*       -2.283329815E-01               0
GRID*               2023               01.0694376683E+008.7117790842E-01+
*       -2.272574609E-01               0
GRID*               2024               01.0132086640E+008.8722612168E-01+
*       -1.878996750E-01               0
GRID*               2025               01.0499242612E+008.7530444735E-01+
*       -2.295663417E-01               0
GRID*               2026               01.0132086640E+008.8722612168E-01+
*       -2.295663417E-01               0
GRID*               2027               01.0327220711E+008.8309958275E-01+
*       -1.855907942E-01               0
GRID*               2028               05.6803557793E-01-2.981757681E-02+
*       1.5099748715E+00               0
GRID*               2029               05.6803557793E-01-5.908888271E-02+
*       1.5783522185E+00               0
GRID*               2030               05.6803557793E-01-9.896801915E-02+
*       1.5107668372E+00               0
GRID*               2031               01.0224502379E+002.7005283247E-01+
*       -4.888202188E-02               0
GRID*               2032               01.0512228391E+002.2860544720E-01+
*       -6.745055242E-02               0
GRID*               2033               0-8.093987601E-01-4.547881020E-01+
*       -1.911142984E-01               0
GRID*               2034               0-8.354435643E-01-4.394081126E-01+
*       -1.228670064E-01               0
GRID*               2035               0-8.914721753E-01-4.120442892E-01+
*       -1.817527080E-01               0
GRID*               2036               0-8.634404798E-01-4.845305930E-01+
*       -1.950782973E-01               0
GRID*               2037               07.1741424060E-01-1.726749274E-01+
*       3.7644127662E-01               0
GRID*               2038               06.5491500989E-01-1.726775820E-01+
*       3.7644269976E-01               0
GRID*               2039               06.5290556210E-01-1.568153309E-01+
*       2.9656982272E-01               0
GRID*               2040               06.2299002654E-01-9.010384777E-02+
*       3.0923259912E-01               0
GRID*               2041               05.9294760553E-01-1.037974208E-01+
*       3.5930069559E-01               0
GRID*               2042               07.0147436055E-01-3.399621774E-02+
*       1.7309159637E-01               0
GRID*               2043               07.0147436055E-01-7.371746658E-02+
*       2.3900968872E-01               0
GRID*               2044               07.0147436055E-01-1.221749056E-02+
*       2.3678572304E-01               0
GRID*               2045               0-8.580003693E-01-3.303496550E-01+
*       -1.817527080E-01               0
GRID*               2046               0-7.759269541E-01-3.730934678E-01+
*       -1.911142984E-01               0
GRID*               2047               0-7.474423854E-01-2.936814937E-01+
*       -1.924717977E-01               0
GRID*               2048               0-8.069589956E-01-3.599961386E-01+
*       -1.242245057E-01               0
GRID*               2049               0-9.463827758E-01-3.528564144E-01+
*       -1.817527080E-01               0
GRID*               2050               06.9270830014E-016.6976057997E-01+
*       -7.197369008E-02               0
GRID*               2051               06.3026366264E-017.0818621837E-01+
*       -6.113835598E-02               0
GRID*               2052               06.8755536249E-017.3073333071E-01+
*       1.0835334102E-02               0
GRID*               2053               07.5210660264E-017.1328278197E-01+
*       -7.128471773E-02               0
GRID*               2054               06.9481490279E-016.9073566963E-01+
*       -1.432584078E-01               0
GRID*               2055               0-5.635735647E-016.4353634205E-01+
*       1.1989488618E+00               0
GRID*               2056               0-5.635735647E-017.0564957115E-01+
*       1.1577487732E+00               0
GRID*               2057               05.9067415721E-019.7364090183E-01+
*       1.1581525120E-01               0
GRID*               2058               05.6144083319E-018.2675552705E-01+
*       6.3173531962E-02               0
GRID*               2059               05.6144083319E-018.5010985923E-01+
*       1.1329493353E-01               0
GRID*               2060               05.6144083319E-017.8751651536E-01+
*       1.2121322217E-01               0
GRID*               2061               0-9.977131305E-01-4.616549819E-01+
*       -5.768522917E-02               0
GRID*               2062               0-9.639024030E-01-3.928053337E-01+
*       -5.675270802E-02               0
GRID*               2063               0-9.458117313E-01-2.755807204E-01+
*       -1.815051344E-01               0
GRID*               2064               0-9.863913809E-01-2.612670215E-01+
*       -1.217245215E-01               0
GRID*               2065               0-1.015828222E+00-2.947348300E-01+
*       -1.902193871E-01               0
GRID*               2066               0-9.169459351E-01-3.193886059E-01+
*       -1.132578425E-01               0
GRID*               2067               0-9.869624254E-01-3.385427154E-01+
*       -1.219720951E-01               0
GRID*               2068               0-6.569853419E-018.9155818053E-01+
*       7.1682631726E-01               0
GRID*               2069               0-5.652302658E-017.4147873854E-01+
*       7.6391901420E-01               0
GRID*               2070               0-6.283546723E-017.9423987759E-01+
*       7.6917050463E-01               0
GRID*               2071               0-5.631244065E-017.9222565295E-01+
*       7.2192476540E-01               0
GRID*               2072               0-5.599066319E-017.4637047631E-01+
*       6.7613178372E-01               0
GRID*               2073               0-6.251368977E-017.4838470095E-01+
*       7.2337752295E-01               0
GRID*               2074               0-6.230310384E-017.9913161536E-01+
*       6.8138327415E-01               0
GRID*               2075               0-5.652302658E-018.0317370797E-01+
*       8.0801904771E-01               0
GRID*               2076               0-5.631244065E-018.5392062238E-01+
*       7.6602479892E-01               0
GRID*               2077               0-5.311298984E-019.6717027089E-01+
*       7.2836107926E-01               0
GRID*               2078               0-5.626142603E-019.3328151661E-01+
*       7.4109678769E-01               0
GRID*               2079               02.1128296522E-016.7935477795E-02+
*       -6.360223909E-02               0
GRID*               2080               02.1109196932E-011.4455278943E-01+
*       -6.360223909E-02               0
GRID*               2081               02.8980967582E-011.6326974247E-01+
*       -6.067671552E-02               0
GRID*               2082               02.5154347878E-011.5460350479E-01+
*       -1.242789546E-01               0
GRID*               2083               02.8961867992E-012.3988705410E-01+
*       -6.067671552E-02               0
GRID*               2084               0-5.941026534E-01-6.474802357E-01+
*       1.4750563193E+00               0
GRID*               2085               0-5.316020166E-01-6.739184269E-01+
*       1.4486181029E+00               0
GRID*               2086               0-5.335106093E-01-6.822396136E-01+
*       1.4179848460E+00               0
GRID*               2087               0-5.960112461E-01-6.558014224E-01+
*       1.4444230624E+00               0
GRID*               2088               0-5.651126260E-01-6.231063330E-01+
*       1.4364303740E+00               0
GRID*               2089               04.0481986313E-011.9731355742E-01+
*       -1.856767155E-01               0
GRID*               2090               03.7330295434E-012.6959180363E-01+
*       -1.856767155E-01               0
GRID*               2091               03.3058754658E-012.0729925642E-01+
*       -1.856767155E-01               0
GRID*               2092               04.5557951849E-011.8967864117E-01+
*       -5.540249660E-02               0
GRID*               2093               05.1825929284E-011.5135117156E-01+
*       -5.540249660E-02               0
GRID*               2094               04.9518571727E-019.3071674219E-02+
*       -6.232308711E-02               0
GRID*               2095               04.3250594292E-011.3139914382E-01+
*       -6.232308711E-02               0
GRID*               2096               05.1344501011E-011.6749976886E-01+
*       -1.177255837E-01               0
GRID*               2097               0-3.179332607E-01-9.353890772E-01+
*       -1.137639819E-01               0
GRID*               2098               0-3.515757412E-01-9.353890772E-01+
*       -5.128874062E-02               0
GRID*               2099               0-3.137188375E-01-9.650232016E-01+
*       -3.388684897E-02               0
GRID*               2100               0-2.800763571E-01-9.650232016E-01+
*       -9.636209028E-02               0
GRID*               2101               0-3.081517215E-01-9.004122788E-01+
*       -8.517558959E-02               0
GRID*               2102               0-8.030852259E-017.2770533222E-02+
*       -7.862785470E-02               0
GRID*               2103               0-8.649215173E-011.1126417060E-01+
*       -7.862785470E-02               0
GRID*               2104               0-7.363921159E-011.1643925258E-01+
*       -6.939171314E-02               0
GRID*               2105               0-7.894773418E-011.1228670888E-01+
*       -1.480195678E-01               0
GRID*               2106               0-7.982284072E-011.5493288996E-01+
*       -6.939171314E-02               0
GRID*               2107               0-4.225650627E-01-8.295218472E-01+
*       -5.245772721E-02               0
GRID*               2108               0-4.347248794E-01-9.085882396E-01+
*       -2.919021755E-02               0
GRID*               2109               0-4.849295935E-01-9.616855874E-01+
*       -2.919021755E-02               0
GRID*               2110               01.1258041313E+00-9.758926153E-01+
*       -2.193969222E-01               0
GRID*               2111               0-8.593770742E-011.5581710443E-01+
*       -2.036278547E-01               0
GRID*               2112               0-7.926839641E-011.9948582379E-01+
*       -1.943917131E-01               0
GRID*               2113               0-9.042929777E-012.2433448214E-01+
*       -1.947851932E-01               0
GRID*               2114               0-9.010863553E-011.3713536722E-01+
*       -1.484130479E-01               0
GRID*               2115               0-8.343932453E-011.8080408658E-01+
*       -1.391769063E-01               0
GRID*               2116               07.1662943237E-013.7974880047E-01+
*       1.6345930481E+00               0
GRID*               2117               06.5412838995E-014.1401720232E-01+
*       1.6196417455E+00               0
GRID*               2118               07.1662943237E-014.4707817912E-01+
*       1.6021686943E+00               0
GRID*               2119               0-8.810773238E-018.2847903784E-02+
*       -2.036278547E-01               0
GRID*               2120               0-9.259932273E-011.5136528149E-01+
*       -1.947851932E-01               0
GRID*               2121               0-8.158268248E-019.1208620025E-02+
*       -2.036278547E-01               0
GRID*               2122               0-8.428540313E-014.2523640029E-02+
*       -2.036278547E-01               0
GRID*               2123               0-7.807619320E-015.2657128286E-02+
*       -2.007967687E-01               0
GRID*               2124               0-8.211055591E-013.0066497782E-02+
*       -1.544246234E-01               0
GRID*               2125               0-8.077891385E-013.9721482898E-03+
*       -2.007967687E-01               0
GRID*               2126               0-3.294049456E-012.0437712869E-01+
*       -1.880312861E-01               0
GRID*               2127               0-4.041785684E-012.0783847282E-01+
*       -1.880312861E-01               0
GRID*               2128               0-3.696186515E-011.3966345803E-01+
*       -1.880312861E-01               0
GRID*               2129               0-4.095359579E-013.1930067913E-01+
*       -1.771822992E-01               0
GRID*               2130               0-4.525273186E-013.5424970274E-01+
*       -1.163988880E-01               0
GRID*               2131               0-4.584608860E-012.5967786893E-01+
*       -1.892165888E-01               0
GRID*               2132               0-4.050382765E-012.4650911299E-01+
*       -1.870057564E-01               0
GRID*               2133               0-3.991047092E-013.4108094680E-01+
*       -1.141880555E-01               0
GRID*               2134               0-4.480296372E-012.8145813660E-01+
*       -1.262223452E-01               0
GRID*               2135               05.6589199826E-017.3903255338E-01+
*       7.5539906327E-01               0
GRID*               2136               05.6589199826E-016.7392351002E-01+
*       7.9873359178E-01               0
GRID*               2137               05.6143820053E-016.7579782145E-01+
*       7.0486775263E-01               0
GRID*               2138               05.6143820053E-017.4090686480E-01+
*       6.6153322413E-01               0
GRID*               2139               06.2733019879E-017.2582672926E-01+
*       7.0443817428E-01               0
GRID*               2140               0-1.055643447E+00-2.041229460E-01+
*       -1.290603524E-01               0
GRID*               2141               0-1.077784694E+00-1.636275722E-01+
*       -1.888409654E-01               0
GRID*               2142               0-1.113594010E+00-1.517328558E-01+
*       -1.584586941E-01               0
GRID*               2143               05.6803557793E-01-1.464998737E-01+
*       1.5749538120E+00               0
GRID*               2144               06.0057509770E-01-1.705505072E-01+
*       1.6002219546E+00               0
GRID*               2145               05.3253951977E-01-2.218141403E-01+
*       1.6213710687E+00               0
GRID*               2146               05.6031322708E-01-2.151120152E-01+
*       1.5859577774E+00               0
GRID*               2147               06.2834880501E-01-1.638483822E-01+
*       1.5648086634E+00               0
GRID*               2148               05.9285274685E-01-2.391626488E-01+
*       1.6112259200E+00               0
GRID*               2149               05.7674257535E-01-2.232136422E-01+
*       1.4115873198E+00               0
GRID*               2150               06.4477815328E-01-1.518379956E-01+
*       1.4704148720E+00               0
GRID*               2151               05.6803557793E-01-1.666118872E-01+
*       1.4949771458E+00               0
GRID*               2152               05.6232225140E-01-2.453534382E-01+
*       1.4669355447E+00               0
GRID*               2153               06.3906482674E-01-2.305795466E-01+
*       1.4423732709E+00               0
GRID*               2154               06.3035782933E-01-1.739777916E-01+
*       1.5257630969E+00               0
GRID*               2155               05.3035274949E-01-1.838114325E-01+
*       1.6312033333E+00               0
GRID*               2156               05.6289226926E-01-2.078620660E-01+
*       1.6564714758E+00               0
GRID*               2157               05.9838832743E-01-1.325477995E-01+
*       1.6100542192E+00               0
GRID*               2158               06.8757905904E-012.4775829436E-01+
*       1.2677427937E+00               0
GRID*               2159               06.1423674553E-012.3767766057E-01+
*       1.3088628785E+00               0
GRID*               2160               06.7665768649E-012.3975646410E-01+
*       1.3420851371E+00               0
GRID*               2161               06.9696027031E-013.2024578096E-01+
*       1.2835159067E+00               0
GRID*               2162               06.3453932935E-013.1816697744E-01+
*       1.2502936480E+00               0
GRID*               2163               05.9940853055E-01-5.332569118E-02+
*       1.6142620989E+00               0
GRID*               2164               05.3137295262E-01-1.717833326E-02+
*       1.6388096194E+00               0
GRID*               2165               05.3115221235E-01-5.466785348E-02+
*       1.6363854894E+00               0
GRID*               2166               05.9918779029E-01-9.081521140E-02+
*       1.6118379689E+00               0
GRID*               2167               05.6252516497E-01-4.890466195E-02+
*       1.6722953698E+00               0
GRID*               2168               06.8521316061E-01-5.625840174E-02+
*       1.4400712184E+00               0
GRID*               2169               06.8521316061E-01-1.245209327E-01+
*       1.4302429374E+00               0
GRID*               2170               06.9303557793E-01-1.336811927E-01+
*       1.5001465905E+00               0
GRID*               2171               06.9303557793E-01-6.541866173E-02+
*       1.5099748715E+00               0
GRID*               2172               06.2824873854E-01-8.607598063E-02+
*       1.4839010449E+00               0
GRID*               2173               05.6021316061E-01-8.980775915E-02+
*       1.4408631841E+00               0
GRID*               2174               05.6021316061E-01-2.065731682E-02+
*       1.4400712184E+00               0
GRID*               2175               05.6021316061E-01-1.574516272E-01+
*       1.4250734927E+00               0
GRID*               2176               01.1708689021E+005.2665601089E-01+
*       -1.941411478E-01               0
GRID*               2177               01.1056493313E+004.8226507182E-01+
*       -1.941411478E-01               0
GRID*               2178               01.2175805423E+004.9687411982E-01+
*       -2.187829154E-01               0
GRID*               2179               01.1384494444E+004.8506859225E-01+
*       -1.629240632E-01               0
GRID*               2180               01.1523609715E+004.5248318076E-01+
*       -2.187829154E-01               0
GRID*               2181               06.9958639395E-01-9.445283062E-01+
*       5.9341548680E-01               0
GRID*               2182               06.9958639395E-01-8.838094190E-01+
*       6.2259253482E-01               0
GRID*               2183               06.9958639395E-01-8.864668812E-01+
*       5.5390285732E-01               0
GRID*               2184               05.6174112026E-01-9.270850177E-01+
*       4.3489005325E-01               0
GRID*               2185               06.2408691513E-01-9.270850177E-01+
*       3.9676908356E-01               0
GRID*               2186               05.3104372276E-01-9.707568022E-01+
*       4.0886926596E-01               0
GRID*               2187               05.9278484302E-01-8.978418200E-01+
*       3.9375931921E-01               0
GRID*               2188               05.9338951764E-01-9.707568022E-01+
*       3.7074829627E-01               0
GRID*               2189               07.1798256729E-01-9.694435255E-01+
*       6.2941220843E-01               0
GRID*               2190               06.5547686560E-01-9.694435255E-01+
*       6.5870708204E-01               0
GRID*               2191               07.1798256729E-01-9.694435255E-01+
*       7.0441220843E-01               0
GRID*               2192               0-5.569509459E-011.0028998053E-01+
*       1.4306930665E+00               0
GRID*               2193               0-5.569509459E-013.1139538283E-02+
*       1.4299011011E+00               0
GRID*               2194               0-5.584933971E-013.3386775239E-02+
*       1.5023023161E+00               0
GRID*               2195               0-5.584933971E-011.0253721749E-01+
*       1.5030942815E+00               0
GRID*               2196               0-6.154443430E-011.0012739637E-01+
*       1.4660583722E+00               0
GRID*               2197               0-9.092369000E-016.3595970695E-01+
*       -2.151901067E-02               0
GRID*               2198               0-9.092346828E-016.3596133893E-01+
*       -6.318538109E-02               0
GRID*               2199               0-8.865317825E-016.6723222024E-01+
*       -2.151901067E-02               0
GRID*               2200               0-5.499489091E-011.1435933230E-01+
*       1.2169168037E+00               0
GRID*               2201               0-5.499489091E-017.1125431197E-02+
*       1.2755513945E+00               0
GRID*               2202               0-5.499489091E-011.2634500267E-01+
*       1.2799177494E+00               0
GRID*               2203               0-6.878657242E-01-6.660222280E-01+
*       1.5334093114E-01               0
GRID*               2204               0-6.878657242E-01-6.399361742E-01+
*       1.0198124501E-01               0
GRID*               2205               0-6.812674370E-01-5.779930510E-01+
*       1.3756363845E-01               0
GRID*               2206               0-6.812674370E-01-6.040791048E-01+
*       1.8892332457E-01               0
GRID*               2207               0-6.191331612E-01-6.092094263E-01+
*       1.1183748687E-01               0
GRID*               2208               0-5.615647632E-01-9.266153515E-03+
*       1.3095936085E+00               0
GRID*               2209               0-6.185157091E-011.8633206877E-02+
*       1.3311208861E+00               0
GRID*               2210               0-5.569509459E-016.9980799018E-02+
*       1.3721298796E+00               0
GRID*               2211               0-6.115136722E-011.9777839056E-02+
*       1.2345424009E+00               0
GRID*               2212               0-6.068998550E-019.9024791588E-02+
*       1.2970786720E+00               0
GRID*               2213               09.0243521799E-01-1.530293431E-01+
*       -1.881637711E-01               0
GRID*               2214               08.7597635585E-01-7.591403387E-02+
*       -1.881637711E-01               0
GRID*               2215               08.1719710321E-01-1.421713027E-01+
*       -1.902656818E-01               0
GRID*               2216               08.4365596534E-01-2.192866119E-01+
*       -1.902656818E-01               0
GRID*               2217               08.5864025724E-01-1.708386495E-01+
*       -1.284294529E-01               0
GRID*               2218               06.8702521492E-01-2.089793847E-01+
*       -6.483016076E-02               0
GRID*               2219               06.8702521492E-01-1.320563078E-01+
*       -6.483016076E-02               0
GRID*               2220               07.7493050230E-01-1.570094976E-01+
*       -6.526568179E-02               0
GRID*               2221               07.7493050230E-01-2.339325745E-01+
*       -6.526568179E-02               0
GRID*               2222               07.1195571722E-01-2.121427285E-01+
*       -1.300958425E-01               0
GRID*               2223               0-5.562674370E-01-5.076512989E-01+
*       1.5596340394E-01               0
GRID*               2224               0-5.562674370E-01-5.863572788E-01+
*       1.3705397426E-01               0
GRID*               2225               0-5.562674370E-01-5.653607057E-01+
*       1.9468511722E-01               0
GRID*               2226               0-6.209925351E-011.2571099139E-01+
*       1.6386446067E+00               0
GRID*               2227               0-6.209933971E-015.1187316661E-02+
*       1.6442297936E+00               0
GRID*               2228               0-6.553512880E-016.8455150053E-02+
*       1.7089401485E+00               0
GRID*               2229               0-6.553504260E-011.4297882478E-01+
*       1.7033549616E+00               0
GRID*               2230               0-6.513446851E-011.1964246671E-01+
*       1.6031699421E+00               0
GRID*               2231               0-6.924539106E-012.1706466992E-01+
*       1.4662552136E+00               0
GRID*               2232               0-6.924539106E-012.6421677006E-01+
*       1.5242548847E+00               0
GRID*               2233               0-6.834933971E-011.8440249118E-01+
*       1.5504737058E+00               0
GRID*               2234               0-6.834933971E-011.3725039104E-01+
*       1.4924740347E+00               0
GRID*               2235               0-6.259473077E-011.8218891221E-01+
*       1.5122407662E+00               0
GRID*               2236               05.3327510584E-015.8702143438E-01+
*       1.5253103013E+00               0
GRID*               2237               05.3368407774E-016.1700690817E-01+
*       1.5011683273E+00               0
GRID*               2238               05.6695918358E-015.8053885835E-01+
*       1.4946475546E+00               0
GRID*               2239               05.3368407774E-015.7739235941E-01+
*       1.4674916865E+00               0
GRID*               2240               0-9.633921047E-01-9.631827462E-01+
*       -1.998314075E-01               0
GRID*               2241               0-9.335605660E-01-9.267996410E-01+
*       -1.491624999E-01               0
GRID*               2242               0-9.260508143E-01-9.636168948E-01+
*       -1.993310924E-01               0
GRID*               2243               0-9.496400611E-01-9.631783985E-01+
*       -2.279348753E-01               0
GRID*               2244               0-9.571498128E-01-9.263611447E-01+
*       -1.777662829E-01               0
GRID*               2245               0-9.198085224E-01-9.267952932E-01+
*       -1.772659677E-01               0
GRID*               2246               0-6.541468688E-01-3.104335826E-01+
*       1.6603576603E+00               0
GRID*               2247               0-7.166464989E-01-3.457255074E-01+
*       1.6480087149E+00               0
GRID*               2248               0-7.152039805E-01-3.044356167E-01+
*       1.6650635290E+00               0
GRID*               2249               0-6.527043504E-01-2.691436919E-01+
*       1.6774124744E+00               0
GRID*               2250               0-6.818504794E-01-2.848201210E-01+
*       1.6321985345E+00               0
GRID*               2251               0-6.541454565E-01-3.799939092E-01+
*       1.6330574122E+00               0
GRID*               2252               0-6.245219153E-01-1.556001628E-01+
*       1.6671633832E+00               0
GRID*               2253               0-6.348936480E-01-1.224527593E-01+
*       1.5582754809E+00               0
GRID*               2254               0-6.353734567E-01-1.158999459E-01+
*       1.6299417239E+00               0
GRID*               2255               0-5.950362144E-01-1.430222814E-01+
*       1.7029054735E+00               0
GRID*               2256               0-5.945564057E-01-1.495750948E-01+
*       1.6312392304E+00               0
GRID*               2257               0-6.054079471E-01-1.098748779E-01+
*       1.5940175711E+00               0
GRID*               2258               0-5.750075261E-01-1.939876186E-02+
*       1.3738806182E+00               0
GRID*               2259               0-5.750075261E-01-5.824002260E-02+
*       1.4316518397E+00               0
GRID*               2260               0-6.319584720E-018.5005985272E-03+
*       1.3954078957E+00               0
GRID*               2261               0-5.937725966E-01-3.573702335E-01+
*       1.6431977411E+00               0
GRID*               2262               0-6.229201379E-01-3.034863358E-01+
*       1.6252840493E+00               0
GRID*               2263               0-5.937740090E-01-2.878099068E-01+
*       1.6704979892E+00               0
GRID*               2264               0-6.335009232E-011.0747835484E-02+
*       1.4678091107E+00               0
GRID*               2265               0-5.728725948E-01-5.917681263E-02+
*       1.4935994333E+00               0
GRID*               2266               0-6.313659919E-019.8110454543E-03+
*       1.5297567044E+00               0
GRID*               2267               0-5.946087684E-018.8860464172E-01+
*       7.5132383636E-01               0
GRID*               2268               07.1867849046E-01-4.267917237E-02+
*       1.1525915361E+00               0
GRID*               2269               06.5617978541E-01-4.267410744E-02+
*       1.1525920282E+00               0
GRID*               2270               07.1820268070E-01-7.350512231E-02+
*       1.1478941971E+00               0
GRID*               2271               06.8688117116E-01-6.210475470E-02+
*       1.1743544909E+00               0
GRID*               2272               06.5570397565E-01-7.350005738E-02+
*       1.1478946893E+00               0
GRID*               2273               0-7.190673248E-019.5529083094E-01+
*       8.9245112178E-01               0
GRID*               2274               0-6.565664148E-019.5882013888E-01+
*       8.6321750263E-01               0
GRID*               2275               0-6.565671392E-019.4763880920E-01+
*       9.3221692948E-01               0
GRID*               2276               0-6.353725948E-01-4.137627121E-02+
*       1.6355269108E+00               0
GRID*               2277               0-5.937802798E-015.8841586411E-03+
*       1.7118522862E+00               0
GRID*               2278               0-6.041528745E-01-3.549211257E-02+
*       1.5973791970E+00               0
GRID*               2279               0-5.897736769E-015.7071475303E-02+
*       1.6060820798E+00               0
GRID*               2280               06.7028437364E-01-4.191933160E-01+
*       -6.973214793E-02               0
GRID*               2281               06.7028437364E-01-4.961163930E-01+
*       -6.973214793E-02               0
GRID*               2282               06.1665863151E-01-4.256088762E-01+
*       -1.809770409E-02               0
GRID*               2283               06.9637425787E-01-4.679540217E-01+
*       5.1634443845E-02               0
GRID*               2284               05.6239735393E-01-2.930026826E-01+
*       1.6525869112E-01               0
GRID*               2285               06.3377161180E-01-3.456022726E-01+
*       1.3157542531E-01               0
GRID*               2286               06.2315510366E-01-2.749765552E-01+
*       1.1895544197E-01               0
GRID*               2287               0-1.212708851E+00-2.422910511E-01+
*       -2.190798307E-01               0
GRID*               2288               0-1.211154499E+00-2.032050907E-01+
*       -2.196177288E-01               0
GRID*               2289               0-1.218711931E+00-2.315941509E-01+
*       -3.099361678E-02               0
GRID*               2290               0-1.156840953E+00-1.934377530E-01+
*       -3.099361678E-02               0
GRID*               2291               0-1.158290560E+00-2.706855454E-01+
*       -3.099361678E-02               0
GRID*               2292               06.2288867543E-01-2.099481590E-01+
*       2.0223968237E-01               0
GRID*               2293               06.9764840468E-01-5.564106752E-01+
*       4.1331536332E-02               0
GRID*               2294               06.9764840468E-01-5.211980533E-01+
*       1.2358500011E-01               0
GRID*               2295               06.4402266255E-01-4.859031584E-01+
*       9.2965980177E-02               0
GRID*               2296               06.9637425787E-01-4.327413998E-01+
*       1.3388790763E-01               0
GRID*               2297               05.7264840468E-01-5.564106752E-01+
*       4.1331536332E-02               0
GRID*               2298               06.1793277833E-01-5.140655297E-01+
*       -2.840061160E-02               0
GRID*               2299               05.4528437364E-01-4.961163930E-01+
*       -6.973214793E-02               0
GRID*               2300               05.7137425787E-01-4.679540217E-01+
*       5.1634443845E-02               0
GRID*               2301               06.9277370031E-01-3.543827846E-01+
*       -7.506360030E-02               0
GRID*               2302               06.1305807395E-01-3.889607160E-01+
*       -1.447957482E-01               0
GRID*               2303               05.7264840468E-01-5.207507750E-01+
*       1.1063927528E-01               0
GRID*               2304               05.7137425787E-01-4.322941215E-01+
*       1.2094218279E-01               0
GRID*               2305               04.7415320032E-01-2.518550056E-01+
*       -6.633758193E-02               0
GRID*               2306               03.2211874242E-01-2.510352523E-01+
*       -1.871173658E-01               0
GRID*               2307               03.5576552889E-01-2.684611506E-01+
*       -1.284549477E-01               0
GRID*               2308               04.1465961416E-01-2.555148822E-01+
*       -1.913375819E-01               0
GRID*               2309               03.1373321885E-01-1.754020465E-01+
*       -1.964693950E-01               0
GRID*               2310               03.4738000533E-01-1.928279447E-01+
*       -1.378069769E-01               0
GRID*               2311               03.1062181039E-01-1.333010520E-01+
*       -7.146939502E-02               0
GRID*               2312               06.7766547373E-018.7273443166E-01+
*       6.1950493489E-01               0
GRID*               2313               06.7766547373E-018.7482868815E-01+
*       5.4569016415E-01               0
GRID*               2314               06.7766547373E-018.1093352564E-01+
*       5.7531405828E-01               0
GRID*               2315               08.3303006487E-01-6.132379377E-01+
*       -5.811648549E-02               0
GRID*               2316               07.7941901234E-01-6.600485802E-01+
*       -5.811648549E-02               0
GRID*               2317               0-1.218536107E+006.9626080310E-01+
*       -2.193567476E-02               0
GRID*               2318               0-1.181170072E+007.1516978443E-01+
*       -2.193567476E-02               0
GRID*               2319               0-1.168430855E+006.6480906346E-01+
*       -2.193567476E-02               0
GRID*               2320               08.9764827837E-01-6.522424672E-01+
*       -2.084825621E-02               0
GRID*               2321               08.9764745120E-01-6.522431417E-01+
*       -6.251481369E-02               0
GRID*               2322               08.7496209642E-01-6.834825365E-01+
*       -6.251492469E-02               0
GRID*               2323               06.1423258587E-01-1.643502551E-01+
*       -1.898301608E-01               0
GRID*               2324               06.5614409181E-01-1.050243657E-01+
*       -1.898301608E-01               0
GRID*               2325               05.6053870988E-01-1.257512695E-01+
*       -1.891662295E-01               0
GRID*               2326               06.0245021582E-01-6.642538015E-02+
*       -1.891662295E-01               0
GRID*               2327               08.7496211178E-01-6.834824862E-01+
*       -2.084825621E-02               0
GRID*               2328               08.6448926132E-01-7.091125485E-01+
*       -2.225756370E-02               0
GRID*               2329               08.5833639611E-01-6.812129964E-01+
*       -4.310581992E-02               0
GRID*               2330               08.6448924595E-01-7.091125988E-01+
*       -6.392423218E-02               0
GRID*               2331               0-9.470951826E-02-3.381455236E-01+
*       -6.823584205E-02               0
GRID*               2332               0-1.571943274E-01-3.765531050E-01+
*       -6.823584205E-02               0
GRID*               2333               0-2.058022808E-01-3.129365645E-01+
*       -6.209853433E-02               0
GRID*               2334               0-1.433174716E-01-2.745289831E-01+
*       -6.209853433E-02               0
GRID*               2335               0-1.148743049E-01-3.068095504E-01+
*       -1.303343764E-01               0
GRID*               2336               0-6.801101068E-02-4.162722137E-01+
*       -1.932358421E-01               0
GRID*               2337               0-1.443644624E-01-4.124007952E-01+
*       -1.932358421E-01               0
GRID*               2338               0-8.876936993E-02-4.929170079E-01+
*       -1.814331079E-01               0
GRID*               2339               0-8.702471075E-02-4.470708851E-01+
*       -1.246689499E-01               0
GRID*               2340               0-1.651228217E-01-4.890455894E-01+
*       -1.814331079E-01               0
GRID*               2341               09.9312386907E-01-6.038178307E-01+
*       -6.330880381E-02               0
GRID*               2342               09.5636669698E-01-6.157695054E-01+
*       -6.330869462E-02               0
GRID*               2343               09.9312386907E-01-6.038178307E-01+
*       -2.164213715E-02               0
GRID*               2344               09.7414186291E-01-6.102461044E-01+
*       -2.064779312E-02               0
GRID*               2345               09.3738469082E-01-6.221977791E-01+
*       -6.231435059E-02               0
GRID*               2346               09.3738551800E-01-6.221971045E-01+
*       -2.064779312E-02               0
GRID*               2347               0-2.868706836E-02-3.526039788E-01+
*       -1.932358421E-01               0
GRID*               2348               06.7418204899E-03-4.206809277E-01+
*       -1.932358421E-01               0
GRID*               2349               08.6262392253E-02-3.717666114E-01+
*       -1.860458823E-01               0
GRID*               2350               04.8683109108E-02-3.895887236E-01+
*       -1.292817244E-01               0
GRID*               2351               05.7087289178E-01-7.087730378E-01+
*       1.2360484635E+00               0
GRID*               2352               06.3600526642E-01-6.689384744E-01+
*       1.2532417794E+00               0
GRID*               2353               05.6513237464E-01-6.903592500E-01+
*       1.2911147827E+00               0
GRID*               2354               05.3202850341E-01-7.431615109E-01+
*       1.2979836690E+00               0
GRID*               2355               06.0290139519E-01-7.217407353E-01+
*       1.2601106657E+00               0
GRID*               2356               05.9716087805E-01-7.033269475E-01+
*       1.3151769848E+00               0
GRID*               2357               08.1219775655E-01-6.648171667E-01+
*       -5.811648549E-02               0
GRID*               2358               07.5968510319E-01-7.183660216E-01+
*       -5.481231705E-02               0
GRID*               2359               07.8910411553E-01-6.861069095E-01+
*       -1.129288025E-01               0
GRID*               2360               07.9246384740E-01-7.231346081E-01+
*       -5.481231705E-02               0
GRID*               2361               08.2524258012E-01-7.279032324E-01+
*       -1.381456518E-01               0
GRID*               2362               08.4497648927E-01-6.695857911E-01+
*       -1.414498203E-01               0
GRID*               2363               08.6852246785E-01-6.943257642E-01+
*       -1.865536241E-01               0
GRID*               2364               08.1265009411E-01-7.108468827E-01+
*       -1.580326064E-01               0
GRID*               2365               08.3238400326E-01-6.525294413E-01+
*       -1.613367749E-01               0
GRID*               2366               08.5251061478E-01-8.284624628E-01+
*       -1.685829354E-01               0
GRID*               2367               08.2525384014E-01-7.665557963E-01+
*       -1.381456485E-01               0
GRID*               2368               08.5993481845E-01-7.790215717E-01+
*       -1.869141819E-01               0
GRID*               2369               08.3130795932E-01-8.187967928E-01+
*       -1.888304544E-01               0
GRID*               2370               08.0405118469E-01-7.568901263E-01+
*       -1.583931675E-01               0
GRID*               2371               07.5968510319E-01-7.952890985E-01+
*       -5.481231705E-02               0
GRID*               2372               08.0783058009E-01-7.470385023E-01+
*       -7.526043949E-02               0
GRID*               2373               07.9814547690E-01-7.979032499E-01+
*       -2.044812244E-02               0
GRID*               2374               07.8256994888E-01-8.319382931E-01+
*       -2.231090428E-02               0
GRID*               2375               07.9225505207E-01-7.810735454E-01+
*       -7.712322133E-02               0
GRID*               2376               08.3071542578E-01-7.836876968E-01+
*       -4.275902672E-02               0
GRID*               2377               08.5251061908E-01-8.284624781E-01+
*       -1.269162693E-01               0
GRID*               2378               08.2525384444E-01-7.665558116E-01+
*       -9.647898236E-02               0
GRID*               2379               05.7839508241E-017.2328102078E-01+
*       -1.442567022E-01               0
GRID*               2380               05.7324214476E-017.8425377152E-01+
*       -6.144767804E-02               0
GRID*               2381               05.1464641162E-017.1197435459E-01+
*       -1.378289933E-01               0
GRID*               2382               05.7166792950E-016.3590680144E-01+
*       -1.375196712E-01               0
GRID*               2383               05.6651499184E-016.9687955218E-01+
*       -5.471064701E-02               0
GRID*               2384               0-2.294060526E-01-3.972227429E-02+
*       -1.928285520E-01               0
GRID*               2385               0-1.545337414E-01-4.511714346E-02+
*       -1.928285520E-01               0
GRID*               2386               0-1.885439756E-012.4075292369E-02+
*       -1.928285520E-01               0
GRID*               2387               0-1.953087026E-01-1.086579752E-01+
*       -1.928285520E-01               0
GRID*               2388               07.2492226200E-01-4.552844981E-01+
*       -2.030429640E-01               0
GRID*               2389               08.0535068289E-01-4.439882676E-01+
*       -1.373601029E-01               0
GRID*               2390               08.0231607643E-01-4.033771828E-01+
*       -1.843171389E-01               0
GRID*               2391               06.7871752808E-01-3.694117989E-01+
*       -2.000636003E-01               0
GRID*               2392               06.8175213454E-01-4.100228838E-01+
*       -1.531065642E-01               0
GRID*               2393               07.5914594897E-01-3.581155684E-01+
*       -1.343807392E-01               0
GRID*               2394               0-1.518951801E-01-9.213036240E-02+
*       -6.782855200E-02               0
GRID*               2395               0-1.714480551E-01-1.370579923E-01+
*       -1.299270863E-01               0
GRID*               2396               0-1.439293832E-01-1.982653800E-01+
*       -6.209853433E-02               0
GRID*               2397               0-2.122671085E-01-1.482299908E-01+
*       -5.966326884E-02               0
GRID*               2398               0-2.397857804E-01-8.702260311E-02+
*       -1.274918208E-01               0
GRID*               2399               0-2.318199835E-01-1.931576207E-01+
*       -1.217618032E-01               0
GRID*               2400               0-2.062579355E-01-2.365294380E-01+
*       -6.209853433E-02               0
GRID*               2401               0-2.745956607E-01-1.864940489E-01+
*       -5.966326884E-02               0
GRID*               2402               04.1219312976E-015.3212923410E-01+
*       -5.443205703E-02               0
GRID*               2403               04.1615275912E-015.7519853249E-01+
*       -1.199780381E-01               0
GRID*               2404               05.0395962935E-015.8153083686E-01+
*       -6.554598111E-02               0
GRID*               2405               04.6129331556E-014.5429091220E-01+
*       -5.432969111E-02               0
GRID*               2406               03.7348644533E-014.4795860784E-01+
*       -1.087617481E-01               0
GRID*               2407               04.6525294491E-014.9736021060E-01+
*       -1.198756722E-01               0
GRID*               2408               06.1980630197E-015.9562420146E-01+
*       -1.969736901E-01               0
GRID*               2409               05.9186415334E-016.8092975241E-01+
*       -1.969736901E-01               0
GRID*               2410               05.5605763118E-015.8431753528E-01+
*       -1.905459811E-01               0
GRID*               2411               05.2811548254E-016.6962308622E-01+
*       -1.905459811E-01               0
GRID*               2412               0-2.628817717E-012.8727920533E-02+
*       -1.928285520E-01               0
GRID*               2413               0-3.214365019E-018.5658192923E-02+
*       -1.889999886E-01               0
GRID*               2414               0-2.379685823E-012.6007297715E-02+
*       -1.318285406E-01               0
GRID*               2415               0-2.470987059E-018.1005564759E-02+
*       -1.889999886E-01               0
GRID*               2416               06.2040122150E-015.0710070627E-01+
*       -1.979336189E-01               0
GRID*               2417               06.3601151982E-015.5868997243E-01+
*       -1.449073090E-01               0
GRID*               2418               05.7226284903E-015.4738330624E-01+
*       -1.384796000E-01               0
GRID*               2419               05.4017461323E-015.1877890123E-01+
*       -1.979336189E-01               0
GRID*               2420               04.7583102290E-015.9599573023E-01+
*       -1.905459811E-01               0
GRID*               2421               04.3316470911E-014.6875580558E-01+
*       -1.793296911E-01               0
GRID*               2422               05.2959653524E-014.2014338159E-01+
*       -1.272633100E-01               0
GRID*               2423               06.3675313686E-015.2197091652E-01+
*       -3.254843302E-02               0
GRID*               2424               06.3615821732E-016.1049441171E-01+
*       -3.158850419E-02               0
GRID*               2425               05.7240954653E-015.9918774553E-01+
*       -2.516079523E-02               0
GRID*               2426               0-1.082278520E+009.2459049253E-01+
*       -1.034754491E-01               0
GRID*               2427               0-1.095390078E+008.8776711974E-01+
*       -9.332150430E-02               0
GRID*               2428               0-1.080708243E+008.9825211220E-01+
*       -7.337813708E-02               0
GRID*               2429               0-1.115695541E+008.9809921390E-01+
*       -7.321258163E-02               0
GRID*               2430               06.3264544487E-017.7778117041E-01+
*       1.2276141718E+00               0
GRID*               2431               06.3761637614E-017.2590362425E-01+
*       1.1437771520E+00               0
GRID*               2432               06.2996865927E-018.1414390515E-01+
*       1.1661686480E+00               0
GRID*               2433               06.5656972180E-018.3110264057E-01+
*       1.2203264655E+00               0
GRID*               2434               06.6421743866E-017.4286235966E-01+
*       1.1979349694E+00               0
GRID*               2435               06.6154065307E-017.7922509441E-01+
*       1.1364894456E+00               0
GRID*               2436               06.7964357190E-016.1868789664E-01+
*       1.0271077511E+00               0
GRID*               2437               06.2479015277E-016.6347055134E-01+
*       1.0970114978E+00               0
GRID*               2438               06.9514658087E-016.4475823481E-01+
*       1.1353189289E+00               0
GRID*               2439               06.9246979527E-016.8112096955E-01+
*       1.0738734052E+00               0
GRID*               2440               06.2211336718E-016.9983328608E-01+
*       1.0355659741E+00               0
GRID*               2441               01.0448585664E+00-9.702726428E-01+
*       -1.144543686E-01               0
GRID*               2442               01.0899756490E+00-9.702726428E-01+
*       -1.767674721E-01               0
GRID*               2443               01.0776108251E+00-9.688197264E-01+
*       -2.077840485E-01               0
GRID*               2444               01.0324937425E+00-9.688197264E-01+
*       -1.454709450E-01               0
GRID*               2445               01.0646452977E+00-9.390923692E-01+
*       -1.345515206E-01               0
GRID*               2446               01.2220495482E+00-9.504839322E-01+
*       -2.191582738E-01               0
GRID*               2447               01.2220495482E+00-8.735608553E-01+
*       -2.191582738E-01               0
GRID*               2448               01.1673203235E+00-9.005189095E-01+
*       -2.191582738E-01               0
GRID*               2449               01.1082724437E+00-9.630674640E-01+
*       -1.771616462E-01               0
GRID*               2450               01.1003691702E+00-9.256221768E-01+
*       -1.351702491E-01               0
GRID*               2451               01.0829420923E+00-9.318871904E-01+
*       -1.349456946E-01               0
GRID*               2452               01.0697075516E+00-9.313744392E-01+
*       -1.657926514E-01               0
GRID*               2453               06.9514658087E-017.0986735185E-01+
*       1.2395720708E+00               0
GRID*               2454               06.9514658087E-016.4770755060E-01+
*       1.2097078048E+00               0
GRID*               2455               06.9587254986E-016.1309299056E-01+
*       1.2687853240E+00               0
GRID*               2456               06.9587254986E-016.7525279181E-01+
*       1.2986495900E+00               0
GRID*               2457               06.4101913072E-016.5492632947E-01+
*       1.2643001949E+00               0
GRID*               2458               0-6.722260861E-016.6752815418E-01+
*       -2.010193014E-01               0
GRID*               2459               0-6.966310152E-017.0866777446E-01+
*       -2.010193014E-01               0
GRID*               2460               0-7.488431883E-018.2382116760E-01+
*       -6.998223472E-02               0
GRID*               2461               0-7.864828483E-018.3850005467E-01+
*       -1.318486433E-01               0
GRID*               2462               0-7.876396600E-018.6083273322E-01+
*       -6.186640855E-02               0
GRID*               2463               0-7.456445556E-018.8404704052E-01+
*       -3.786772919E-02               0
GRID*               2464               0-7.444877439E-018.6171436196E-01+
*       -1.078499639E-01               0
GRID*               2465               0-7.832842156E-018.9872592758E-01+
*       -9.973413774E-02               0
GRID*               2466               06.8798534288E-015.7086253113E-01+
*       1.1356818155E+00               0
GRID*               2467               06.8798534288E-015.7381184692E-01+
*       1.2100706914E+00               0
GRID*               2468               06.3313192374E-016.1564518583E-01+
*       1.2055855622E+00               0
GRID*               2469               0-6.607739310E-019.7032827541E-01+
*       -2.255986859E-01               0
GRID*               2470               0-6.960611658E-019.0797462885E-01+
*       -2.255986859E-01               0
GRID*               2471               0-6.209560492E-019.1257630446E-01+
*       -2.255986859E-01               0
GRID*               2472               0-5.873721786E-019.1473836099E-01+
*       -2.123653038E-01               0
GRID*               2473               0-6.271900603E-019.7249033194E-01+
*       -2.123653038E-01               0
GRID*               2474               0-6.261992855E-019.4281860735E-01+
*       -1.879639898E-01               0
GRID*               2475               06.5520710633E-017.1273770483E-01+
*       -1.969736901E-01               0
GRID*               2476               06.3779338491E-017.6680322278E-01+
*       -1.435677299E-01               0
GRID*               2477               03.1976555966E-018.6372603236E-01+
*       -1.766821494E-01               0
GRID*               2478               03.5851329123E-017.9217008955E-01+
*       -1.766821494E-01               0
GRID*               2479               03.9689567833E-018.6375941996E-01+
*       -1.766821494E-01               0
GRID*               2480               03.5660232507E-019.3269551683E-01+
*       -1.766821494E-01               0
GRID*               2481               04.0617228505E-019.6439297775E-01+
*       -2.182683656E-01               0
GRID*               2482               03.9512755130E-018.9708849459E-01+
*       -1.449505150E-01               0
GRID*               2483               04.4646563830E-018.9545688088E-01+
*       -2.182683656E-01               0
GRID*               2484               03.5135022423E-019.3269551683E-01+
*       -5.168214936E-02               0
GRID*               2485               03.7258047738E-018.7954828936E-01+
*       -5.168214936E-02               0
GRID*               2486               03.0177221029E-018.6238202944E-01+
*       -5.168214936E-02               0
GRID*               2487               02.1055560407E-018.0408488984E-01+
*       -1.902155026E-01               0
GRID*               2488               03.1153871671E-018.0421340996E-01+
*       -1.168976520E-01               0
GRID*               2489               02.4457447868E-018.6526251354E-01+
*       -1.766821494E-01               0
GRID*               2490               01.7253391388E-018.6494169448E-01+
*       -1.875087119E-01               0
GRID*               2491               02.3949815191E-018.0389259090E-01+
*       -1.277242146E-01               0
GRID*               2492               02.7351702652E-018.6507021461E-01+
*       -1.141908613E-01               0
GRID*               2493               0-7.191289683E-019.6964015964E-01+
*       7.0390776938E-01               0
GRID*               2494               0-7.191289683E-019.6964015964E-01+
*       6.2890776938E-01               0
GRID*               2495               03.2916405199E-019.6563973239E-01+
*       -2.203848136E-01               0
GRID*               2496               02.9232728658E-018.9667024792E-01+
*       -2.203848136E-01               0
GRID*               2497               03.1811931823E-018.9833524922E-01+
*       -1.470669629E-01               0
GRID*               2498               0-1.137358134E+007.9663824200E-01+
*       -1.866010262E-01               0
GRID*               2499               0-1.169821717E+007.8999631491E-01+
*       -1.766008079E-01               0
GRID*               2500               0-1.151348628E+007.8197595090E-01+
*       -1.566664513E-01               0
GRID*               2501               0-1.150014099E+008.1820745283E-01+
*       -1.572208610E-01               0
GRID*               2502               0-1.168487188E+008.2622781684E-01+
*       -1.771552176E-01               0
GRID*               2503               0-1.182477682E+008.1156552575E-01+
*       -1.472206427E-01               0
GRID*               2504               03.8813594093E-019.7296080241E-01+
*       -2.830680668E-02               0
GRID*               2505               04.0936619407E-019.1981357493E-01+
*       -2.830680668E-02               0
GRID*               2506               03.8234330801E-019.0565631924E-01+
*       -7.998895604E-02               0
GRID*               2507               0-6.351529438E-019.0453619349E-01+
*       8.6815200552E-01               0
GRID*               2508               0-6.035690115E-018.6998330821E-01+
*       8.6009005008E-01               0
GRID*               2509               0-5.934142476E-019.6133626321E-01+
*       8.3251302131E-01               0
GRID*               2510               0-5.937698843E-019.5847014400E-01+
*       8.6643367625E-01               0
GRID*               2511               0-6.039246482E-018.6711718900E-01+
*       8.9401070502E-01               0
GRID*               2512               0-5.621859520E-019.2391725872E-01+
*       8.5837172081E-01               0
GRID*               2513               05.6200153366E-01-4.874419740E-01+
*       3.9743667824E-01               0
GRID*               2514               05.6200153366E-01-4.655067923E-01+
*       4.7600141179E-01               0
GRID*               2515               05.6200153366E-01-5.430635466E-01+
*       4.4494947643E-01               0
GRID*               2516               06.8700153366E-01-4.552941351E-01+
*       4.8683751116E-01               0
GRID*               2517               06.8700153366E-01-5.005976566E-01+
*       4.3316532190E-01               0
GRID*               2518               06.3419267696E-01-5.548120365E-01+
*       4.6930652457E-01               0
GRID*               2519               05.6277956934E-01-5.898098198E-01+
*       3.9896022181E-01               0
GRID*               2520               06.2927840635E-01-6.692551082E-01+
*       3.5069475093E-01               0
GRID*               2521               05.6649883701E-01-5.941638403E-01+
*       3.3912628481E-01               0
GRID*               2522               06.2478110300E-01-5.625332419E-01+
*       4.0900514437E-01               0
GRID*               2523               06.2850037067E-01-5.668872624E-01+
*       3.4917120736E-01               0
GRID*               2524               05.9660680090E-01-2.565321745E-01+
*       4.3084288984E-01               0
GRID*               2525               05.9610979622E-01-3.621961851E-01+
*       4.0317926669E-01               0
GRID*               2526               06.2450007201E-01-3.545013854E-01+
*       4.3514522394E-01               0
GRID*               2527               05.9426396619E-01-2.806336824E-01+
*       4.5446880777E-01               0
GRID*               2528               05.6587369040E-01-2.883284822E-01+
*       4.2250285052E-01               0
GRID*               2529               05.9376696150E-01-3.862976931E-01+
*       4.2680518463E-01               0
GRID*               2530               06.8777956934E-01-5.797009281E-01+
*       3.6942890504E-01               0
GRID*               2531               06.8700153366E-01-4.773330822E-01+
*       3.6790536147E-01               0
GRID*               2532               05.6200153366E-01-5.063222428E-01+
*       3.2969007047E-01               0
GRID*               2533               05.6649883701E-01-6.130441091E-01+
*       2.7137967703E-01               0
GRID*               2534               05.6306999335E-01-5.376412466E-01+
*       2.7023939134E-01               0
GRID*               2535               06.2507152701E-01-4.914843999E-01+
*       3.4803092167E-01               0
GRID*               2536               06.2956883036E-01-5.982062662E-01+
*       2.8972052824E-01               0
GRID*               2537               0-5.309151576E-019.5780695526E-01+
*       8.6174664047E-01               0
GRID*               2538               0-5.312707944E-019.5494083605E-01+
*       8.9566729540E-01               0
GRID*               2539               0-5.309151576E-019.6339168896E-01+
*       7.8722553294E-01               0
GRID*               2540               05.6306999335E-01-4.681211324E-01+
*       2.8731713264E-01               0
GRID*               2541               05.6273143991E-01-4.274455136E-01+
*       2.5642824696E-01               0
GRID*               2542               06.2580143326E-01-4.821277849E-01+
*       2.5769135687E-01               0
GRID*               2543               05.6273143991E-01-4.969656278E-01+
*       2.3935050567E-01               0
GRID*               2544               05.6450088298E-01-4.333863863E-01+
*       2.9594983883E-01               0
GRID*               2545               06.2723232289E-01-4.473930389E-01+
*       2.6632406305E-01               0
GRID*               2546               05.6165494151E-01-3.983642255E-01+
*       2.8948028992E-01               0
GRID*               2547               06.2615582449E-01-4.183117508E-01+
*       2.9937610601E-01               0
GRID*               2548               06.2438638142E-01-4.123708781E-01+
*       2.5985451415E-01               0
GRID*               2549               05.6200153366E-01-3.662178632E-01+
*       3.7438511939E-01               0
GRID*               2550               05.6200153366E-01-4.368021285E-01+
*       3.4676781177E-01               0
GRID*               2551               05.6163737669E-01-3.640496355E-01+
*       3.0373580251E-01               0
GRID*               2552               05.6163737669E-01-2.934653702E-01+
*       3.3135311014E-01               0
GRID*               2553               06.2363891035E-01-3.874129030E-01+
*       3.6444959154E-01               0
GRID*               2554               07.6935072364E-012.4871930985E-01+
*       -6.828175138E-02               0
GRID*               2555               08.2393863908E-011.6267014158E-01+
*       -1.188624126E-01               0
GRID*               2556               07.5599786383E-011.9787709654E-01+
*       -6.365480093E-02               0
GRID*               2557               07.7534858747E-012.1582717562E-01+
*       -1.319365523E-01               0
GRID*               2558               08.1058577927E-011.1182792827E-01+
*       -1.142354622E-01               0
GRID*               2559               0-1.233287866E+008.5371219670E-01+
*       -2.200873634E-01               0
GRID*               2560               0-1.200509122E+008.3932822406E-01+
*       -2.200873634E-01               0
GRID*               2561               0-1.178557141E+008.8067198307E-01+
*       -2.200873634E-01               0
GRID*               2562               07.1968341011E-012.0368097562E-01+
*       -6.163642244E-02               0
GRID*               2563               07.2406053375E-011.3368671809E-01+
*       -1.238703579E-01               0
GRID*               2564               07.1968341011E-011.2675789870E-01+
*       -6.163642244E-02               0
GRID*               2565               09.1396923952E-011.6256702820E-01+
*       -5.554924791E-02               0
GRID*               2566               09.7622601048E-011.2408475321E-01+
*       -5.554924791E-02               0
GRID*               2567               09.2998877605E-016.8011218708E-02+
*       -5.058066125E-02               0
GRID*               2568               08.6773200509E-011.0649349370E-01+
*       -5.058066125E-02               0
GRID*               2569               09.0541306531E-011.1474442875E-01+
*       -1.061299092E-01               0
GRID*               2570               0-5.670880559E-019.5163038237E-01+
*       5.9497460984E-01               0
GRID*               2571               0-5.316984535E-019.4886721910E-01+
*       9.3029442113E-01               0
GRID*               2572               0-5.941975435E-019.5239652704E-01+
*       9.0106080198E-01               0
GRID*               2573               08.5882321785E-011.4264438736E-01+
*       -1.755806612E-01               0
GRID*               2574               09.0506045228E-011.9871792186E-01+
*       -1.805492479E-01               0
GRID*               2575               08.2358602605E-012.4664363470E-01+
*       -1.932817514E-01               0
GRID*               2576               08.7017587351E-012.1874367609E-01+
*       -1.238309993E-01               0
GRID*               2577               09.7428362472E-019.2584039672E-02+
*       -1.199191461E-01               0
GRID*               2578               09.9885933546E-014.5850829633E-02+
*       -6.436989821E-02               0
GRID*               2579               09.2804639029E-013.6510505169E-02+
*       -1.149505595E-01               0
GRID*               2580               08.3370975494E-01-9.075222879E-02+
*       -6.316377109E-02               0
GRID*               2581               07.7168621361E-01-7.077119484E-02+
*       -6.375128229E-02               0
GRID*               2582               08.5539596855E-01-8.460034670E-02+
*       -1.269150534E-01               0
GRID*               2583               07.9661671590E-01-1.508576155E-01+
*       -1.290169641E-01               0
GRID*               2584               09.3464308380E-011.2712749130E-01+
*       -1.805492479E-01               0
GRID*               2585               08.8840584937E-017.1053956797E-02+
*       -1.755806612E-01               0
GRID*               2586               09.5716822979E-01-4.511563228E-02+
*       -1.275336693E-01               0
GRID*               2587               09.1572507576E-01-1.644828550E-02+
*       -1.893698982E-01               0
GRID*               2588               08.4685451636E-015.7121035722E-03+
*       -1.755806612E-01               0
GRID*               2589               08.8829767038E-01-2.295524320E-02+
*       -1.137444323E-01               0
GRID*               2590               0-7.198840859E-01-1.965519789E-01+
*       1.6950414097E+00               0
GRID*               2591               0-7.198840859E-01-1.226565623E-01+
*       1.7061792036E+00               0
GRID*               2592               0-6.573849479E-01-1.598152046E-01+
*       1.7019923486E+00               0
GRID*               2593               0-6.978725948E-01-5.284703360E-02+
*       1.5619767803E+00               0
GRID*               2594               0-6.978725948E-01-1.402580246E-01+
*       1.5585783738E+00               0
GRID*               2595               0-6.978725948E-01-9.272617004E-02+
*       1.4943913990E+00               0
GRID*               2596               0-5.728725948E-01-1.037229132E-01+
*       1.5565074732E+00               0
GRID*               2597               0-5.728725948E-01-1.745914448E-01+
*       1.5417708232E+00               0
GRID*               2598               0-5.620210533E-01-2.142916617E-01+
*       1.5789924825E+00               0
GRID*               2599               0-5.620210533E-01-1.434231302E-01+
*       1.5937291325E+00               0
GRID*               2600               0-6.196255452E-01-4.173481578E-01+
*       1.5527053752E+00               0
GRID*               2601               0-6.821265876E-01-4.504091346E-01+
*       1.5352323240E+00               0
GRID*               2602               0-7.188585842E-01-4.479792883E-01+
*       1.6022114625E+00               0
GRID*               2603               0-6.563575418E-01-4.149183115E-01+
*       1.6196845136E+00               0
GRID*               2604               0-6.509851718E-01-3.983886624E-01+
*       1.5214187847E+00               0
GRID*               2605               06.3897306560E-01-5.276082616E-02+
*       2.9151024292E-01               0
GRID*               2606               07.0147436055E-01-5.276589181E-02+
*       2.9151073637E-01               0
GRID*               2607               0-5.571265876E-01-4.028463870E-01+
*       1.4859643635E+00               0
GRID*               2608               06.3897565550E-011.3085858336E-03+
*       2.9151024210E-01               0
GRID*               2609               06.5615518636E-014.6983613068E-02+
*       3.4573528536E-01               0
GRID*               2610               06.5615259646E-01-7.085798929E-03+
*       3.4573528617E-01               0
GRID*               2611               06.7012825197E-01-5.777207411E-03+
*       2.6337773268E-01               0
GRID*               2612               0-7.152039805E-01-2.330255642E-01+
*       1.6870905486E+00               0
GRID*               2613               05.7647436055E-01-1.745601870E-02+
*       1.7309159618E-01               0
GRID*               2614               05.6669837674E-01-5.773623124E-02+
*       9.7107832374E-02               0
GRID*               2615               06.9169837674E-01-7.427643027E-02+
*       9.7107832567E-02               0
GRID*               2616               01.0615630731E+00-3.171616178E-01+
*       -1.936249878E-01               0
GRID*               2617               01.1214379033E+00-3.493370974E-01+
*       -1.936249878E-01               0
GRID*               2618               01.1245481405E+00-2.652885805E-01+
*       -1.818713777E-01               0
GRID*               2619               01.0646733103E+00-2.331131008E-01+
*       -1.818713777E-01               0
GRID*               2620               01.1039155238E+00-2.977887393E-01+
*       -1.254963655E-01               0
GRID*               2621               0-1.217430866E+00-8.117632512E-01+
*       -5.212020949E-02               0
GRID*               2622               0-1.169575708E+00-7.632643243E-01+
*       -7.322133993E-02               0
GRID*               2623               0-1.202144841E+00-7.976549193E-01+
*       -2.110113044E-02               0
GRID*               2624               0-1.217775935E+00-8.329408333E-01+
*       -2.182444132E-02               0
GRID*               2625               0-1.185206802E+00-7.985502383E-01+
*       -7.394465081E-02               0
GRID*               2626               0-1.169920776E+00-7.844419065E-01+
*       -4.292557176E-02               0
GRID*               2627               01.2207341994E+00-8.647907033E-01+
*       -3.083108813E-02               0
GRID*               2628               01.1747817571E+00-9.013543821E-01+
*       -3.083108813E-02               0
GRID*               2629               01.1617323114E+00-8.728700755E-01+
*       -3.083108813E-02               0
GRID*               2630               0-1.127614163E+00-8.494592749E-01+
*       -9.277222711E-02               0
GRID*               2631               0-1.150317506E+00-8.182333180E-01+
*       -9.277208095E-02               0
GRID*               2632               0-1.150317511E+00-8.182333030E-01+
*       -1.344387471E-01               0
GRID*               2633               0-1.136576089E+00-7.689216070E-01+
*       -6.276779575E-02               0
GRID*               2634               0-1.136587371E+00-7.302690542E-01+
*       -6.276779892E-02               0
GRID*               2635               0-1.151862115E+00-7.830299389E-01+
*       -9.378687480E-02               0
GRID*               2636               0-1.151873396E+00-7.443773861E-01+
*       -9.378687797E-02               0
GRID*               2637               01.1154337014E+00-1.841041140E-01+
*       -5.687137771E-02               0
GRID*               2638               01.1241863331E+00-1.453504646E-01+
*       -1.160916417E-01               0
GRID*               2639               01.1325942736E+00-1.157143563E-01+
*       -5.922026400E-02               0
GRID*               2640               01.1554385339E+00-1.539424966E-01+
*       -3.100978280E-02               0
GRID*               2641               01.1470305934E+00-1.835786049E-01+
*       -8.788116051E-02               0
GRID*               2642               01.1641911656E+00-1.151888472E-01+
*       -9.023004680E-02               0
GRID*               2643               06.9624825439E-01-5.824852313E-01+
*       1.1836158839E+00               0
GRID*               2644               06.4212114617E-01-6.167453612E-01+
*       1.1836348472E+00               0
GRID*               2645               06.9587289178E-01-6.530921323E-01+
*       1.1981564969E+00               0
GRID*               2646               06.9013237464E-01-6.346783445E-01+
*       1.2532228161E+00               0
GRID*               2647               06.3638062903E-01-5.983315734E-01+
*       1.2387011664E+00               0
GRID*               2648               06.9013237464E-01-6.917881970E-01+
*       1.3692403367E+00               0
GRID*               2649               06.2763151235E-01-7.161794901E-01+
*       1.3408967232E+00               0
GRID*               2650               06.2763173788E-01-6.653500059E-01+
*       1.3956785531E+00               0
GRID*               2651               05.6144083319E-017.5287444364E-01+
*       1.8183504839E-01               0
GRID*               2652               05.6144083319E-018.3111349771E-01+
*       1.8096288797E-01               0
GRID*               2653               05.7705803673E-017.4896768603E-01+
*       2.7971660823E-01               0
GRID*               2654               06.3849886992E-018.0345045034E-01+
*       2.2422862377E-01               0
GRID*               2655               05.7705803673E-018.2720674010E-01+
*       2.7884444781E-01               0
GRID*               2656               07.1876557323E-01-6.823200991E-01+
*       1.4174931092E+00               0
GRID*               2657               06.5889794788E-01-6.410565886E-01+
*       1.3565608711E+00               0
GRID*               2658               06.5626493647E-01-6.558819080E-01+
*       1.4439313257E+00               0
GRID*               2659               06.9201618188E-016.4615581190E-01+
*       4.4565992641E-01               0
GRID*               2660               06.9201618188E-017.1050169509E-01+
*       4.1727482987E-01               0
GRID*               2661               06.9201618188E-016.5604319419E-01+
*       3.7565354964E-01               0
GRID*               2662               05.7186183179E-016.4949997737E-01+
*       3.1681435331E-01               0
GRID*               2663               05.7186183179E-016.2977500727E-01+
*       2.6397912209E-01               0
GRID*               2664               05.7186183179E-016.8724329349E-01+
*       2.6166546279E-01               0
GRID*               2665               06.9587289178E-01-6.951897981E-01+
*       1.2440194014E+00               0
GRID*               2666               06.9013237464E-01-6.767760103E-01+
*       1.2990857206E+00               0
GRID*               2667               04.7415320032E-01-3.287780825E-01+
*       -6.633758193E-02               0
GRID*               2668               05.6777370031E-01-2.774597077E-01+
*       -7.506360030E-02               0
GRID*               2669               05.4192690063E-01-2.985454825E-01+
*       -1.414011822E-01               0
GRID*               2670               0-1.217302240E+00-1.151382421E-01+
*       -3.055797597E-02               0
GRID*               2671               0-1.154735691E+00-7.677936723E-02+
*       -3.055797597E-02               0
GRID*               2672               0-1.155431262E+00-1.539049212E-01+
*       -3.055797597E-02               0
GRID*               2673               07.3897843423E-01-4.402554838E-01+
*       -7.804296395E-02               0
GRID*               2674               06.5926280787E-01-4.748334152E-01+
*       -1.477751119E-01               0
GRID*               2675               06.5622820141E-01-4.342223304E-01+
*       -1.947321479E-01               0
GRID*               2676               05.7186183179E-016.5077158078E-01+
*       2.0634797978E-01               0
GRID*               2677               05.6844991718E-015.9961180486E-01+
*       1.0372921930E-01               0
GRID*               2678               05.6844991718E-015.7861523135E-01+
*       1.6136036161E-01               0
GRID*               2679               05.6144083319E-017.1640273093E-01+
*       1.2651756538E-01               0
GRID*               2680               06.8674112026E-01-8.667458523E-01+
*       4.0387535244E-01               0
GRID*               2681               06.8674112026E-01-8.232082180E-01+
*       4.4009896619E-01               0
GRID*               2682               06.8674112026E-01-8.036180607E-01+
*       3.8821272514E-01               0
GRID*               2683               06.9149883701E-01-6.482570886E-01+
*       3.1924081559E-01               0
GRID*               2684               06.9149883701E-01-5.840549485E-01+
*       3.0959496803E-01               0
GRID*               2685               06.9149883701E-01-6.285321185E-01+
*       2.6640558403E-01               0
GRID*               2686               06.9283600216E-01-7.460422187E-01+
*       1.9705309058E-01               0
GRID*               2687               06.9283600216E-01-7.806842902E-01+
*       1.3643126377E-01               0
GRID*               2688               06.9283600216E-01-8.242812725E-01+
*       1.9618092964E-01               0
GRID*               2689               0-1.105316700E+006.5958884457E-01+
*       -2.173423957E-02               0
GRID*               2690               0-1.128021146E+006.9081568796E-01+
*       -6.340090488E-02               0
GRID*               2691               0-1.105317801E+006.5958974127E-01+
*       -6.340105104E-02               0
GRID*               2692               04.6468615552E-01-5.225036617E-01+
*       -6.341313363E-02               0
GRID*               2693               05.0997052916E-01-4.801585162E-01+
*       -1.331452816E-01               0
GRID*               2694               05.2725342754E-01-5.660696736E-01+
*       -6.835204293E-02               0
GRID*               2695               04.9193958306E-01-5.501117968E-01+
*       -1.317651766E-01               0
GRID*               2696               05.7253780118E-01-5.237245281E-01+
*       -1.380841909E-01               0
GRID*               2697               06.9149883701E-01-6.860004044E-01+
*       2.6409192440E-01               0
GRID*               2698               06.9149883701E-01-7.133376072E-01+
*       3.2375307885E-01               0
GRID*               2699               05.5250157454E-01-4.789217081E-01+
*       -1.947321479E-01               0
GRID*               2700               05.1895832864E-01-4.135554745E-01+
*       -1.947321479E-01               0
GRID*               2701               04.7190335642E-01-5.053089769E-01+
*       -1.884131336E-01               0
GRID*               2702               04.3836011052E-01-4.399427432E-01+
*       -1.884131336E-01               0
GRID*               2703               05.7414348943E-015.3752143709E-02+
*       3.3750841537E-02               0
GRID*               2704               05.7414348943E-012.3560703868E-02+
*       1.0226609300E-01               0
GRID*               2705               05.7414348943E-01-2.317093321E-02+
*       3.3750841537E-02               0
GRID*               2706               03.6110183561E-011.0565490607E-01+
*       -5.522328053E-02               0
GRID*               2707               02.9855619109E-016.7166755744E-02+
*       -5.522328053E-02               0
GRID*               2708               03.5235532034E-012.0175789280E-01+
*       -6.067671552E-02               0
GRID*               2709               03.3881670464E-011.5383478274E-01+
*       -1.158999960E-01               0
GRID*               2710               01.7760901690E-011.2043332019E-01+
*       -1.886022391E-01               0
GRID*               2711               02.5613572751E-012.1576758486E-01+
*       -1.856767155E-01               0
GRID*               2712               01.9856667154E-011.9378291292E-01+
*       -1.867177211E-01               0
GRID*               2713               01.9397442281E-011.3261883285E-01+
*       -1.253199602E-01               0
GRID*               2714               02.7250113341E-012.2795309753E-01+
*       -1.223944366E-01               0
GRID*               2715               05.6939303249E-017.8638079868E-02+
*       -1.815489196E-01               0
GRID*               2716               06.4347510866E-016.7473091131E-02+
*       -1.815489196E-01               0
GRID*               2717               05.0804406128E-011.8523430579E-01+
*       -1.804024966E-01               0
GRID*               2718               05.9786755688E-011.1918304028E-01+
*       -1.119514162E-01               0
GRID*               2719               05.8212613745E-011.7406931705E-01+
*       -1.804024966E-01               0
GRID*               2720               05.1943757396E-01-3.633560140E-01+
*       -1.360697299E-01               0
GRID*               2721               04.4782715532E-01-3.231402410E-01+
*       -1.913375819E-01               0
GRID*               2722               04.3883935584E-01-3.897432827E-01+
*       -1.297507156E-01               0
GRID*               2723               0-2.897779809E-01-9.582190272E-02+
*       -1.846632688E-01               0
GRID*               2724               0-2.556806310E-01-1.647576037E-01+
*       -1.846632688E-01               0
GRID*               2725               05.7087254986E-016.7668173848E-01+
*       1.3767751445E+00               0
GRID*               2726               05.7087254986E-016.0301148845E-01+
*       1.3259998961E+00               0
GRID*               2727               05.7087254986E-016.6166955214E-01+
*       1.3066205278E+00               0
GRID*               2728               05.3218665096E-017.2315051795E-01+
*       1.3097940339E+00               0
GRID*               2729               06.0233323183E-017.1640729528E-01+
*       1.2674737010E+00               0
GRID*               2730               05.7014658087E-016.9628411218E-01+
*       1.2475430086E+00               0
GRID*               2731               05.3098717573E-017.4280796416E-01+
*       1.2793396457E+00               0
GRID*               2732               05.6317382670E-017.6293114726E-01+
*       1.2992703381E+00               0
GRID*               2733               06.0113375660E-017.3606474149E-01+
*       1.2370193128E+00               0
GRID*               2734               05.7014658087E-017.2097566503E-01+
*       1.1956476870E+00               0
GRID*               2735               05.3098717573E-017.6749951701E-01+
*       1.2274443241E+00               0
GRID*               2736               06.3337341215E-017.0107303152E-01+
*       1.3484315310E+00               0
GRID*               2737               06.3337318661E-016.5024354730E-01+
*       1.4032133609E+00               0
GRID*               2738               05.6298534288E-014.9305289751E-01+
*       1.2876683863E+00               0
GRID*               2739               06.3385789273E-015.8103062578E-01+
*       1.2646630815E+00               0
GRID*               2740               05.7087254986E-015.3233404115E-01+
*       1.3463830189E+00               0
GRID*               2741               06.2565521789E-015.0327065748E-01+
*       1.2695028369E+00               0
GRID*               2742               06.3354242487E-015.4255180112E-01+
*       1.3282174696E+00               0
GRID*               2743               05.3098717573E-018.0441368889E-01+
*       1.2910680076E+00               0
GRID*               2744               05.6701618188E-015.8042534705E-01+
*       3.6861581145E-01               0
GRID*               2745               05.6701618188E-016.0368992157E-01+
*       4.3387577144E-01               0
GRID*               2746               05.6920996494E-014.9361457516E-01+
*       4.3105247573E-01               0
GRID*               2747               05.6920996494E-014.7035000064E-01+
*       3.6579251575E-01               0
GRID*               2748               06.3622614682E-015.5627458177E-01+
*       4.0607920930E-01               0
GRID*               2749               06.9686183179E-016.6091568393E-01+
*       3.1420624351E-01               0
GRID*               2750               06.9686183179E-016.6849340649E-01+
*       2.5821732983E-01               0
GRID*               2751               06.9686183179E-016.1428699767E-01+
*       2.6895321510E-01               0
GRID*               2752               05.6701618188E-017.2929816406E-01+
*       4.3466016434E-01               0
GRID*               2753               06.2625240356E-017.6184241061E-01+
*       4.1329565998E-01               0
GRID*               2754               05.5923622168E-018.2479064649E-01+
*       4.3905331932E-01               0
GRID*               2755               05.6143820053E-017.5997372032E-01+
*       5.3549507941E-01               0
GRID*               2756               06.2845438241E-016.9702548443E-01+
*       5.0973742007E-01               0
GRID*               2757               06.2067442221E-017.9251796686E-01+
*       5.1413057505E-01               0
GRID*               2758               05.6844991718E-015.2090582445E-01+
*       1.2263864858E-01               0
GRID*               2759               06.9201618188E-015.9053423873E-01+
*       3.9814712811E-01               0
GRID*               2760               06.3887801367E-016.7122241791E-01+
*       3.4745519886E-01               0
GRID*               2761               06.9686183179E-015.9540672846E-01+
*       3.3669982197E-01               0
GRID*               2762               06.9420996494E-014.8045889232E-01+
*       3.9532383240E-01               0
GRID*               2763               06.4107179673E-015.6114707150E-01+
*       3.4463190316E-01               0
GRID*               2764               03.8294568779E-01-4.043038204E-02+
*       -7.014630538E-02               0
GRID*               2765               02.1079130474E-014.9751072261E-02+
*       -1.886022391E-01               0
GRID*               2766               05.6701618188E-016.3980773169E-01+
*       5.0950132953E-01               0
GRID*               2767               05.6163279830E-015.8043996260E-01+
*       5.0222650864E-01               0
GRID*               2768               06.2864898018E-016.4309996920E-01+
*       4.7725324221E-01               0
GRID*               2769               05.6163279830E-016.1655777271E-01+
*       5.7785206674E-01               0
GRID*               2770               05.6206220801E-015.7645262993E-01+
*       6.3351903292E-01               0
GRID*               2771               05.6206220801E-015.4033481981E-01+
*       5.5789347482E-01               0
GRID*               2772               06.2369500631E-015.7974486745E-01+
*       6.0127094560E-01               0
GRID*               2773               0-1.134730163E+007.6719185426E-01+
*       -1.873423035E-01               0
GRID*               2774               0-1.167193747E+007.6054992718E-01+
*       -1.773420852E-01               0
GRID*               2775               0-1.153203252E+007.7521221827E-01+
*       -2.072766601E-01               0
GRID*               2776               05.6701618188E-016.7434556541E-01+
*       4.3760247824E-01               0
GRID*               2777               05.6143820053E-016.7048328794E-01+
*       6.1033624460E-01               0
GRID*               2778               05.6143820053E-017.0502112166E-01+
*       5.3843739331E-01               0
GRID*               2779               0-1.082809685E+004.7941438339E-01+
*       -5.809163785E-02               0
GRID*               2780               0-1.011168081E+005.0967121788E-01+
*       -5.809163785E-02               0
GRID*               2781               0-1.020087225E+004.3346241517E-01+
*       -5.809163785E-02               0
GRID*               2782               07.0205803673E-017.2264007647E-01+
*       3.3225738895E-01               0
GRID*               2783               06.4407421861E-017.3294681045E-01+
*       3.6550634430E-01               0
GRID*               2784               07.0205803673E-017.7709857736E-01+
*       3.7387866918E-01               0
GRID*               2785               06.5901576149E-01-5.893966506E-01+
*       -1.861855857E-01               0
GRID*               2786               06.0266298999E-01-5.564614398E-01+
*       -1.933520429E-01               0
GRID*               2787               04.3594535486E-01-5.637161484E-01+
*       -1.884131336E-01               0
GRID*               2788               04.9851262688E-01-6.072821603E-01+
*       -1.933520429E-01               0
GRID*               2789               05.3447062844E-01-5.488749888E-01+
*       -1.933520429E-01               0
GRID*               2790               09.1454522257E-01-9.763416475E-01+
*       -2.211047820E-01               0
GRID*               2791               08.4101581080E-01-9.763416475E-01+
*       -2.211047820E-01               0
GRID*               2792               08.6865921029E-01-9.763416475E-01+
*       -1.616016687E-01               0
GRID*               2793               01.1391452609E+00-8.331922747E-01+
*       -1.565158570E-01               0
GRID*               2794               01.1129461962E+00-8.318276761E-01+
*       -1.866204410E-01               0
GRID*               2795               01.1331918671E+00-8.764487986E-01+
*       -1.764693203E-01               0
GRID*               2796               01.0902394364E+00-8.631005084E-01+
*       -1.866205691E-01               0
GRID*               2797               05.7264840468E-01-6.333337521E-01+
*       4.1331536332E-02               0
GRID*               2798               06.5625460372E-01-6.169540211E-01+
*       -1.985404933E-02               0
GRID*               2799               05.8360619904E-01-6.759279613E-01+
*       -6.118558566E-02               0
GRID*               2800               05.9990183222E-01-5.840188103E-01+
*       -2.702050660E-02               0
GRID*               2801               01.0685411068E+00-9.806245446E-01+
*       -2.190142842E-01               0
GRID*               2802               09.9501169500E-01-9.806245446E-01+
*       -2.190142842E-01               0
GRID*               2803               01.0234240242E+00-9.806245446E-01+
*       -1.567011808E-01               0
GRID*               2804               0-7.363921159E-011.9336232950E-01+
*       -6.939171314E-02               0
GRID*               2805               08.4497648547E-01-6.695858035E-01+
*       -9.978315397E-02               0
GRID*               2806               08.6766184025E-01-6.383464087E-01+
*       -9.978304297E-02               0
GRID*               2807               08.6766157295E-01-6.383466257E-01+
*       -1.414496749E-01               0
GRID*               2808               03.9091639383E-01-6.501321294E-01+
*       -5.961426581E-02               0
GRID*               2809               04.1775966882E-01-5.974431378E-01+
*       -1.230273994E-01               0
GRID*               2810               04.0252903605E-01-5.592347765E-01+
*       -6.341313363E-02               0
GRID*               2811               04.6509630807E-01-6.028007884E-01+
*       -6.835204293E-02               0
GRID*               2812               09.1750578900E-01-6.282851691E-01+
*       -2.282160708E-01               0
GRID*               2813               09.0275744077E-01-6.467013397E-01+
*       -2.285847156E-01               0
GRID*               2814               09.0275634629E-01-6.467022312E-01+
*       -1.869179049E-01               0
GRID*               2815               08.9377591959E-01-6.260845085E-01+
*       -2.068007864E-01               0
GRID*               2816               08.5975274136E-01-7.206606894E-01+
*       -1.868462670E-01               0
GRID*               2817               08.0388036762E-01-7.371818078E-01+
*       -1.583252493E-01               0
GRID*               2818               08.4716025535E-01-7.036043396E-01+
*       -2.067332216E-01               0
GRID*               2819               0-6.849066319E-016.8327098696E-01+
*       6.2284522326E-01               0
GRID*               2820               0-6.126302336E-016.5363523873E-01+
*       6.5711829965E-01               0
GRID*               2821               0-6.777236017E-015.8362978696E-01+
*       6.4437323044E-01               0
GRID*               2822               0-6.888916769E-016.2281002875E-01+
*       5.7177581976E-01               0
GRID*               2823               0-6.237983088E-016.9281548051E-01+
*       5.8452088896E-01               0
GRID*               2824               0-6.888916769E-015.4138869679E-01+
*       5.4982244963E-01               0
GRID*               2825               0-6.248569715E-014.1235481263E-01+
*       5.9918406242E-01               0
GRID*               2826               0-6.150813904E-015.0704979814E-01+
*       6.1703927347E-01               0
GRID*               2827               0-6.152227846E-014.5929905322E-01+
*       6.6079109578E-01               0
GRID*               2828               0-5.939584409E-013.9199323469E-01+
*       6.1920868195E-01               0
GRID*               2829               0-5.938170466E-014.3974397961E-01+
*       5.7545685964E-01               0
GRID*               2830               0-5.841828597E-014.8668822020E-01+
*       6.3706389300E-01               0
GRID*               2831               0-4.302812393E-023.9635038100E-02+
*       -1.785009296E-01               0
GRID*               2832               0-8.363691666E-02-2.414290954E-02+
*       -1.785009296E-01               0
GRID*               2833               0-9.044217785E-03-2.987426607E-02+
*       -1.785009296E-01               0
GRID*               2834               0-6.152236017E-014.6699701698E-01+
*       7.1432315341E-01               0
GRID*               2835               0-6.557433665E-014.0642627906E-01+
*       7.3795805466E-01               0
GRID*               2836               0-6.459669682E-014.9342330081E-01+
*       7.0228120807E-01               0
GRID*               2837               0-6.557425494E-013.9872831530E-01+
*       6.8442599702E-01               0
GRID*               2838               0-6.564549219E-01-4.295123978E-02+
*       1.7106315546E+00               0
GRID*               2839               0-6.668275167E-01-8.432751099E-02+
*       1.5961584654E+00               0
GRID*               2840               0-6.564557839E-01-1.174749145E-01+
*       1.7050463678E+00               0
GRID*               2841               0-6.789780111E-015.8459111408E-01+
*       8.1698948424E-01               0
GRID*               2842               0-6.789780111E-015.1372059862E-01+
*       7.6765081045E-01               0
GRID*               2843               0-6.777236017E-015.1807380501E-01+
*       6.8956606469E-01               0
GRID*               2844               0-6.777236017E-015.8894432047E-01+
*       7.3890473848E-01               0
GRID*               2845               0-6.067016128E-015.4964083234E-01+
*       7.5673105259E-01               0
GRID*               2846               0-2.286522200E-01-2.790840916E-01+
*       -1.870985343E-01               0
GRID*               2847               0-1.873429057E-01-2.147929929E-01+
*       -1.870985343E-01               0
GRID*               2848               0-2.969899452E-01-2.290487024E-01+
*       -1.846632688E-01               0
GRID*               2849               0-6.164780111E-014.6264381059E-01+
*       7.9240789918E-01               0
GRID*               2850               0-6.472213776E-014.8907009442E-01+
*       7.8036595383E-01               0
GRID*               2851               0-5.539780111E-015.1595420407E-01+
*       7.6528239097E-01               0
GRID*               2852               0-5.539780111E-015.7720272879E-01+
*       8.0490603019E-01               0
GRID*               2853               0-5.527236017E-015.8155593518E-01+
*       7.2682128443E-01               0
GRID*               2854               0-5.527236017E-015.2030741047E-01+
*       6.8719764521E-01               0
GRID*               2855               01.0128366639E+00-8.878056273E-01+
*       -2.279986795E-01               0
GRID*               2856               01.0128366640E+00-8.878056273E-01+
*       -1.863320128E-01               0
GRID*               2857               09.7030973206E-01-8.844566937E-01+
*       -2.286301259E-01               0
GRID*               2858               09.8307343619E-01-8.972623424E-01+
*       -2.066288054E-01               0
GRID*               2859               09.7030973213E-01-8.844566937E-01+
*       -1.869634593E-01               0
GRID*               2860               0-6.527048425E-01-1.962887899E-01+
*       1.6940414874E+00               0
GRID*               2861               0-5.950357223E-01-2.158771835E-01+
*       1.6862764604E+00               0
GRID*               2862               0-6.227393329E-01-1.902637219E-01+
*       1.6581173347E+00               0
GRID*               2863               0-5.950353524E-01-6.849860671E-02+
*       1.7084906603E+00               0
GRID*               2864               0-6.299549530E-013.4794049897E-01+
*       1.5684965246E+00               0
GRID*               2865               0-6.616774697E-013.0542191845E-01+
*       1.5463168072E+00               0
GRID*               2866               0-6.567246015E-013.9135922633E-01+
*       1.6287913867E+00               0
GRID*               2867               0-6.557693068E-014.2672905483E-01+
*       1.6166528308E+00               0
GRID*               2868               0-6.607221750E-013.4079174696E-01+
*       1.5341782514E+00               0
GRID*               2869               0-6.874918235E-013.8421047431E-01+
*       1.5944731135E+00               0
GRID*               2870               0-7.193878275E-012.4969310137E-01+
*       1.6777866525E+00               0
GRID*               2871               0-6.568874576E-012.8581122907E-01+
*       1.6681085783E+00               0
GRID*               2872               0-7.192393566E-012.1509709328E-01+
*       1.6865748182E+00               0
GRID*               2873               0-6.886271841E-012.4226929653E-01+
*       1.6394337222E+00               0
GRID*               2874               0-6.567389867E-012.5121522099E-01+
*       1.6768967440E+00               0
GRID*               2875               0-7.000075261E-01-9.178938001E-02+
*       1.4324438053E+00               0
GRID*               2876               0-7.000075261E-01-2.263893768E-02+
*       1.4316518396E+00               0
GRID*               2877               0-6.978725948E-01-2.357572771E-02+
*       1.4935994333E+00               0
GRID*               2878               0-7.192235591E-013.5709082448E-01+
*       1.6437426893E+00               0
GRID*               2879               0-7.182682644E-013.9246065298E-01+
*       1.6316041335E+00               0
GRID*               2880               0-1.100251360E+005.5377949725E-01+
*       -5.809163785E-02               0
GRID*               2881               0-1.155865791E+005.4970176453E-01+
*       -3.002493483E-02               0
GRID*               2882               0-1.173307465E+006.2406687840E-01+
*       -3.002493483E-02               0
GRID*               2883               0-1.123769329E+005.4844216263E-01+
*       -8.811657268E-02               0
GRID*               2884               0-7.000075261E-01-1.594332481E-01+
*       1.4166541139E+00               0
GRID*               2885               0-6.978725948E-01-1.603700381E-01+
*       1.4786017076E+00               0
GRID*               2886               0-9.363223961E-016.2170734657E-01+
*       -2.073873174E-02               0
GRID*               2887               0-9.363201789E-016.2170897854E-01+
*       -6.240510217E-02               0
GRID*               2888               0-9.190495969E-016.0878077118E-01+
*       -4.225774241E-02               0
GRID*               2889               0-9.518753853E-015.8541181088E-01+
*       -1.049523048E-01               0
GRID*               2890               0-9.151644777E-015.9735657338E-01+
*       -1.049520086E-01               0
GRID*               2891               0-9.558315806E-016.1567764724E-01+
*       -6.306535754E-02               0
GRID*               2892               0-9.925424882E-016.0373288475E-01+
*       -6.306565379E-02               0
GRID*               2893               0-9.444907934E-015.6414467433E-01+
*       -8.468462528E-02               0
GRID*               2894               0-5.212593429E-018.5468627305E-01+
*       -2.003108331E-01               0
GRID*               2895               0-5.206050909E-017.9888858966E-01+
*       -1.492379390E-01               0
GRID*               2896               0-4.402717568E-018.2784007340E-01+
*       -1.989271058E-01               0
GRID*               2897               0-4.412138801E-019.1050810981E-01+
*       -2.189102311E-01               0
GRID*               2898               0-5.215472142E-018.8155662606E-01+
*       -1.692210642E-01               0
GRID*               2899               0-4.405596281E-018.5471042642E-01+
*       -1.678373369E-01               0
GRID*               2900               0-1.151862120E+00-7.830299239E-01+
*       -1.354535410E-01               0
GRID*               2901               0-1.183317124E+00-8.125760353E-01+
*       -1.032256251E-01               0
GRID*               2902               0-5.507963385E-018.3594431773E-01+
*       -7.531083315E-02               0
GRID*               2903               0-5.507963385E-017.5902124080E-01+
*       -7.531083315E-02               0
GRID*               2904               0-5.676096001E-018.0268536247E-01+
*       1.1925280816E-02               0
GRID*               2905               0-6.184059386E-017.9247583404E-01+
*       -6.338555233E-02               0
GRID*               2906               0-5.676096001E-017.2576228554E-01+
*       1.1925280816E-02               0
GRID*               2907               0-1.041126039E+00-9.107420800E-01+
*       -7.326789013E-02               0
GRID*               2908               0-1.077890404E+00-8.988116584E-01+
*       -7.326803493E-02               0
GRID*               2909               0-1.022240592E+00-9.001708382E-01+
*       -9.447267213E-02               0
GRID*               2910               0-1.063439551E+00-9.359129396E-01+
*       -8.440722891E-02               0
GRID*               2911               0-1.059004957E+00-8.882404166E-01+
*       -9.447281693E-02               0
GRID*               2912               0-1.340925412E-017.2635319401E-01+
*       -5.878256863E-02               0
GRID*               2913               0-1.904684461E-017.6409480162E-01+
*       -5.878256863E-02               0
GRID*               2914               0-1.144639036E-017.9175587599E-01+
*       -1.191504248E-01               0
GRID*               2915               0-1.116847441E+00-8.656495578E-01+
*       -9.359340612E-02               0
GRID*               2916               0-1.116847152E+00-8.656497929E-01+
*       -1.352600352E-01               0
GRID*               2917               0-1.093105587E+00-8.873890269E-01+
*       -9.410278287E-02               0
GRID*               2918               0-1.136497218E+00-9.018994493E-01+
*       -1.043625660E-01               0
GRID*               2919               0-1.093105298E+00-8.873892620E-01+
*       -1.357694119E-01               0
GRID*               2920               0-1.169521203E+00-8.566053210E-01+
*       -2.182444132E-02               0
GRID*               2921               0-1.226243853E+00-8.731141022E-01+
*       -3.086379896E-02               0
GRID*               2922               0-1.194019788E+00-8.599010894E-01+
*       -5.268824029E-02               0
GRID*               2923               0-1.177989121E+00-8.967785899E-01+
*       -3.086379896E-02               0
GRID*               2924               01.1293000585E+008.1419260342E-01+
*       -6.283992832E-02               0
GRID*               2925               01.1293005691E+008.1419133683E-01+
*       -2.117342004E-02               0
GRID*               2926               01.1358704516E+007.6779090436E-01+
*       -2.191744497E-02               0
GRID*               2927               01.1358699411E+007.6779217095E-01+
*       -6.358395325E-02               0
GRID*               2928               01.1462930127E+007.9334404580E-01+
*       -4.309086500E-02               0
GRID*               2929               0-6.746395268E-018.1361163917E-01+
*       -1.452930679E-01               0
GRID*               2930               0-7.036967723E-017.2723998279E-01+
*       -1.460015361E-01               0
GRID*               2931               0-6.474631841E-017.0610417766E-01+
*       -6.409402057E-02               0
GRID*               2932               0-6.914527884E-017.8035268391E-01+
*       -5.805695390E-02               0
GRID*               2933               01.1358809617E+007.2918553112E-01+
*       -6.358435210E-02               0
GRID*               2934               01.1514220148E+007.6178650608E-01+
*       -9.410125535E-02               0
GRID*               2935               01.1684149690E+007.4093794845E-01+
*       -7.435219203E-02               0
GRID*               2936               01.1514330355E+007.2317986625E-01+
*       -9.410165420E-02               0
GRID*               2937               01.2224864578E+006.5055565718E-01+
*       -3.064428024E-02               0
GRID*               2938               01.1689030577E+006.0375012925E-01+
*       -3.064428024E-02               0
GRID*               2939               01.1897115988E+006.5533656723E-01+
*       -3.064428024E-02               0
GRID*               2940               0-7.400127761E-018.3839059797E-01+
*       -1.949822347E-01               0
GRID*               2941               0-6.915899332E-017.8826129908E-01+
*       -1.949822347E-01               0
GRID*               2942               0-6.669659262E-018.5051374809E-01+
*       -2.003108331E-01               0
GRID*               2943               0-5.798535840E-016.7264958442E-01+
*       -7.601930138E-02               0
GRID*               2944               0-5.798535840E-015.9572650750E-01+
*       -7.601930138E-02               0
GRID*               2945               0-5.525338497E-016.3700700621E-01+
*       4.1790477137E-02               0
GRID*               2946               0-5.525338497E-015.6008392928E-01+
*       4.1790477137E-02               0
GRID*               2947               07.6296402449E-01-6.325525524E-01+
*       -1.831164855E-01               0
GRID*               2948               07.3802521138E-01-6.436688492E-01+
*       -1.193020712E-01               0
GRID*               2949               06.9215121119E-01-6.484319335E-01+
*       -1.861855857E-01               0
GRID*               2950               07.1829130223E-01-7.019862906E-01+
*       -1.159979027E-01               0
GRID*               2951               08.2524257632E-01-7.279032449E-01+
*       -9.647898553E-02               0
GRID*               2952               08.2835078516E-01-6.673162634E-01+
*       -8.037404920E-02               0
GRID*               2953               08.0861687601E-01-7.256337048E-01+
*       -7.706988075E-02               0
GRID*               2954               09.7282833607E-01-6.084240180E-01+
*       -1.872914127E-01               0
GRID*               2955               09.2397646770E-01-5.650371391E-01+
*       -1.540103032E-01               0
GRID*               2956               09.9156416740E-01-5.906423529E-01+
*       -1.862934413E-01               0
GRID*               2957               09.6439250348E-01-5.740663709E-01+
*       -2.069181873E-01               0
GRID*               2958               09.4271229903E-01-5.472554740E-01+
*       -1.530123319E-01               0
GRID*               2959               0-5.069305531E-017.2409547537E-01+
*       -1.989271058E-01               0
GRID*               2960               0-4.750060594E-017.7278963801E-01+
*       -1.989271058E-01               0
GRID*               2961               0-5.559936455E-017.9963583765E-01+
*       -2.003108331E-01               0
GRID*               2962               0-1.090807792E+008.6292060923E-01+
*       -2.289137471E-01               0
GRID*               2963               0-1.113493958E+008.3168058901E-01+
*       -2.289137471E-01               0
GRID*               2964               0-1.090808884E+008.6291971739E-01+
*       -1.872469365E-01               0
GRID*               2965               0-5.918608097E-018.5511542370E-01+
*       -2.003108331E-01               0
GRID*               2966               06.9112946777E-01-5.909544431E-02+
*       1.3093106867E+00               0
GRID*               2967               06.9112946777E-01-1.228864068E-01+
*       1.2957555707E+00               0
GRID*               2968               07.0174257535E-01-2.106653011E-01+
*       1.3473714946E+00               0
GRID*               2969               07.0174257535E-01-1.468743386E-01+
*       1.3609266106E+00               0
GRID*               2970               06.4287204312E-01-1.206608564E-01+
*       1.3354091222E+00               0
GRID*               2971               06.2507982833E-012.0177113375E-01+
*       1.1650886917E+00               0
GRID*               2972               06.2507759738E-012.4725843564E-01+
*       1.1358558541E+00               0
GRID*               2973               05.9382737907E-011.7927800900E-01+
*       1.1136047932E+00               0
GRID*               2974               05.9390566882E-012.2318636608E-01+
*       1.1830366366E+00               0
GRID*               2975               05.9382514813E-012.2476531089E-01+
*       1.0843719556E+00               0
GRID*               2976               06.8757905904E-011.9910003620E-01+
*       1.2969279235E+00               0
GRID*               2977               06.7665768649E-011.9109820594E-01+
*       1.3712702669E+00               0
GRID*               2978               05.7740887023E-016.4738166913E-02+
*       1.4320775664E+00               0
GRID*               2979               06.3962010137E-019.4150670621E-02+
*       1.4807245082E+00               0
GRID*               2980               05.6221123114E-016.5013590707E-02+
*       1.5147919868E+00               0
GRID*               2981               06.4544444817E-01-6.804968989E-04+
*       1.4759073929E+00               0
GRID*               2982               06.3024680908E-01-4.050731043E-04+
*       1.5586218133E+00               0
GRID*               2983               05.6021316061E-01-5.949857660E-02+
*       1.3822999972E+00               0
GRID*               2984               06.9112946777E-014.5997382588E-03+
*       1.3171979002E+00               0
GRID*               2985               06.2634262838E-01-5.489884137E-02+
*       1.3488952950E+00               0
GRID*               2986               06.8521316061E-01-1.741714101E-02+
*       1.3822999969E+00               0
GRID*               2987               07.0240887023E-016.7978342726E-02+
*       1.3743063449E+00               0
GRID*               2988               06.4353833800E-013.0496642359E-02+
*       1.3409016431E+00               0
GRID*               2989               06.3762203084E-018.4797630949E-03+
*       1.4060037397E+00               0
GRID*               2990               06.3998792927E-011.6977736883E-01+
*       1.3162653114E+00               0
GRID*               2991               07.0240887023E-011.2319791420E-01+
*       1.3786726998E+00               0
GRID*               2992               06.2906655672E-011.6177553857E-01+
*       1.3906076548E+00               0
GRID*               2993               05.6257905904E-012.2928517409E-01+
*       1.2711192380E+00               0
GRID*               2994               05.6257905904E-012.9432202743E-01+
*       1.2495708581E+00               0
GRID*               2995               05.5165768649E-012.2128334383E-01+
*       1.3454615814E+00               0
GRID*               2996               05.5165768649E-012.8632019717E-01+
*       1.3239132015E+00               0
GRID*               2997               05.3327510584E-015.2527657251E-01+
*       1.5674072652E+00               0
GRID*               2998               06.5572728034E-013.7768827167E-01+
*       1.5228316981E+00               0
GRID*               2999               06.2659680555E-013.9754887620E-01+
*       1.5541610567E+00               0
GRID*               3000               06.5605847619E-014.4819441502E-01+
*       1.6016502540E+00               0
GRID*               3001               06.8518895098E-014.2833381049E-01+
*       1.5703208954E+00               0
GRID*               3002               06.5765736658E-014.1186548438E-01+
*       1.5048402066E+00               0
GRID*               3003               05.7196027031E-013.6680951404E-01+
*       1.2653439710E+00               0
GRID*               3004               0-1.521981083E-016.1326852033E-02+
*       -6.782855200E-02               0
GRID*               3005               0-1.148772273E-016.9462688093E-02+
*       -1.381904792E-01               0
GRID*               3006               0-8.766148358E-021.6171251480E-01+
*       -7.036192720E-02               0
GRID*               3007               0-8.130128357E-028.2301085951E-02+
*       -5.350092964E-02               0
GRID*               3008               0-1.085170273E-01-9.948740757E-03+
*       -1.213294816E-01               0
GRID*               3009               0-4.398040252E-029.0436922012E-02+
*       -1.238628568E-01               0
GRID*               3010               0-2.521177548E-021.2329486672E-01+
*       -7.036192720E-02               0
GRID*               3011               0-1.885157547E-024.3883437867E-02+
*       -5.350092964E-02               0
GRID*               3012               01.7968074453E-02-1.141697761E-01+
*       -4.905797893E-02               0
GRID*               3013               0-4.427518002E-02-1.524229006E-01+
*       -4.905797893E-02               0
GRID*               3014               0-1.875510088E-02-3.290300405E-02+
*       -5.350092964E-02               0
GRID*               3015               0-8.970271845E-04-7.024127893E-02+
*       -1.025589086E-01               0
GRID*               3016               0-8.099835535E-02-7.115612849E-02+
*       -5.350092964E-02               0
GRID*               3017               02.5007348352E-021.1265242675E-01+
*       -1.953619272E-01               0
GRID*               3018               03.1367548360E-023.3240997898E-02+
*       -1.785009296E-01               0
GRID*               3019               01.3668603370E-015.7362871375E-02+
*       -1.886022391E-01               0
GRID*               3020               06.1338082822E-021.1455879549E-01+
*       -1.339641663E-01               0
GRID*               3021               06.7698282830E-023.5147366639E-02+
*       -1.171031687E-01               0
GRID*               3022               0-4.691374133E-02-1.054096816E-01+
*       -1.740579789E-01               0
GRID*               3023               02.7678957545E-02-1.111410382E-01+
*       -1.740579789E-01               0
GRID*               3024               0-8.979860461E-01-3.536994621E-01+
*       -5.675270802E-02               0
GRID*               3025               07.1902668951E-01-4.002489241E-01+
*       7.9795410064E-01               0
GRID*               3026               06.5652750660E-01-3.925509587E-01+
*       8.5148615803E-01               0
GRID*               3027               06.5652668951E-01-4.002489241E-01+
*       7.9795410064E-01               0
GRID*               3028               0-1.047238832E+00-4.707925227E-01+
*       -1.811281965E-01               0
GRID*               3029               0-1.033329696E+00-5.134839400E-01+
*       -1.138134256E-01               0
GRID*               3030               0-9.990475702E-01-4.916721788E-01+
*       -1.826852292E-01               0
GRID*               3031               0-9.652368427E-01-4.228225307E-01+
*       -1.817527080E-01               0
GRID*               3032               0-9.995189689E-01-4.446342919E-01+
*       -1.128809045E-01               0
GRID*               3033               0-1.029326386E+00-5.916334705E-01+
*       -9.935178665E-02               0
GRID*               3034               0-1.077517648E+00-5.707538144E-01+
*       -9.779475393E-02               0
GRID*               3035               0-1.062390424E+00-6.211227914E-01+
*       -6.286638763E-02               0
GRID*               3036               0-1.018202472E+00-5.638529170E-01+
*       -7.888505932E-02               0
GRID*               3037               0-1.066393734E+00-5.429732609E-01+
*       -7.732802661E-02               0
GRID*               3038               06.5765196496E-013.8695481704E-02+
*       1.1528165405E+00               0
GRID*               3039               07.2015325991E-013.8700546629E-02+
*       1.1528160483E+00               0
GRID*               3040               07.1753251535E-017.1738508389E-02+
*       1.1527054474E+00               0
GRID*               3041               06.5503122040E-017.1733443464E-02+
*       1.1527059396E+00               0
GRID*               3042               06.8768577526E-015.6359503676E-02+
*       1.1793902551E+00               0
GRID*               3043               0-7.656605295E-01-5.160033732E-01+
*       -1.911142984E-01               0
GRID*               3044               0-8.197022493E-01-5.457458642E-01+
*       -1.950782973E-01               0
GRID*               3045               05.3058551311E-01-9.615696947E-01+
*       8.3840989021E-01               0
GRID*               3046               05.3058551311E-01-8.985816547E-01+
*       7.9132545455E-01               0
GRID*               3047               05.2567384114E-01-9.643406717E-01+
*       8.7155679232E-01               0
GRID*               3048               05.5625935425E-01-9.370798339E-01+
*       8.1092446748E-01               0
GRID*               3049               05.2567384114E-01-9.013526317E-01+
*       8.2447235666E-01               0
GRID*               3050               05.9287832120E-01-9.682001276E-01+
*       7.2741842340E-01               0
GRID*               3051               05.3037832120E-01-9.682001276E-01+
*       7.2741842340E-01               0
GRID*               3052               05.3058551311E-01-9.671544284E-01+
*       7.6388878269E-01               0
GRID*               3053               05.9308551311E-01-9.671544284E-01+
*       7.6388878269E-01               0
GRID*               3054               05.6096383431E-01-9.353545560E-01+
*       7.4130720609E-01               0
GRID*               3055               0-6.849066319E-017.7276141933E-01+
*       5.4800405807E-01               0
GRID*               3056               0-6.269638446E-018.1353650653E-01+
*       5.2517936592E-01               0
GRID*               3057               0-6.269946877E-018.2826860173E-01+
*       6.1276975607E-01               0
GRID*               3058               0-9.925692172E-01-5.796817981E-01+
*       -1.410185625E-01               0
GRID*               3059               0-9.558514006E-01-5.916051062E-01+
*       -1.410188587E-01               0
GRID*               3060               0-9.821529885E-01-6.082659525E-01+
*       -1.872127720E-01               0
GRID*               3061               0-9.747222057E-01-5.629477505E-01+
*       -1.615646678E-01               0
GRID*               3062               0-9.454351718E-01-6.201892606E-01+
*       -1.872130682E-01               0
GRID*               3063               0-1.045904392E+00-4.407753258E-01+
*       -5.612819646E-02               0
GRID*               3064               0-1.054895036E+00-5.169120972E-01+
*       -5.612819646E-02               0
GRID*               3065               0-8.191341500E-01-4.814225520E-01+
*       -6.611429842E-02               0
GRID*               3066               09.6274267559E-02-5.752392598E-03+
*       -1.886022391E-01               0
GRID*               3067               04.5219887276E-02-5.299481465E-02+
*       -1.866834316E-01               0
GRID*               3068               01.2196238789E-011.2026818065E-02+
*       -1.252856707E-01               0
GRID*               3069               01.6643902547E-02-1.209505541E-02+
*       -1.151843612E-01               0
GRID*               3070               0-6.294029913E-019.3689828717E-01+
*       3.9426197626E-01               0
GRID*               3071               0-6.920572127E-019.3689828717E-01+
*       4.3238421969E-01               0
GRID*               3072               0-7.187472416E-019.7171342981E-01+
*       4.1421999953E-01               0
GRID*               3073               0-6.560930202E-019.7171342981E-01+
*       3.7609775610E-01               0
GRID*               3074               0-6.608044543E-019.0861171697E-01+
*       3.9660421922E-01               0
GRID*               3075               05.3367077877E-02-9.336182750E-02+
*       -1.107414105E-01               0
GRID*               3076               03.3933406184E-011.1119626970E-01+
*       -1.802232805E-01               0
GRID*               3077               02.5206083598E-011.1196499175E-01+
*       -1.886022391E-01               0
GRID*               3078               02.6028999404E-015.8500518065E-02+
*       -1.188255196E-01               0
GRID*               3079               01.0313413262E-011.2754007797E-01+
*       -1.886022391E-01               0
GRID*               3080               01.3102723113E-011.7831558455E-01+
*       -1.884096639E-01               0
GRID*               3081               05.6552346841E-021.8542234233E-01+
*       -1.884096639E-01               0
GRID*               3082               01.2643498240E-011.1715150448E-01+
*       -1.270119030E-01               0
GRID*               3083               01.6712484230E-011.7644212739E-01+
*       -1.876551569E-01               0
GRID*               3084               01.6253259357E-011.1527804732E-01+
*       -1.262573960E-01               0
GRID*               3085               01.8349024821E-011.8862764005E-01+
*       -1.243728780E-01               0
GRID*               3086               08.6466909872E-026.8005311344E-02+
*       -6.360223909E-02               0
GRID*               3087               0-2.402313338E-019.5607442170E-01+
*       -3.406668643E-02               0
GRID*               3088               0-2.568468626E-018.6995169474E-01+
*       -3.406668643E-02               0
GRID*               3089               0-3.165779960E-019.0656338410E-01+
*       -3.406668643E-02               0
GRID*               3090               0-1.237823462E-018.7833791038E-01+
*       -1.853678561E-01               0
GRID*               3091               0-1.808423201E-018.9761276911E-01+
*       -9.443454258E-02               0
GRID*               3092               0-2.091169795E-018.9287398467E-01+
*       -1.590666864E-01               0
GRID*               3093               0-1.760583676E-018.6096699567E-01+
*       -1.885498338E-01               0
GRID*               3094               0-1.477837081E-018.6570578010E-01+
*       -1.239176899E-01               0
GRID*               3095               0-2.331183414E-018.8024185439E-01+
*       -9.761652020E-02               0
GRID*               3096               03.1900894915E-01-2.857554195E-01+
*       -6.211736579E-02               0
GRID*               3097               02.5656105108E-01-2.472627867E-01+
*       -6.211736579E-02               0
GRID*               3098               03.1900733395E-01-2.089342579E-01+
*       -6.211736579E-02               0
GRID*               3099               02.1135616113E-01-8.893257174E-03+
*       -6.360223909E-02               0
GRID*               3100               03.7179396772E-013.9978198361E-02+
*       -1.802232805E-01               0
GRID*               3101               03.9358875103E-01-2.924417457E-02+
*       -1.951463054E-01               0
GRID*               3102               03.5301361340E-01-9.037525022E-02+
*       -1.951463054E-01               0
GRID*               3103               06.7521445416E-012.3589856247E-01+
*       4.2041497362E-02               0
GRID*               3104               06.7521445416E-011.5897548555E-01+
*       4.2041497362E-02               0
GRID*               3105               06.7521445416E-011.8347973343E-01+
*       1.1373926262E-01               0
GRID*               3106               03.6115090448E-012.8791990889E-02+
*       -5.522328053E-02               0
GRID*               3107               01.0438151711E+004.8495754896E-01+
*       -1.941411478E-01               0
GRID*               3108               01.0680248612E+005.3338003471E-01+
*       -1.941411478E-01               0
GRID*               3109               09.8661161683E-015.4409422505E-01+
*       -1.908413449E-01               0
GRID*               3110               01.0459053821E+005.6992525231E-01+
*       -1.524744811E-01               0
GRID*               3111               09.6449213774E-015.8063944266E-01+
*       -1.491746783E-01               0
GRID*               3112               01.0106640587E+006.0614684371E-01+
*       -1.864995914E-01               0
GRID*               3113               01.0564964808E+005.5107207471E-01+
*       -1.723074059E-01               0
GRID*               3114               09.7508323649E-015.6178626505E-01+
*       -1.690076030E-01               0
GRID*               3115               04.1154982089E-01-2.902350493E-01+
*       -6.633758193E-02               0
GRID*               3116               0-5.248971549E-02-5.612881233E-01+
*       -1.814331079E-01               0
GRID*               3117               0-1.363729199E-01-5.972762175E-01+
*       -1.083375172E-01               0
GRID*               3118               0-8.107956544E-02-6.348486615E-01+
*       -1.769044094E-01               0
GRID*               3119               03.8005719359E-03-6.190962591E-01+
*       -1.879755907E-01               0
GRID*               3120               0-5.149278256E-02-5.815238151E-01+
*       -1.194086986E-01               0
GRID*               3121               0-8.008263251E-02-6.550843532E-01+
*       -1.148800001E-01               0
GRID*               3122               0-3.400415412E-01-7.402199586E-01+
*       -1.967277391E-01               0
GRID*               3123               0-3.707219679E-01-7.608413657E-01+
*       -1.241854663E-01               0
GRID*               3124               0-3.650936627E-01-7.973868651E-01+
*       -1.762887406E-01               0
GRID*               3125               0-3.209565037E-01-8.136112478E-01+
*       -1.230164798E-01               0
GRID*               3126               0-3.957740894E-01-8.180082722E-01+
*       -1.037464678E-01               0
GRID*               3127               0-1.567105995E-01-6.318935785E-01+
*       -1.769044094E-01               0
GRID*               3128               0-2.342938903E-01-6.287834082E-01+
*       -1.769044094E-01               0
GRID*               3129               0-1.956905035E-01-6.990075467E-01+
*       -1.769044094E-01               0
GRID*               3130               0-6.796749241E-017.1582308435E-01+
*       3.8889322376E-01               0
GRID*               3131               0-6.796749241E-017.3541324175E-01+
*       4.4077946484E-01               0
GRID*               3132               0-6.796749241E-016.8046064309E-01+
*       4.4372177874E-01               0
GRID*               3133               0-5.670572127E-018.7443020991E-01+
*       4.6283588944E-01               0
GRID*               3134               0-5.670572127E-018.7510700769E-01+
*       3.8925860753E-01               0
GRID*               3135               0-5.670572127E-018.1422501816E-01+
*       4.2020779706E-01               0
GRID*               3136               0-5.670572127E-018.1053504740E-01+
*       4.9245978356E-01               0
GRID*               3137               0-5.546749241E-017.1292680200E-01+
*       4.9564611687E-01               0
GRID*               3138               0-6.217321368E-017.7618832894E-01+
*       4.1795477268E-01               0
GRID*               3139               0-5.546749241E-017.1661677277E-01+
*       4.2339413037E-01               0
GRID*               3140               09.2772776525E-015.9256984943E-01+
*       -1.075081564E-01               0
GRID*               3141               09.2772805444E-015.9256961466E-01+
*       -1.491747854E-01               0
GRID*               3142               0-9.024075317E-028.1230574281E-01+
*       -1.853678561E-01               0
GRID*               3143               0-1.427385630E-017.8701709155E-01+
*       -1.837825686E-01               0
GRID*               3144               0-1.091969700E-017.2098492398E-01+
*       -1.837825686E-01               0
GRID*               3145               0-6.770132460E-01-5.749872329E-01+
*       1.1901167837E+00               0
GRID*               3146               0-6.770132460E-01-5.149296066E-01+
*       1.2325290356E+00               0
GRID*               3147               0-6.946295047E-01-5.638231527E-01+
*       1.3053785939E+00               0
GRID*               3148               0-6.946295047E-01-6.238807791E-01+
*       1.2629663420E+00               0
GRID*               3149               0-6.216427507E-01-5.929938021E-01+
*       1.2388901893E+00               0
GRID*               3150               0-1.667399249E-017.7438496128E-01+
*       -1.223324024E-01               0
GRID*               3151               0-1.828742792E-017.2580819051E-01+
*       -1.837825686E-01               0
GRID*               3152               0-2.161940838E-017.9975809462E-01+
*       -1.885498338E-01               0
GRID*               3153               0-1.375830039E-015.7426930800E-01+
*       -5.955853985E-02               0
GRID*               3154               0-1.982678064E-016.1185663264E-01+
*       -5.955853985E-02               0
GRID*               3155               0-1.324363987E-016.5412300431E-01+
*       -5.878256863E-02               0
GRID*               3156               0-1.385667257E-016.2058136085E-01+
*       -1.183411085E-01               0
GRID*               3157               0-1.931212011E-016.9171032895E-01+
*       -5.878256863E-02               0
GRID*               3158               0-1.551473128E-015.7874326316E-01+
*       -1.845585398E-01               0
GRID*               3159               0-8.045318232E-025.7277679222E-01+
*       -1.845585398E-01               0
GRID*               3160               0-7.530657703E-026.5263048853E-01+
*       -1.837825686E-01               0
GRID*               3161               0-1.500007075E-016.5859695947E-01+
*       -1.837825686E-01               0
GRID*               3162               0-5.520132460E-01-5.128486264E-01+
*       1.1957056467E+00               0
GRID*               3163               0-5.520132460E-01-5.814661292E-01+
*       1.1820890823E+00               0
GRID*               3164               0-5.520132460E-01-5.649057310E-01+
*       1.2473313553E+00               0
GRID*               3165               0-6.859893561E-01-8.097974682E-01+
*       4.6660267440E-03               0
GRID*               3166               0-6.153732850E-01-7.929222021E-01+
*       7.8379693310E-02               0
GRID*               3167               0-6.793839289E-01-8.292785801E-01+
*       7.3713666566E-02               0
GRID*               3168               0-7.174538251E-01-8.843436702E-01+
*       1.9630061320E-02               0
GRID*               3169               0-6.534431812E-01-8.479872922E-01+
*       2.4296088064E-02               0
GRID*               3170               0-6.468377541E-01-8.674684041E-01+
*       9.3343727886E-02               0
GRID*               3171               0-5.309612983E-01-9.187960381E-01+
*       1.3099874853E-01               0
GRID*               3172               0-5.853452273E-01-8.785664398E-01+
*       1.5459101336E-01               0
GRID*               3173               0-5.543839289E-01-8.526329123E-01+
*       1.2383506830E-01               0
GRID*               3174               0-5.288011704E-01-9.185353520E-01+
*       9.3594862267E-02               0
GRID*               3175               0-5.597624688E-01-9.444688795E-01+
*       1.2435080733E-01               0
GRID*               3176               0-5.831850993E-01-8.783057537E-01+
*       1.1718712710E-01               0
GRID*               3177               0-6.793839289E-01-7.755177301E-01+
*       1.4549091279E-01               0
GRID*               3178               0-6.859893561E-01-7.560366182E-01+
*       7.6443272972E-02               0
GRID*               3179               0-6.878657242E-01-7.048923479E-01+
*       1.0990479295E-01               0
GRID*               3180               0-6.172496531E-01-7.417779317E-01+
*       1.1184121328E-01               0
GRID*               3181               0-6.238550803E-01-7.222968198E-01+
*       4.2793573461E-02               0
GRID*               3182               0-5.543839289E-01-8.336365509E-01+
*       1.9150302307E-01               0
GRID*               3183               0-5.309612983E-01-8.997996767E-01+
*       1.9866670329E-01               0
GRID*               3184               0-5.632442335E-01-6.203366463E-01+
*       -7.344452481E-02               0
GRID*               3185               0-6.261099577E-01-6.866821518E-01+
*       -3.531697809E-02               0
GRID*               3186               0-5.628657242E-01-6.048070440E-01+
*       3.8127546717E-02               0
GRID*               3187               0-5.636216896E-01-5.389410649E-01+
*       -9.602104006E-04               0
GRID*               3188               0-6.268659231E-01-6.208161727E-01+
*       -7.440473521E-02               0
GRID*               3189               0-6.264874138E-01-6.052865704E-01+
*       3.7167336317E-02               0
GRID*               3190               0-5.543839289E-01-8.292785801E-01+
*       7.3713666566E-02               0
GRID*               3191               0-5.543839289E-01-7.900395685E-01+
*       1.3175335719E-01               0
GRID*               3192               0-5.609893561E-01-8.097974682E-01+
*       4.6660267440E-03               0
GRID*               3193               0-5.609893561E-01-7.705584566E-01+
*       6.2705717369E-02               0
GRID*               3194               0-5.583229189E-018.2545921998E-01+
*       3.4197180908E-01               0
GRID*               3195               0-5.583229189E-017.6457723045E-01+
*       3.7292099861E-01               0
GRID*               3196               0-6.253801316E-018.2414878662E-01+
*       3.6748164092E-01               0
GRID*               3197               0-6.840440568E-01-6.530492993E-01+
*       3.1021526337E-01               0
GRID*               3198               0-6.840440568E-01-5.875403445E-01+
*       3.3270884261E-01               0
GRID*               3199               0-6.860268190E-01-6.607014817E-01+
*       3.7705800722E-01               0
GRID*               3200               0-6.200708759E-01-6.680143193E-01+
*       3.4486867339E-01               0
GRID*               3201               0-5.590440568E-01-6.793769085E-01+
*       2.5767448220E-01               0
GRID*               3202               0-5.590440568E-01-6.219086226E-01+
*       2.5998814183E-01               0
GRID*               3203               0-5.590440568E-01-6.429051957E-01+
*       2.0235699887E-01               0
GRID*               3204               0-6.153114938E-01-6.038142200E-01+
*       2.1272290492E-01               0
GRID*               3205               0-5.526633650E-01-5.025724389E-01+
*       -7.655713239E-02               0
GRID*               3206               0-6.162850546E-01-5.030519653E-01+
*       -7.751734279E-02               0
GRID*               3207               0-5.621231007E-01-5.007939005E-01+
*       -2.046301336E-04               0
GRID*               3208               0-6.147864657E-01-4.649048009E-01+
*       -7.676176252E-02               0
GRID*               3209               0-6.257447904E-01-5.012734269E-01+
*       -1.164840534E-03               0
GRID*               3210               0-6.205214807E-018.8725049945E-01+
*       2.7232688419E-01               0
GRID*               3211               0-6.292557745E-019.3689828717E-01+
*       3.1961368265E-01               0
GRID*               3212               0-6.563814395E-019.6198704243E-01+
*       2.2862219039E-01               0
GRID*               3213               0-6.525057965E-018.4923754188E-01+
*       2.7649014867E-01               0
GRID*               3214               0-6.612400904E-018.9888532960E-01+
*       3.2377694712E-01               0
GRID*               3215               0-8.796719793E-018.1817808988E-01+
*       -1.867871886E-01               0
GRID*               3216               0-8.517498442E-018.6161287559E-01+
*       -1.653205045E-01               0
GRID*               3217               0-8.532014551E-018.3207683458E-01+
*       -1.451995012E-01               0
GRID*               3218               0-8.679645844E-017.9182899572E-01+
*       -1.863780096E-01               0
GRID*               3219               0-8.665129734E-018.2136503673E-01+
*       -2.064990129E-01               0
GRID*               3220               0-8.400424493E-018.3526378143E-01+
*       -1.649113255E-01               0
GRID*               3221               0-5.628657242E-01-6.817301209E-01+
*       3.8127546717E-02               0
GRID*               3222               0-5.628657242E-01-6.483004020E-01+
*       1.0147158082E-01               0
GRID*               3223               05.6690337507E-01-8.735581204E-01+
*       6.9252910729E-01               0
GRID*               3224               05.6690337507E-01-8.117572146E-01+
*       6.4833823140E-01               0
GRID*               3225               05.6690337507E-01-8.078527110E-01+
*       7.2159930521E-01               0
GRID*               3226               0-1.219911331E+001.1365006877E-01+
*       -2.185361144E-01               0
GRID*               3227               0-1.161969046E+001.4766285574E-01+
*       -2.185361144E-01               0
GRID*               3228               0-1.219911331E+001.9057314569E-01+
*       -2.185361144E-01               0
GRID*               3229               0-6.778984316E-016.4703635465E-01+
*       3.1943236187E-01               0
GRID*               3230               0-6.778984316E-017.1211687367E-01+
*       3.2394462569E-01               0
GRID*               3231               0-6.796749241E-016.5074256532E-01+
*       3.8438095994E-01               0
GRID*               3232               0-6.075733557E-016.7487387287E-01+
*       3.5619250792E-01               0
GRID*               3233               0-6.853174970E-01-3.011576795E-01+
*       1.3767305228E+00               0
GRID*               3234               0-6.853174970E-01-2.378744653E-01+
*       1.4074019238E+00               0
GRID*               3235               0-6.821265876E-01-3.826862354E-01+
*       1.4146232189E+00               0
GRID*               3236               0-6.821265876E-01-3.194030213E-01+
*       1.4452946199E+00               0
GRID*               3237               0-6.196265328E-01-4.820691386E-01+
*       1.5153392851E+00               0
GRID*               3238               0-7.187197185E-01-5.131523787E-01+
*       1.5645540332E+00               0
GRID*               3239               0-6.508463061E-01-4.635617528E-01+
*       1.4837613554E+00               0
GRID*               3240               0-6.562196637E-01-5.448123827E-01+
*       1.5446609942E+00               0
GRID*               3241               0-6.833229189E-017.6378354203E-01+
*       3.3842009200E-01               0
GRID*               3242               0-6.129978429E-017.2654054122E-01+
*       3.7066797423E-01               0
GRID*               3243               0-6.112213505E-017.2283433055E-01+
*       3.0571937616E-01               0
GRID*               3244               0-6.778984316E-016.8477967076E-01+
*       2.6428347135E-01               0
GRID*               3245               0-6.833229189E-017.3644633912E-01+
*       2.7875893766E-01               0
GRID*               3246               0-5.528984316E-016.5845206120E-01+
*       3.1682425207E-01               0
GRID*               3247               0-5.546749241E-016.6215827188E-01+
*       3.8177285014E-01               0
GRID*               3248               0-5.583229189E-017.1011872956E-01+
*       3.3129971838E-01               0
GRID*               3249               0-6.819509459E-011.3500315408E-01+
*       1.4200728197E+00               0
GRID*               3250               0-6.241069755E-012.0376272566E-01+
*       1.3739064441E+00               0
GRID*               3251               0-6.921560296E-012.4088572033E-01+
*       1.4003221065E+00               0
GRID*               3252               0-6.244048565E-011.7994167525E-01+
*       1.4398395512E+00               0
GRID*               3253               0-6.346099402E-012.8582424150E-01+
*       1.4200888380E+00               0
GRID*               3254               0-5.499489091E-011.2901344511E-01+
*       1.1480799405E+00               0
GRID*               3255               0-5.499489091E-011.7536298572E-01+
*       1.1825874989E+00               0
GRID*               3256               0-5.650871193E-012.5898575257E-01+
*       1.1908078010E+00               0
GRID*               3257               0-5.650871193E-012.5862602768E-01+
*       1.2589529217E+00               0
GRID*               3258               0-5.650871193E-013.1536416145E-01+
*       1.2236709525E+00               0
GRID*               3259               0-6.920572127E-018.6433318090E-01+
*       3.2517357570E-01               0
GRID*               3260               0-6.920572127E-018.1343132974E-01+
*       3.8570689045E-01               0
GRID*               3261               0-6.833229189E-018.1468539319E-01+
*       2.7788677724E-01               0
GRID*               3262               0-6.900871193E-012.5500495642E-01+
*       1.1933006512E+00               0
GRID*               3263               0-6.900871193E-013.1908083960E-01+
*       1.1585793254E+00               0
GRID*               3264               0-6.900871193E-013.0518976075E-01+
*       1.2407809861E+00               0
GRID*               3265               0-9.729955394E-018.7898069637E-01+
*       -6.373180988E-02               0
GRID*               3266               0-1.150053977E+00-6.872587306E-01+
*       -9.321706595E-02               0
GRID*               3267               0-1.127368617E+00-6.560193451E-01+
*       -9.321695495E-02               0
GRID*               3268               0-1.127368884E+00-6.560195621E-01+
*       -1.348835868E-01               0
GRID*               3269               0-1.136477407E+00-7.073836055E-01+
*       -6.289698588E-02               0
GRID*               3270               0-1.136477390E+00-7.073835553E-01+
*       -2.123031740E-02               0
GRID*               3271               0-1.124825410E+00-6.838714037E-01+
*       -2.130465778E-02               0
GRID*               3272               0-1.124825427E+00-6.838714540E-01+
*       -6.297132626E-02               0
GRID*               3273               0-1.142417775E+00-6.798729435E-01+
*       -4.253497518E-02               0
GRID*               3274               0-1.168052298E+00-7.211803217E-01+
*       -7.334117757E-02               0
GRID*               3275               0-1.185644647E+00-7.171818113E-01+
*       -5.290482649E-02               0
GRID*               3276               0-1.199221217E+00-6.970569363E-01+
*       -8.322490656E-02               0
GRID*               3277               0-1.167646325E+00-6.832602202E-01+
*       -7.278071488E-02               0
GRID*               3278               0-1.136576076E+00-7.689216429E-01+
*       -2.110113044E-02               0
GRID*               3279               06.9270830014E-015.9283750304E-01+
*       -7.197369008E-02               0
GRID*               3280               07.1756519987E-016.3000007072E-01+
*       -1.272399147E-01               0
GRID*               3281               07.7485689972E-015.7562410614E-01+
*       -5.526622463E-02               0
GRID*               3282               07.5352169842E-015.3370875742E-01+
*       -6.268859047E-02               0
GRID*               3283               06.9622999856E-015.8808472200E-01+
*       -1.346622805E-01               0
GRID*               3284               07.7837859814E-015.7087132509E-01+
*       -1.179548151E-01               0
GRID*               3285               07.7485689972E-016.5254718306E-01+
*       -5.526622463E-02               0
GRID*               3286               08.1222293538E-016.7145616269E-01+
*       -5.526622463E-02               0
GRID*               3287               08.2496215648E-016.2109543902E-01+
*       -5.526622463E-02               0
GRID*               3288               08.4685336902E-015.2789961367E-01+
*       -1.908413449E-01               0
GRID*               3289               09.0145671529E-015.5213856614E-01+
*       -1.908413449E-01               0
GRID*               3290               0-8.331874453E-01-2.364410714E-01+
*       -5.650513444E-02               0
GRID*               3291               0-8.461282750E-01-2.012246027E-01+
*       -1.196081436E-01               0
GRID*               3292               0-7.629408296E-01-1.955527621E-01+
*       -6.310300921E-02               0
GRID*               3293               0-7.232005059E-01-2.770486041E-01+
*       -6.747179771E-02               0
GRID*               3294               0-8.063879512E-01-2.827204447E-01+
*       -1.239769322E-01               0
GRID*               3295               0-7.361413355E-01-2.418321354E-01+
*       -1.305748069E-01               0
GRID*               3296               0-5.452484803E-01-1.913979815E-01+
*       -7.252702191E-02               0
GRID*               3297               0-6.434489862E-01-2.376773548E-01+
*       -1.399988196E-01               0
GRID*               3298               0-5.982005059E-01-2.770486041E-01+
*       -6.747179771E-02               0
GRID*               3299               0-6.091643831E-01-1.922076684E-01+
*       -7.233911730E-02               0
GRID*               3300               0-6.621164086E-01-2.778582910E-01+
*       -6.728389311E-02               0
GRID*               3301               09.8475855838E-016.1520760710E-01+
*       -6.267574475E-02               0
GRID*               3302               09.4917773603E-015.7084702844E-01+
*       -8.685042301E-02               0
GRID*               3303               09.6449213791E-015.8063944266E-01+
*       -1.075080116E-01               0
GRID*               3304               01.0070469566E+006.0321607486E-01+
*       -6.414577885E-02               0
GRID*               3305               09.9173255473E-015.9342366063E-01+
*       -4.348819025E-02               0
GRID*               3306               09.7146613426E-015.5885549619E-01+
*       -8.832045711E-02               0
GRID*               3307               0-8.974150017E-01-2.764237682E-01+
*       -5.650513444E-02               0
GRID*               3308               0-7.874280622E-01-3.170313009E-01+
*       -6.747179771E-02               0
GRID*               3309               0-1.033347849E+00-3.346837493E-01+
*       -6.521938708E-02               0
GRID*               3310               0-1.030033404E+00-2.564737229E-01+
*       -6.521938708E-02               0
GRID*               3311               0-9.633313586E-01-3.155296398E-01+
*       -5.650513444E-02               0
GRID*               3312               0-9.600169135E-01-2.373196134E-01+
*       -5.650513444E-02               0
GRID*               3313               05.6298534288E-015.1167324100E-01+
*       1.2156595540E+00               0
GRID*               3314               05.6298534288E-015.8029074321E-01+
*       1.2020429900E+00               0
GRID*               3315               05.6298534288E-015.6373034481E-01+
*       1.2672852634E+00               0
GRID*               3316               05.7014658087E-016.5418644690E-01+
*       1.2016801034E+00               0
GRID*               3317               05.7087254986E-016.1957188686E-01+
*       1.2607576226E+00               0
GRID*               3318               06.9587254986E-016.7668173848E-01+
*       1.3767751445E+00               0
GRID*               3319               07.1828252363E-017.4438737816E-01+
*       1.3763249477E+00               0
GRID*               3320               06.6415507349E-016.8801740911E-01+
*       1.3229275173E+00               0
GRID*               3321               06.5578338592E-017.6877867120E-01+
*       1.3479813342E+00               0
GRID*               3322               06.9587254986E-015.5303536469E-01+
*       1.3111975759E+00               0
GRID*               3323               06.9587254986E-016.1599204955E-01+
*       1.3451968834E+00               0
GRID*               3324               0-9.327295608E-01-2.002044011E-01+
*       -1.815051344E-01               0
GRID*               3325               0-8.574293249E-01-2.530739610E-01+
*       -1.815051344E-01               0
GRID*               3326               0-7.871827092E-01-2.121856518E-01+
*       -1.881030092E-01               0
GRID*               3327               0-8.624829451E-01-1.593160919E-01+
*       -1.881030092E-01               0
GRID*               3328               04.7218024044E-023.7983768908E-01+
*       -1.831349247E-01               0
GRID*               3329               06.6841130450E-024.0760338447E-01+
*       -1.150983969E-01               0
GRID*               3330               06.9146171158E-024.9218995287E-01+
*       -1.819634721E-01               0
GRID*               3331               0-2.127918981E-024.0058346484E-01+
*       -1.962502837E-01               0
GRID*               3332               0-2.358423051E-023.1599689644E-01+
*       -1.293852084E-01               0
GRID*               3333               0-1.656083400E-034.2834916023E-01+
*       -1.282137558E-01               0
GRID*               3334               05.7014658087E-016.7669694260E-01+
*       1.1380742037E+00               0
GRID*               3335               09.3354565255E-01-8.725265191E-01+
*       -1.869635664E-01               0
GRID*               3336               09.6743024748E-01-9.063605384E-01+
*       -1.582421420E-01               0
GRID*               3337               09.3066616790E-01-8.944303638E-01+
*       -1.582422492E-01               0
GRID*               3338               09.3766701968E-01-9.158172534E-01+
*       -1.785389346E-01               0
GRID*               3339               02.1651968827E-023.3882244301E-01+
*       -5.813492475E-02               0
GRID*               3340               0-4.021219851E-023.0099732848E-01+
*       -5.813492475E-02               0
GRID*               3341               0-4.684524502E-023.5956821877E-01+
*       -7.125028367E-02               0
GRID*               3342               0-1.087094124E-013.2174310424E-01+
*       -7.125028367E-02               0
GRID*               3343               09.9074136049E-01-9.503056380E-01+
*       -2.279986795E-01               0
GRID*               3344               09.4821442864E-01-9.469567044E-01+
*       -2.286301259E-01               0
GRID*               3345               09.6673326251E-01-9.691082073E-01+
*       -2.276334675E-01               0
GRID*               3346               01.0015922701E+00-9.194138453E-01+
*       -2.056321470E-01               0
GRID*               3347               09.5906533820E-01-9.160649117E-01+
*       -2.062635934E-01               0
GRID*               3348               05.6460662932E-033.1557082655E-01+
*       -1.831349247E-01               0
GRID*               3349               0-6.285114756E-023.3631660231E-01+
*       -1.962502837E-01               0
GRID*               3350               0-3.333181505E-012.6274626491E-01+
*       -1.849142024E-01               0
GRID*               3351               0-2.944163298E-013.2911748607E-01+
*       -1.849142024E-01               0
GRID*               3352               0-3.706341372E-013.8567190029E-01+
*       -1.771822992E-01               0
GRID*               3353               0-3.273845832E-013.5731809872E-01+
*       -1.120965016E-01               0
GRID*               3354               0-3.473261305E-016.6524002371E-01+
*       -5.959297399E-02               0
GRID*               3355               0-2.858773007E-017.0083795928E-01+
*       -5.959297399E-02               0
GRID*               3356               0-3.478047967E-015.8355078965E-01+
*       -5.857497231E-02               0
GRID*               3357               0-3.194109859E-016.3700108375E-01+
*       -1.181679463E-01               0
GRID*               3358               0-2.863559670E-016.1914872521E-01+
*       -5.857497231E-02               0
GRID*               3359               0-3.477423597E-015.0752279465E-01+
*       -5.857497231E-02               0
GRID*               3360               0-2.853236441E-014.6901044666E-01+
*       -5.857497231E-02               0
GRID*               3361               0-3.271800133E-013.9829077829E-01+
*       -5.218229918E-02               0
GRID*               3362               0-3.895987289E-014.3680312628E-01+
*       -5.218229918E-02               0
GRID*               3363               0-3.617460214E-014.8459218132E-01+
*       -1.107572715E-01               0
GRID*               3364               0-6.006243454E-01-2.206332523E-01+
*       -1.975270219E-01               0
GRID*               3365               0-6.312421803E-01-1.458339722E-01+
*       -1.975270219E-01               0
GRID*               3366               0-6.535763709E-01-3.062838749E-01+
*       -1.924717977E-01               0
GRID*               3367               0-6.841942059E-01-2.314845948E-01+
*       -1.924717977E-01               0
GRID*               3368               0-6.831893099E-01-1.561815128E-01+
*       -1.356300311E-01               0
GRID*               3369               0-6.702484803E-01-1.913979815E-01+
*       -7.252702191E-02               0
GRID*               3370               0-3.228869017E-012.8452653258E-01+
*       -1.219199587E-01               0
GRID*               3371               0-8.625263500E-01-8.582273478E-02+
*       -2.015601837E-01               0
GRID*               3372               0-9.285130919E-01-1.180316675E-01+
*       -2.015601837E-01               0
GRID*               3373               0-7.964962032E-01-1.271071592E-01+
*       -1.881030092E-01               0
GRID*               3374               0-8.419118060E-01-1.190518691E-01+
*       -1.396631929E-01               0
GRID*               3375               09.7774276624E-012.0157204014E-01+
*       -5.554924791E-02               0
GRID*               3376               01.0251303726E+001.9785137031E-01+
*       -1.229998003E-01               0
GRID*               3377               08.1636904100E-018.0126912789E-02+
*       -1.755806612E-01               0
GRID*               3378               07.8113184920E-011.8412616013E-01+
*       -1.932817514E-01               0
GRID*               3379               07.0460826404E-01-3.216813128E-02+
*       -5.654891959E-02               0
GRID*               3380               08.0458791544E-01-9.126091340E-03+
*       -5.058066125E-02               0
GRID*               3381               07.3458934616E-01-6.386686082E-02+
*       -6.280734999E-02               0
GRID*               3382               06.8919761020E-01-1.911191518E-02+
*       -1.193562696E-01               0
GRID*               3383               07.8917726160E-013.9301247592E-03+
*       -1.133880112E-01               0
GRID*               3384               09.3602502383E-017.0723945426E-03+
*       -6.436989821E-02               0
GRID*               3385               08.6715446442E-012.9232783617E-02+
*       -5.058066125E-02               0
GRID*               3386               09.5727640878E-014.8893567722E-02+
*       -1.893698982E-01               0
GRID*               3387               01.0186382901E+004.5299638650E-02+
*       -1.893698982E-01               0
GRID*               3388               09.9600496511E-011.2353356223E-01+
*       -1.805492479E-01               0
GRID*               3389               08.3438045897E-023.7650727183E-01+
*       -5.813492475E-02               0
GRID*               3390               01.0536619301E-014.8885953562E-01+
*       -5.696347214E-02               0
GRID*               3391               04.3580115942E-024.5117470680E-01+
*       -5.696347214E-02               0
GRID*               3392               01.1781488244E-014.0893838523E-01+
*       -1.898880393E-01               0
GRID*               3393               01.3743798885E-014.3670408062E-01+
*       -1.218515115E-01               0
GRID*               3394               01.1550984173E-013.2435181683E-01+
*       -1.230229641E-01               0
GRID*               3395               02.1790284600E-019.6745208078E-01+
*       -2.179181200E-01               0
GRID*               3396               01.4437343424E-019.6745208078E-01+
*       -2.179181200E-01               0
GRID*               3397               01.7940441137E-019.0001907749E-01+
*       -2.179181200E-01               0
GRID*               3398               02.5563464022E-019.6563973239E-01+
*       -2.203848136E-01               0
GRID*               3399               01.4327445059E-016.3514661597E-01+
*       -1.762197278E-01               0
GRID*               3400               01.0894122673E-017.0495968996E-01+
*       -1.762197278E-01               0
GRID*               3401               06.8330759708E-026.4064022103E-01+
*       -1.762197278E-01               0
GRID*               3402               0-8.015757067E-01-5.118150943E-02+
*       -2.007967687E-01               0
GRID*               3403               0-8.687397817E-01-3.066907707E-02+
*       -2.015601837E-01               0
GRID*               3404               0-8.469913095E-01-4.312621931E-02+
*       -1.523569524E-01               0
GRID*               3405               0-8.820562023E-01-4.574727575E-03+
*       -1.551880384E-01               0
GRID*               3406               0-7.034982103E-01-2.648810578E-02+
*       -6.548906291E-02               0
GRID*               3407               0-6.237466906E-01-6.403993342E-02+
*       -1.380160848E-01               0
GRID*               3408               0-6.702484803E-01-1.144749046E-01+
*       -7.252702191E-02               0
GRID*               3409               0-7.629408296E-01-1.186296852E-01+
*       -6.310300921E-02               0
GRID*               3410               0-7.164390399E-01-6.819471405E-02+
*       -1.285920721E-01               0
GRID*               3411               05.7458639395E-01-8.799659725E-01+
*       6.2268192812E-01               0
GRID*               3412               05.7458639395E-01-8.181650667E-01+
*       5.7849105222E-01               0
GRID*               3413               06.4148976903E-01-8.826487603E-01+
*       6.5667815277E-01               0
GRID*               3414               0-8.962666244E-01-1.982904589E-01+
*       -5.650513444E-02               0
GRID*               3415               0-9.121584217E-01-1.599401783E-01+
*       -1.330653182E-01               0
GRID*               3416               0-8.920501555E-01-1.161177252E-01+
*       -7.656018372E-02               0
GRID*               3417               0-8.260200087E-01-1.574021496E-01+
*       -6.310300921E-02               0
GRID*               3418               0-8.655161116E-013.4209478545E-02+
*       -7.862785470E-02               0
GRID*               3419               0-7.680203331E-013.4219041483E-02+
*       -7.579676870E-02               0
GRID*               3420               0-8.304512188E-01-4.342013195E-03+
*       -7.579676870E-02               0
GRID*               3421               06.3705721407E-01-9.445283062E-01+
*       5.5469835357E-01               0
GRID*               3422               07.1889441708E-01-9.707894688E-01+
*       5.6064022034E-01               0
GRID*               3423               06.5636523719E-01-9.707894688E-01+
*       5.2192308711E-01               0
GRID*               3424               06.6848081103E-01-9.153177750E-01+
*       5.5405570714E-01               0
GRID*               3425               0-8.942438309E-012.1888732914E-02+
*       -2.036278547E-01               0
GRID*               3426               0-9.657022442E-015.0595131229E-02+
*       -1.818965585E-01               0
GRID*               3427               0-9.788687512E-01-1.036403964E-02+
*       -1.818965585E-01               0
GRID*               3428               0-9.407953722E-013.6365216967E-02+
*       -1.355244132E-01               0
GRID*               3429               06.8674112026E-01-9.270850177E-01+
*       4.3489005325E-01               0
GRID*               3430               06.8674112026E-01-8.690235927E-01+
*       4.7037742378E-01               0
GRID*               3431               0-5.307249233E-012.6196918188E-01+
*       -1.892165888E-01               0
GRID*               3432               0-4.949141954E-013.2688537527E-01+
*       -1.892165888E-01               0
GRID*               3433               0-5.653373651E-013.2617255034E-01+
*       -1.892165888E-01               0
GRID*               3434               05.6991730182E-01-7.449117008E-01+
*       6.6954319811E-01               0
GRID*               3435               06.3682067689E-01-8.132998980E-01+
*       6.7446922484E-01               0
GRID*               3436               05.6991730182E-01-7.488162044E-01+
*       5.9628212429E-01               0
GRID*               3437               0-1.044951351E+00-2.949180444E-02+
*       -1.818965585E-01               0
GRID*               3438               0-9.862121815E-01-7.043174898E-02+
*       -2.015601837E-01               0
GRID*               3439               0-9.201295813E-01-5.130398418E-02+
*       -2.015601837E-01               0
GRID*               3440               0-9.666811227E-01-3.682750013E-02+
*       -1.334567422E-01               0
GRID*               3441               0-1.059680716E+00-9.546040712E-02+
*       -1.888409654E-01               0
GRID*               3442               0-1.001981627E+00-1.430603257E-01+
*       -1.888409654E-01               0
GRID*               3443               0-9.814104875E-01-1.027961028E-01+
*       -1.404011491E-01               0
GRID*               3444               0-1.013042762E+00-3.659824901E-02+
*       -5.689655849E-02               0
GRID*               3445               0-9.501410320E-011.9567059900E-03+
*       -5.689655849E-02               0
GRID*               3446               0-9.543035923E-01-7.753819355E-02+
*       -7.656018372E-02               0
GRID*               3447               0-8.914018621E-01-3.898323855E-02+
*       -7.656018372E-02               0
GRID*               3448               03.3025293812E-01-9.673874324E-01+
*       -2.189919047E-01               0
GRID*               3449               02.9135833412E-01-9.673874324E-01+
*       -1.564671420E-01               0
GRID*               3450               03.6570611578E-01-9.673874324E-01+
*       -1.539643344E-01               0
GRID*               3451               0-7.680203331E-01-4.270403544E-02+
*       -7.579676870E-02               0
GRID*               3452               0-8.310995122E-01-8.147649987E-02+
*       -7.579676870E-02               0
GRID*               3453               0-6.857007387E-01-7.604819963E-01+
*       9.0583145082E-01               0
GRID*               3454               0-6.857007387E-01-8.264491552E-01+
*       8.7850702439E-01               0
GRID*               3455               0-6.868186421E-01-8.218638258E-01+
*       8.0810018278E-01               0
GRID*               3456               0-6.868186421E-01-7.558966670E-01+
*       8.3542460920E-01               0
GRID*               3457               0-6.225193809E-01-7.854585285E-01+
*       8.8173386345E-01               0
GRID*               3458               0-5.618186421E-01-8.262734501E-01+
*       8.0443639924E-01               0
GRID*               3459               0-5.618186421E-01-7.674929440E-01+
*       7.6191056898E-01               0
GRID*               3460               0-5.681079222E-01-8.277932168E-01+
*       7.4382783604E-01               0
GRID*               3461               0-5.681079222E-01-8.865737228E-01+
*       7.8635366630E-01               0
GRID*               3462               0-6.299265643E-01-8.411734719E-01+
*       7.9324428889E-01               0
GRID*               3463               0-7.809611628E-01-8.441064371E-02+
*       -1.388997779E-01               0
GRID*               3464               0-5.618186421E-01-7.023839004E-01+
*       8.0524509858E-01               0
GRID*               3465               0-5.618186421E-01-7.722713462E-01+
*       8.2410250086E-01               0
GRID*               3466               0-4.947161776E-015.7264240891E-01+
*       -7.135069885E-02               0
GRID*               3467               0-4.046610037E-015.8106756452E-01+
*       -1.299256712E-01               0
GRID*               3468               0-4.099448261E-015.4688669408E-01+
*       -5.857497231E-02               0
GRID*               3469               0-4.518011953E-014.7616702570E-01+
*       -5.218229918E-02               0
GRID*               3470               0-4.465173729E-015.1034789615E-01+
*       -1.235329980E-01               0
GRID*               3471               0-2.855282139E-014.2803776710E-01+
*       -1.184891747E-01               0
GRID*               3472               0-3.287777680E-014.5639156867E-01+
*       -1.835749723E-01               0
GRID*               3473               0-6.793839289E-01-8.414523426E-01+
*       1.7909015443E-01               0
GRID*               3474               0-4.325761483E-016.0930650448E-01+
*       -7.135069885E-02               0
GRID*               3475               0-3.700799450E-015.3193112632E-01+
*       -1.835749723E-01               0
GRID*               3476               0-4.119363142E-014.6121145795E-01+
*       -1.771822992E-01               0
GRID*               3477               0-6.859893561E-01-7.328743912E-01+
*       4.6660267440E-03               0
GRID*               3478               0-6.882442335E-01-6.972597232E-01+
*       -7.344452481E-02               0
GRID*               3479               0-6.878657242E-01-6.817301209E-01+
*       3.8127546717E-02               0
GRID*               3480               0-8.012228184E-01-7.803544518E-01+
*       -7.431259575E-02               0
GRID*               3481               0-8.201389698E-01-7.734691393E-01+
*       -2.120047452E-02               0
GRID*               3482               0-5.628657242E-01-7.194141863E-01+
*       9.6167237342E-02               0
GRID*               3483               02.0984657391E-01-6.474682377E-01+
*       -1.834474671E-01               0
GRID*               3484               01.7235916960E-01-7.107015552E-01+
*       -1.834474671E-01               0
GRID*               3485               03.0116581454E-01-7.024507310E-01+
*       -1.832289271E-01               0
GRID*               3486               02.1300295549E-01-7.371124619E-01+
*       -1.166763942E-01               0
GRID*               3487               02.6367841023E-01-7.656840486E-01+
*       -1.832289271E-01               0
GRID*               3488               0-5.314530722E-019.2882764458E-01+
*       1.0336907981E+00               0
GRID*               3489               0-5.939532721E-019.1647809654E-01+
*       1.0689843384E+00               0
GRID*               3490               0-5.939528866E-019.3780473868E-01+
*       1.0006002055E+00               0
GRID*               3491               06.2243676935E-02-6.404952679E-01+
*       -1.834474671E-01               0
GRID*               3492               01.0415299719E-01-6.017050860E-01+
*       -1.143361168E-01               0
GRID*               3493               04.4712959257E-02-5.600703854E-01+
*       -1.808886497E-01               0
GRID*               3494               06.3240609868E-02-6.607309597E-01+
*       -1.214230578E-01               0
GRID*               3495               04.5709892189E-02-5.803060772E-01+
*       -1.188642404E-01               0
GRID*               3496               01.8680235454E-01-6.080587557E-01+
*       -5.844746708E-02               0
GRID*               3497               01.2658437698E-01-6.449686918E-01+
*       -5.844746708E-02               0
GRID*               3498               01.6927163686E-01-5.276338732E-01+
*       -5.588864971E-02               0
GRID*               3499               01.0905365930E-01-5.645438093E-01+
*       -5.588864971E-02               0
GRID*               3500               01.3651275845E-01-6.438535869E-01+
*       -1.834474671E-01               0
GRID*               3501               01.1898204078E-01-5.634287044E-01+
*       -1.808886497E-01               0
GRID*               3502               06.6860890250E-02-6.822558944E-01+
*       -5.844746708E-02               0
GRID*               3503               04.9330172572E-02-6.018310119E-01+
*       -5.588864971E-02               0
GRID*               3504               0-6.214776195E-01-2.621964452E-01+
*       1.6423388634E+00               0
GRID*               3505               0-5.591558635E-01-3.614498738E-01+
*       1.3408420376E+00               0
GRID*               3506               0-5.591558635E-01-3.792303564E-01+
*       1.2669652338E+00               0
GRID*               3507               0-5.591558635E-01-4.299262318E-01+
*       1.3193488046E+00               0
GRID*               3508               04.2378160995E-016.7327436468E-02+
*       -5.522328053E-02               0
GRID*               3509               0-6.826713677E-01-2.424233664E-01+
*       1.2655575427E+00               0
GRID*               3510               0-6.826713677E-01-1.817794367E-01+
*       1.2317417267E+00               0
GRID*               3511               0-6.826713677E-01-1.937651082E-01+
*       1.2947426720E+00               0
GRID*               3512               0-5.671560296E-013.3647932867E-01+
*       1.2922784224E+00               0
GRID*               3513               0-5.671560296E-012.7974119489E-01+
*       1.3275603916E+00               0
GRID*               3514               0-5.671560296E-013.3709962873E-01+
*       1.3644812602E+00               0
GRID*               3515               0-5.606225565E-013.8187436794E-01+
*       1.4890155294E+00               0
GRID*               3516               0-5.606225565E-013.8403168075E-01+
*       1.4131204125E+00               0
GRID*               3517               0-5.606225565E-013.2074846675E-01+
*       1.4437918138E+00               0
GRID*               3518               04.1356637840E-011.0121057069E-01+
*       -1.802232805E-01               0
GRID*               3519               03.8608280711E-01-1.594009669E-01+
*       -1.951463054E-01               0
GRID*               3520               06.4163347897E-01-8.730136214E-02+
*       -1.213790803E-01               0
GRID*               3521               06.9169837674E-01-1.044678683E-01+
*       2.8592580909E-02               0
GRID*               3522               06.4630664079E-01-5.971292268E-02+
*       -2.795633868E-02               0
GRID*               3523               05.7960826404E-014.4754945643E-02+
*       -5.654891959E-02               0
GRID*               3524               05.8793960297E-01-4.870237656E-02+
*       -1.207151491E-01               0
GRID*               3525               05.0833133893E-01-1.653424528E-02+
*       -6.416622948E-02               0
GRID*               3526               05.0947143294E-015.6138242147E-02+
*       -6.225185458E-02               0
GRID*               3527               05.8907969698E-012.3970110867E-02+
*       -1.188007742E-01               0
GRID*               3528               05.1780277187E-01-3.731908006E-02+
*       -1.264180841E-01               0
GRID*               3529               04.4557639327E-01-1.894936461E-03+
*       -7.014630538E-02               0
GRID*               3530               0-1.078654733E+00-9.244903081E-01+
*       -1.052419769E-01               0
GRID*               3531               0-1.097540181E+00-9.350615499E-01+
*       -8.403719485E-02               0
GRID*               3532               0-9.664156280E-01-9.056329206E-01+
*       -9.370744565E-02               0
GRID*               3533               0-9.297047307E-01-8.936881526E-01+
*       -9.370714940E-02               0
GRID*               3534               0-9.542287898E-01-8.792824955E-01+
*       -6.237477943E-02               0
GRID*               3535               0-9.909396872E-01-8.912272635E-01+
*       -6.237507567E-02               0
GRID*               3536               0-9.574282352E-01-9.218602054E-01+
*       -7.274918797E-02               0
GRID*               3537               0-7.771683405E-016.4033221874E-01+
*       -6.993943182E-02               0
GRID*               3538               0-8.307517444E-015.9352668449E-01+
*       -6.993943182E-02               0
GRID*               3539               0-9.113622805E-01-8.891721161E-01+
*       -1.159974628E-01               0
GRID*               3540               0-9.480731778E-01-9.011168841E-01+
*       -1.159977590E-01               0
GRID*               3541               0-9.113666238E-01-8.891753058E-01+
*       -1.576647093E-01               0
GRID*               3542               0-9.854144682E-01-9.006827355E-01+
*       -1.164980742E-01               0
GRID*               3543               0-9.854144684E-01-9.006827355E-01+
*       -1.581647409E-01               0
GRID*               3544               0-9.487079142E-01-8.887411572E-01+
*       -1.581650245E-01               0
GRID*               3545               04.5504782620E-01-2.267977124E-02+
*       -1.323981600E-01               0
GRID*               3546               04.3325304289E-014.6542601692E-02+
*       -1.174751351E-01               0
GRID*               3547               0-3.380975425E-01-7.610936730E-01+
*       -7.172773914E-02               0
GRID*               3548               0-2.768742149E-01-8.079842059E-01+
*       -7.172773914E-02               0
GRID*               3549               0-3.631496640E-01-8.182605795E-01+
*       -5.128874062E-02               0
GRID*               3550               0-3.019263364E-01-8.651511124E-01+
*       -5.128874062E-02               0
GRID*               3551               01.2186590337E+00-7.529825807E-01+
*       -2.115543901E-02               0
GRID*               3552               01.1812955426E+00-7.718924241E-01+
*       -2.115543901E-02               0
GRID*               3553               0-2.223561003E-01-8.104522971E-01+
*       -1.967277391E-01               0
GRID*               3554               0-2.980052796E-01-8.099887990E-01+
*       -1.967277391E-01               0
GRID*               3555               0-3.230574010E-01-8.671557055E-01+
*       -1.762887406E-01               0
GRID*               3556               0-2.474082218E-01-8.676192036E-01+
*       -1.762887406E-01               0
GRID*               3557               0-2.997646965E-01-6.715872010E-01+
*       -1.967277391E-01               0
GRID*               3558               0-2.611613097E-01-7.418113395E-01+
*       -1.967277391E-01               0
GRID*               3559               0-2.304335761E-01-7.136405485E-01+
*       -1.236321485E-01               0
GRID*               3560               0-6.661278621E-01-9.713697398E-01+
*       -2.138680604E-01               0
GRID*               3561               0-6.369103385E-01-9.713697398E-01+
*       -1.388542153E-01               0
GRID*               3562               0-6.311525781E-01-9.671982392E-01+
*       -2.107328896E-01               0
GRID*               3563               0-6.355157344E-01-9.385679790E-01+
*       -1.746009501E-01               0
GRID*               3564               0-6.019350545E-01-9.671982392E-01+
*       -1.357190445E-01               0
GRID*               3565               06.3100527967E-016.7146716246E-01+
*       5.1220519987E-02               0
GRID*               3566               05.6085466087E-015.1766671975E-01+
*       2.0439075953E-01               0
GRID*               3567               06.2930457804E-015.7053625110E-01+
*       1.6252248273E-01               0
GRID*               3568               05.6085466087E-015.7537612665E-01+
*       2.4311247257E-01               0
GRID*               3569               06.3271649265E-016.2169602702E-01+
*       2.6514124321E-01               0
GRID*               3570               0-7.191828777E-019.6198704243E-01+
*       1.9139272743E-01               0
GRID*               3571               0-7.183313347E-019.7284964083E-01+
*       1.5571301715E-01               0
GRID*               3572               0-6.555298965E-019.7284964083E-01+
*       1.9294248011E-01               0
GRID*               3573               0-6.875142124E-019.3483668326E-01+
*       1.9710574458E-01               0
GRID*               3574               06.9686183179E-016.4240735288E-01+
*       2.0685764404E-01               0
GRID*               3575               06.2939767339E-01-9.381204541E-01+
*       6.9255753959E-01               0
GRID*               3576               06.5988594236E-01-9.075639795E-01+
*       6.9267487441E-01               0
GRID*               3577               05.8797996102E-01-9.751149435E-01+
*       6.4993101899E-01               0
GRID*               3578               05.9238903778E-01-9.132353976E-01+
*       6.8389881135E-01               0
GRID*               3579               06.1846822999E-01-9.445584690E-01+
*       6.5004835381E-01               0
GRID*               3580               0-7.241048301E-01-8.866604979E-01+
*       -1.631806562E-01               0
GRID*               3581               0-6.905241503E-01-9.152907581E-01+
*       -1.242987506E-01               0
GRID*               3582               0-6.891295462E-01-8.824889972E-01+
*       -1.600454854E-01               0
GRID*               3583               05.6174112026E-01-8.652937384E-01+
*       3.9176444162E-01               0
GRID*               3584               05.4808307664E-01-8.267794818E-01+
*       3.3990053460E-01               0
GRID*               3585               05.4808307664E-01-7.658974925E-01+
*       3.7084972480E-01               0
GRID*               3586               06.0982419690E-01-8.156557788E-01+
*       3.6791619948E-01               0
GRID*               3587               07.1854131838E-01-9.714372418E-01+
*       4.1435705837E-01               0
GRID*               3588               06.5588711325E-01-9.714372418E-01+
*       3.7623608868E-01               0
GRID*               3589               06.5528243863E-01-8.985222595E-01+
*       3.9924711162E-01               0
GRID*               3590               06.2421194037E-01-9.270850177E-01+
*       4.7117292002E-01               0
GRID*               3591               0-7.149542779E-01-8.838727539E-01+
*       -2.534027093E-02               0
GRID*               3592               0-7.288135989E-01-8.760865889E-01+
*       -9.965286667E-02               0
GRID*               3593               0-6.509436340E-01-8.475163759E-01+
*       -2.067424418E-02               0
GRID*               3594               06.9958639395E-01-8.276220785E-01+
*       5.7879559713E-01               0
GRID*               3595               0-7.503216626E-01-7.378641967E-01+
*       -1.894719089E-01               0
GRID*               3596               0-8.071104435E-01-7.287713535E-01+
*       -1.894719089E-01               0
GRID*               3597               0-7.303164099E-01-8.080128763E-01+
*       -1.993125957E-01               0
GRID*               3598               0-7.977238947E-01-7.604328366E-01+
*       -1.387845046E-01               0
GRID*               3599               0-7.871051907E-01-7.989200330E-01+
*       -1.993125957E-01               0
GRID*               3600               0-5.934717345E-01-7.126150485E-01+
*       -1.984445248E-01               0
GRID*               3601               0-5.029972778E-01-7.441283665E-01+
*       -1.774577272E-01               0
GRID*               3602               0-5.235880607E-01-8.211192783E-01+
*       -1.774577272E-01               0
GRID*               3603               0-6.547013225E-01-7.438279953E-01+
*       -1.984445248E-01               0
GRID*               3604               06.4325929284E-011.5135117156E-01+
*       -5.540249660E-02               0
GRID*               3605               06.4325929284E-012.2827424849E-01+
*       -5.540249660E-02               0
GRID*               3606               06.1294270295E-012.0118599334E-01+
*       -1.170389190E-01               0
GRID*               3607               07.1854131838E-01-9.714372418E-01+
*       3.3935705837E-01               0
GRID*               3608               05.9240278227E-011.2818023835E-01+
*       -2.165165506E-02               0
GRID*               3609               05.5021445416E-011.5897548555E-01+
*       4.2041497362E-02               0
GRID*               3610               06.2435794359E-011.3580455233E-01+
*       7.5792338899E-02               0
GRID*               3611               05.6847374700E-012.3340358019E-01+
*       -1.336099924E-02               0
GRID*               3612               05.1825929284E-012.2827424849E-01+
*       -5.540249660E-02               0
GRID*               3613               04.1503509469E-012.4035350012E-01+
*       -6.067671552E-02               0
GRID*               3614               04.3329438753E-012.3785851783E-01+
*       -1.160792121E-01               0
GRID*               3615               04.5294705261E-011.4780961460E-01+
*       -1.873274903E-01               0
GRID*               3616               03.7819737886E-012.0043382664E-01+
*       -1.230042058E-01               0
GRID*               3617               03.8694389412E-011.0433083992E-01+
*       -1.175507708E-01               0
GRID*               3618               05.6669837674E-01-1.044678683E-01+
*       2.8592580909E-02               0
GRID*               3619               04.7652715250E-012.5751255200E-01+
*       -1.804024966E-01               0
GRID*               3620               05.7133617206E-01-8.059959563E-01+
*       8.0621610595E-01               0
GRID*               3621               06.4853258748E-01-7.823819528E-01+
*       8.4936771206E-01               0
GRID*               3622               05.7719641541E-01-8.392404491E-01+
*       8.4802494984E-01               0
GRID*               3623               05.6690337507E-01-8.695476804E-01+
*       7.6569933784E-01               0
GRID*               3624               06.3823954714E-01-8.126891841E-01+
*       7.6704210006E-01               0
GRID*               3625               06.4409979049E-01-8.459336769E-01+
*       8.0885094395E-01               0
GRID*               3626               05.7133617206E-01-7.443009870E-01+
*       7.6211607332E-01               0
GRID*               3627               06.4125347388E-01-7.497481739E-01+
*       7.1498599295E-01               0
GRID*               3628               05.3066337167E-01-3.532176878E-01+
*       9.6148747276E-01               0
GRID*               3629               05.9316313378E-01-3.532181194E-01+
*       9.6148666015E-01               0
GRID*               3630               05.3165554515E-01-3.283359010E-01+
*       9.8726810412E-01               0
GRID*               3631               05.6231891682E-01-3.618773899E-01+
*       9.9331212941E-01               0
GRID*               3632               05.9415530725E-01-3.283363327E-01+
*       9.8726729151E-01               0
GRID*               3633               05.9287261951E-01-9.682001276E-01+
*       6.8171329701E-01               0
GRID*               3634               06.2940337507E-01-9.381204541E-01+
*       7.3826266598E-01               0
GRID*               3635               05.9728169627E-01-9.063205817E-01+
*       7.1568108938E-01               0
GRID*               3636               05.9748888819E-01-9.052748825E-01+
*       7.5215144866E-01               0
GRID*               3637               0-6.815133211E-01-8.071061541E-01+
*       4.1990234877E-01               0
GRID*               3638               0-6.815133211E-01-8.679881434E-01+
*       3.8895315857E-01               0
GRID*               3639               0-6.991198850E-01-8.359168909E-01+
*       3.3878748248E-01               0
GRID*               3640               0-6.991198850E-01-7.750349016E-01+
*       3.6973667268E-01               0
GRID*               3641               0-6.306332061E-01-8.274875928E-01+
*       3.6399186431E-01               0
GRID*               3642               06.9958639395E-01-8.406515064E-01+
*       5.2362439973E-01               0
GRID*               3643               0-5.565133211E-01-8.259026229E-01+
*       4.3728768313E-01               0
GRID*               3644               0-5.565133211E-01-8.717179977E-01+
*       4.6756614072E-01               0
GRID*               3645               0-5.612213441E-01-8.864584827E-01+
*       5.5513279484E-01               0
GRID*               3646               0-5.612213441E-01-8.406431080E-01+
*       5.2485433725E-01               0
GRID*               3647               0-6.177346651E-01-8.742993304E-01+
*       5.0172419451E-01               0
GRID*               3648               0-8.759261849E-018.6333567751E-01+
*       -1.035327931E-01               0
GRID*               3649               0-8.759218535E-018.6333249659E-01+
*       -1.452000381E-01               0
GRID*               3650               0-9.118206469E-018.8819289446E-01+
*       -9.578642853E-02               0
GRID*               3651               0-8.611737820E-019.0036883724E-01+
*       -1.159864525E-01               0
GRID*               3652               0-9.118163155E-018.8818971354E-01+
*       -1.374536735E-01               0
GRID*               3653               0-6.815133211E-01-9.297794227E-01+
*       4.3207877020E-01               0
GRID*               3654               0-6.815133211E-01-8.673113456E-01+
*       4.6253044064E-01               0
GRID*               3655               05.3447889001E-01-6.711149044E-01+
*       -1.933520429E-01               0
GRID*               3656               05.6074113380E-01-2.686762183E-01+
*       2.4126101698E-01               0
GRID*               3657               06.2123245529E-01-1.856216947E-01+
*       2.7824200823E-01               0
GRID*               3658               05.6074113380E-01-2.586877210E-01+
*       3.2658762632E-01               0
GRID*               3659               07.0213866614E-01-7.463453009E-01+
*       -4.087832423E-02               0
GRID*               3660               06.5105976199E-01-7.039072406E-01+
*       -4.725159284E-02               0
GRID*               3661               06.7503444845E-01-7.510661123E-01+
*       -1.313151855E-01               0
GRID*               3662               06.0780290821E-01-7.529870622E-01+
*       -6.256887568E-02               0
GRID*               3663               05.3044890048E-01-1.038024864E-01+
*       3.5930118904E-01               0
GRID*               3664               05.7196027031E-014.1750538846E-01+
*       1.3177275424E+00               0
GRID*               3665               05.7196027031E-014.3612573195E-01+
*       1.2457187101E+00               0
GRID*               3666               06.3494561318E-014.6620197309E-01+
*       1.2360076049E+00               0
GRID*               3667               06.9514658087E-017.0982077970E-01+
*       1.1685077161E+00               0
GRID*               3668               07.5288313361E-01-5.166142575E-01+
*       -2.030429640E-01               0
GRID*               3669               07.2252344639E-01-5.666056098E-01+
*       -2.030429640E-01               0
GRID*               3670               06.9758463327E-01-5.777219067E-01+
*       -1.392285496E-01               0
GRID*               3671               06.8938799668E-01-5.075703269E-01+
*       -2.030429640E-01               0
GRID*               3672               06.2399619569E-017.8825808853E-01+
*       7.4008866064E-02               0
GRID*               3673               07.1749830481E-018.8354182808E-01+
*       1.8884796889E-02               0
GRID*               3674               06.5505366730E-018.4504438956E-01+
*       2.9720130991E-02               0
GRID*               3675               06.5393913800E-018.6414350898E-01+
*       8.2058328852E-02               0
GRID*               3676               06.2200007786E-019.0367860397E-01+
*       9.9577119539E-02               0
GRID*               3677               06.2359213465E-019.0367860397E-01+
*       1.7544815613E-01               0
GRID*               3678               05.9155574574E-018.7731950580E-01+
*       1.4258519558E-01               0
GRID*               3679               06.8755536249E-017.5389555742E-01+
*       8.2612579868E-02               0
GRID*               3680               05.9390213802E-018.6540804915E-01+
*       1.7919624643E-01               0
GRID*               3681               05.6255536249E-018.0765640763E-01+
*       1.0835334102E-02               0
GRID*               3682               05.6255536249E-017.6841739594E-01+
*       6.8875024305E-02               0
GRID*               3683               0-6.819139577E-01-6.378457150E-01+
*       1.1187566619E+00               0
GRID*               3684               0-6.202598313E-01-6.673249452E-01+
*       1.0636156639E+00               0
GRID*               3685               0-6.089272037E-01-6.099080539E-01+
*       1.1690693844E+00               0
GRID*               3686               0-6.194128207E-01-7.708252187E-01+
*       1.2111271138E+00               0
GRID*               3687               0-6.225958031E-01-7.191136066E-01+
*       1.1330658932E+00               0
GRID*               3688               0-6.281807084E-01-8.142229735E-01+
*       1.1720948692E+00               0
GRID*               3689               0-6.565845032E-01-8.309874457E-01+
*       1.2202114541E+00               0
GRID*               3690               0-6.509995979E-01-7.358780788E-01+
*       1.1811824781E+00               0
GRID*               3691               0-6.597674856E-01-7.792758336E-01+
*       1.1421502335E+00               0
GRID*               3692               0-6.819139577E-01-6.407950308E-01+
*       1.1931455371E+00               0
GRID*               3693               0-6.819139577E-01-7.029548326E-01+
*       1.2230098023E+00               0
GRID*               3694               0-6.946295047E-01-6.860405809E-01+
*       1.2928306073E+00               0
GRID*               3695               0-6.265434624E-01-6.588016000E-01+
*       1.2419189427E+00               0
GRID*               3696               06.8754316389E-018.0684092910E-01+
*       7.2216325979E-01               0
GRID*               3697               06.8754316389E-018.7254633840E-01+
*       6.9309306279E-01               0
GRID*               3698               06.8643820053E-017.9928818659E-01+
*       6.3455260806E-01               0
GRID*               3699               06.8643820053E-017.3358277729E-01+
*       6.6362280505E-01               0
GRID*               3700               06.2398136441E-018.0095919249E-01+
*       6.6911278988E-01               0
GRID*               3701               06.7964357190E-016.8416017426E-01+
*       9.2416125657E-01               0
GRID*               3702               06.1066867450E-017.1968393992E-01+
*       9.5786369106E-01               0
GRID*               3703               06.8102510259E-017.6644390101E-01+
*       8.9322462764E-01               0
GRID*               3704               06.9089199826E-017.2743627660E-01+
*       8.2891310329E-01               0
GRID*               3705               06.2053557017E-016.8067631550E-01+
*       8.9355216670E-01               0
GRID*               3706               06.2191710085E-017.6296004225E-01+
*       8.6261553778E-01               0
GRID*               3707               06.1190169541E-018.6596421192E-01+
*       4.9908290188E-01               0
GRID*               3708               06.8423622168E-018.0230420675E-01+
*       4.9391997135E-01               0
GRID*               3709               06.8643820053E-017.3748728057E-01+
*       5.9036173145E-01               0
GRID*               3710               06.1410367425E-018.0114728575E-01+
*       5.9552466198E-01               0
GRID*               3711               06.9344991718E-016.3304152405E-01+
*       4.0385185885E-02               0
GRID*               3712               06.9344991718E-015.9124757696E-01+
*       1.0423888356E-01               0
GRID*               3713               05.5266547373E-018.2039053753E-01+
*       5.7561860336E-01               0
GRID*               3714               05.5266547373E-018.7657787820E-01+
*       6.1941554171E-01               0
GRID*               3715               05.6143820053E-017.4694429246E-01+
*       5.9066627653E-01               0
GRID*               3716               05.6143820053E-018.0313163313E-01+
*       6.3446321488E-01               0
GRID*               3717               08.5319334863E-01-8.876532985E-01+
*       -2.102496039E-01               0
GRID*               3718               07.8694187783E-01-8.571957650E-01+
*       -8.524960394E-02               0
GRID*               3719               08.0841925976E-01-9.068713596E-01+
*       -1.222693290E-01               0
GRID*               3720               07.7147738193E-01-8.958294407E-01+
*       -3.701972501E-02               0
GRID*               3721               07.4712473414E-01-8.845988429E-01+
*       -3.717562035E-02               0
GRID*               3722               07.8406661197E-01-8.956407618E-01+
*       -1.224252243E-01               0
GRID*               3723               07.6860211608E-01-9.342744374E-01+
*       -7.419534536E-02               0
GRID*               3724               06.9201618188E-017.0681172432E-01+
*       4.8952681637E-01               0
GRID*               3725               06.8706220801E-015.7691838098E-01+
*       6.4382342266E-01               0
GRID*               3726               06.8706220801E-015.7437877814E-01+
*       7.1596708691E-01               0
GRID*               3727               06.8643820053E-016.6840943615E-01+
*       6.9278429859E-01               0
GRID*               3728               06.8643820053E-016.7094903899E-01+
*       6.2064063434E-01               0
GRID*               3729               06.2350040853E-016.3367038267E-01+
*       6.3375512346E-01               0
GRID*               3730               08.7350709734E-01-8.006205533E-01+
*       -1.868236942E-01               0
GRID*               3731               08.4488023821E-01-8.403957744E-01+
*       -1.887399666E-01               0
GRID*               3732               08.5230444188E-01-7.909548833E-01+
*       -2.070712131E-01               0
GRID*               3733               08.7350711161E-01-8.006206043E-01+
*       -2.284903627E-01               0
GRID*               3734               08.9621076076E-01-8.318467472E-01+
*       -1.868238032E-01               0
GRID*               3735               0-4.736143655E-01-1.494938168E-01+
*       -1.799915545E-01               0
GRID*               3736               0-4.404450694E-01-2.197718420E-01+
*       -1.799915545E-01               0
GRID*               3737               0-3.972108770E-01-1.558174898E-01+
*       -1.799915545E-01               0
GRID*               3738               0-1.523858533E-01-2.838276735E-01+
*       -1.870985343E-01               0
GRID*               3739               0-1.121975544E-01-2.201799006E-01+
*       -1.870985343E-01               0
GRID*               3740               06.8643820053E-016.7683136815E-01+
*       5.4649484148E-01               0
GRID*               3741               06.2307099882E-016.7377552546E-01+
*       5.7808815728E-01               0
GRID*               3742               01.0688358148E-01-4.898139704E-01+
*       -5.588864971E-02               0
GRID*               3743               01.4538872659E-01-4.335495468E-01+
*       -6.104588233E-02               0
GRID*               3744               02.0777678197E-01-4.713694496E-01+
*       -6.104588233E-02               0
GRID*               3745               04.0208277609E-01-4.070375515E-01+
*       -6.341313363E-02               0
GRID*               3746               03.3597381314E-01-4.023927008E-01+
*       -7.002925722E-02               0
GRID*               3747               03.7273039289E-01-3.850984319E-01+
*       -1.363668391E-01               0
GRID*               3748               03.6326334809E-01-5.019009342E-01+
*       -1.334423909E-01               0
GRID*               3749               02.7367753756E-01-4.404192936E-01+
*       -7.002925722E-02               0
GRID*               3750               02.8018952115E-01-3.806188021E-01+
*       -1.321466230E-01               0
GRID*               3751               0-1.028119476E+003.2089153621E-02+
*       -1.818965585E-01               0
GRID*               3752               0-9.884104587E-011.3285930388E-01+
*       -1.947851932E-01               0
GRID*               3753               0-9.857112757E-011.0488259467E-01+
*       -1.266817517E-01               0
GRID*               3754               0-9.726002690E-011.4150214391E-01+
*       -6.978519317E-02               0
GRID*               3755               0-1.034857040E+001.7998441894E-01+
*       -6.978519317E-02               0
GRID*               3756               0-9.710835140E-012.1898943061E-01+
*       -6.978519317E-02               0
GRID*               3757               0-9.098374208E-011.7978154830E-01+
*       -6.978519317E-02               0
GRID*               3758               08.2073965881E-01-6.343062561E-01+
*       -1.831164855E-01               0
GRID*               3759               07.0860619904E-01-5.990048844E-01+
*       -6.118558566E-02               0
GRID*               3760               07.0860619904E-01-6.759279613E-01+
*       -6.118558566E-02               0
GRID*               3761               09.5426213391E-01-6.163341690E-01+
*       -2.282160708E-01               0
GRID*               3762               08.9120864601E-01-6.630857073E-01+
*       -2.282202894E-01               0
GRID*               3763               08.6852247942E-01-6.943257264E-01+
*       -2.282202894E-01               0
GRID*               3764               04.0089499509E-01-4.989082031E-01+
*       -1.884131336E-01               0
GRID*               3765               03.3478603214E-01-4.942633524E-01+
*       -1.950292572E-01               0
GRID*               3766               03.7225114757E-01-4.352978925E-01+
*       -1.950292572E-01               0
GRID*               3767               04.0240467279E-01-4.832857713E-01+
*       -6.341313363E-02               0
GRID*               3768               03.3642007310E-01-5.545899258E-01+
*       -7.002925722E-02               0
GRID*               3769               03.3629570985E-01-4.786409205E-01+
*       -7.002925722E-02               0
GRID*               3770               0-8.500082681E-018.8855348608E-01+
*       -1.868664086E-01               0
GRID*               3771               0-8.269236344E-018.3749381603E-01+
*       -1.868664086E-01               0
GRID*               3772               0-7.788092477E-018.7540216359E-01+
*       -1.868664086E-01               0
GRID*               3773               06.9633617206E-01-7.516250745E-01+
*       7.6002649215E-01               0
GRID*               3774               06.9633617206E-01-6.865160309E-01+
*       8.0336102175E-01               0
GRID*               3775               06.9491730182E-01-6.871267447E-01+
*       7.1078814653E-01               0
GRID*               3776               06.9491730182E-01-7.522357883E-01+
*       6.6745361693E-01               0
GRID*               3777               06.3399767060E-01-6.546458639E-01+
*       7.4815024963E-01               0
GRID*               3778               06.8766149854E-01-5.920244348E-01+
*       7.4395240321E-01               0
GRID*               3779               06.3257880035E-01-6.552565778E-01+
*       6.5557737441E-01               0
GRID*               3780               01.0891994856E+006.2892978480E-01+
*       -1.865428579E-01               0
GRID*               3781               01.0983253564E+005.6191343770E-01+
*       -1.723503887E-01               0
GRID*               3782               01.0826119334E+005.8186683042E-01+
*       -1.524747648E-01               0
GRID*               3783               01.0664590839E+006.2432844062E-01+
*       -1.876589759E-01               0
GRID*               3784               01.0821725069E+006.0437504790E-01+
*       -2.075345999E-01               0
GRID*               3785               01.0755849547E+005.5731209352E-01+
*       -1.734665067E-01               0
GRID*               3786               01.1569359719E+006.6011553548E-01+
*       -7.231118738E-02               0
GRID*               3787               01.1753391765E+006.5645694704E-01+
*       -5.274659840E-02               0
GRID*               3788               01.1373022328E+007.0776886047E-01+
*       -6.376922530E-02               0
GRID*               3789               01.1248246691E+006.8336865544E-01+
*       -6.195244067E-02               0
GRID*               3790               01.1628616127E+006.3205674201E-01+
*       -5.092981377E-02               0
GRID*               3791               01.1432278736E+006.7971006700E-01+
*       -4.238785169E-02               0
GRID*               3792               01.0892016141E+006.2893134412E-01+
*       -2.282092409E-01               0
GRID*               3793               01.0664612124E+006.2432999994E-01+
*       -2.293253589E-01               0
GRID*               3794               0-1.069272825E+00-8.704452455E-01+
*       -1.860886280E-01               0
GRID*               3795               0-1.088876271E+00-9.082652304E-01+
*       -1.764336592E-01               0
GRID*               3796               0-1.093058679E+00-8.889595905E-01+
*       -1.570119122E-01               0
GRID*               3797               0-1.091141939E+00-8.633452460E-01+
*       -1.868581821E-01               0
GRID*               3798               0-1.086959531E+00-8.826508859E-01+
*       -2.062799291E-01               0
GRID*               3799               0-1.110745385E+00-9.011652309E-01+
*       -1.772032133E-01               0
GRID*               3800               0-1.104105186E+00-9.805097434E-01+
*       -2.187538020E-01               0
GRID*               3801               0-1.129946824E+00-9.805097434E-01+
*       -1.564087821E-01               0
GRID*               3802               0-1.058988132E+00-9.805097434E-01+
*       -1.564407090E-01               0
GRID*               3803               0-5.678179269E-012.1297781879E-01+
*       1.8904418847E-01               0
GRID*               3804               0-5.678179269E-011.4326114089E-01+
*       2.4607982036E-01               0
GRID*               3805               0-5.678179269E-012.0298931983E-01+
*       2.7437079643E-01               0
GRID*               3806               0-5.625837962E-018.3508796056E-01+
*       1.1335653853E+00               0
GRID*               3807               0-6.250839961E-018.5004030599E-01+
*       1.0992946458E+00               0
GRID*               3808               0-5.306977640E-018.9112052342E-01+
*       1.1354371034E+00               0
GRID*               3809               0-5.932815602E-018.2523997000E-01+
*       1.0851189134E+00               0
GRID*               3810               0-5.931979638E-019.0607286885E-01+
*       1.1011663639E+00               0
GRID*               3811               05.6266149854E-01-5.155012282E-01+
*       6.1663142694E-01               0
GRID*               3812               05.6266149854E-01-5.871756530E-01+
*       6.5972528496E-01               0
GRID*               3813               05.7219114330E-01-6.318278575E-01+
*       5.8092019359E-01               0
GRID*               3814               05.7219114330E-01-5.601534327E-01+
*       5.3782633556E-01               0
GRID*               3815               0-6.875837962E-018.3508796056E-01+
*       1.1335653853E+00               0
GRID*               3816               0-6.875837962E-017.6080892385E-01+
*       1.1346599467E+00               0
GRID*               3817               0-6.875837962E-017.8702979226E-01+
*       1.0715084693E+00               0
GRID*               3818               0-5.316984535E-019.3223810326E-01+
*       1.0031508214E+00               0
GRID*               3819               0-5.631515258E-019.0549344693E-01+
*       9.9208660387E-01               0
GRID*               3820               06.3165842207E-01-8.022644616E-01+
*       5.2109661212E-01               0
GRID*               3821               06.9491730182E-01-7.713026441E-01+
*       5.4141547180E-01               0
GRID*               3822               06.9719114330E-01-7.208525387E-01+
*       4.9577463711E-01               0
GRID*               3823               06.4210844511E-01-6.999087823E-01+
*       5.7677228304E-01               0
GRID*               3824               06.3632751421E-01-8.716133239E-01+
*       5.0330554005E-01               0
GRID*               3825               06.4450369577E-01-8.197077501E-01+
*       6.0462204566E-01               0
GRID*               3826               0-5.612213441E-01-8.276136801E-01+
*       5.8002553464E-01               0
GRID*               3827               0-5.612213441E-01-8.838010206E-01+
*       6.2382247234E-01               0
GRID*               3828               0-5.653561060E-01-7.569949907E-01+
*       5.9731606940E-01               0
GRID*               3829               0-6.265774501E-01-8.184211262E-01+
*       6.0658138339E-01               0
GRID*               3830               0-5.653561060E-01-8.131823312E-01+
*       6.4111300710E-01               0
GRID*               3831               0-6.862213441E-01-8.799575740E-01+
*       6.2391186563E-01               0
GRID*               3832               0-6.862213441E-01-8.181566683E-01+
*       5.7972098974E-01               0
GRID*               3833               0-6.903561060E-01-8.093388847E-01+
*       6.4120240040E-01               0
GRID*               3834               0-6.903561060E-01-7.475379789E-01+
*       5.9701152450E-01               0
GRID*               3835               0-6.851296485E-01-4.604984576E-01+
*       4.6742193073E-01               0
GRID*               3836               0-6.263829251E-01-7.117344693E-01+
*       5.1779166769E-01               0
GRID*               3837               0-5.653561060E-01-7.700244186E-01+
*       5.4214487201E-01               0
GRID*               3838               0-5.546854036E-01-7.126764292E-01+
*       4.9638728635E-01               0
GRID*               3839               0-6.200415097E-01-6.904544473E-01+
*       5.7811433249E-01               0
GRID*               3840               06.2452068960E-01-7.595355616E-01+
*       4.1515439722E-01               0
GRID*               3841               06.8777956934E-01-7.089835868E-01+
*       3.8358701585E-01               0
GRID*               3842               06.7308307664E-01-7.651038040E-01+
*       3.3634881812E-01               0
GRID*               3843               06.1086264598E-01-7.210213049E-01+
*       3.6329049020E-01               0
GRID*               3844               06.8674112026E-01-8.545199116E-01+
*       3.2767940975E-01               0
GRID*               3845               06.7308307664E-01-8.160056550E-01+
*       2.7581550273E-01               0
GRID*               3846               06.2393943190E-01-9.270850177E-01+
*       3.2211852001E-01               0
GRID*               3847               06.1028138828E-01-8.885707611E-01+
*       2.7025461298E-01               0
GRID*               3848               05.9224035380E-01-9.671060141E-01+
*       2.5994788056E-01               0
GRID*               3849               05.9178316241E-01-8.941910318E-01+
*       3.5760946706E-01               0
GRID*               3850               05.7812511880E-01-8.556767752E-01+
*       3.0574556004E-01               0
GRID*               3851               0-6.068155331E-014.9659031495E-01+
*       -2.023525060E-01               0
GRID*               3852               0-5.736206845E-014.0471810465E-01+
*       -1.415690948E-01               0
GRID*               3853               0-5.346470953E-013.8649910283E-01+
*       -1.892165888E-01               0
GRID*               3854               0-4.857221673E-014.4612191304E-01+
*       -1.771822992E-01               0
GRID*               3855               0-5.246957564E-014.6434091485E-01+
*       -1.295348052E-01               0
GRID*               3856               0-1.025633255E+00-6.091711189E-01+
*       -6.286649682E-02               0
GRID*               3857               0-1.062389597E+00-6.211221169E-01+
*       -2.119983015E-02               0
GRID*               3858               0-1.006564058E+00-6.043889936E-01+
*       -6.199496912E-02               0
GRID*               3859               0-1.043320400E+00-6.163399916E-01+
*       -2.032830246E-02               0
GRID*               3860               0-1.006564058E+00-6.043889936E-01+
*       -2.032830246E-02               0
GRID*               3861               01.1165479251E+006.4080314298E-01+
*       -1.568469463E-01               0
GRID*               3862               01.1322613481E+006.2084975026E-01+
*       -1.767225703E-01               0
GRID*               3863               01.0960589672E+006.4959231477E-01+
*       -1.868403295E-01               0
GRID*               3864               01.1391208296E+006.4151228022E-01+
*       -1.770200419E-01               0
GRID*               3865               01.1117723901E+006.2963892204E-01+
*       -2.067159535E-01               0
GRID*               3866               0-5.914198429E-013.5985329021E-01+
*       -7.364268128E-02               0
GRID*               3867               0-6.643144041E-014.2495025628E-01+
*       -1.509951873E-01               0
GRID*               3868               0-5.728945611E-014.4971235069E-01+
*       -7.735250597E-02               0
GRID*               3869               0-5.007261234E-013.3962113858E-01+
*       -6.421658882E-02               0
GRID*               3870               0-5.921459663E-013.1485904417E-01+
*       -1.378592701E-01               0
GRID*               3871               01.1274528931E+004.4880449326E-01+
*       -1.199615669E-01               0
GRID*               3872               01.1741645334E+004.1902260220E-01+
*       -1.446033345E-01               0
GRID*               3873               01.1490237570E+003.3974317950E-01+
*       -1.758204191E-01               0
GRID*               3874               01.1708689021E+004.8819447242E-01+
*       -1.316411478E-01               0
GRID*               3875               01.1708689021E+005.6511754935E-01+
*       -1.316411478E-01               0
GRID*               3876               0-5.738993766E-011.9988050495E-01+
*       -1.960893090E-01               0
GRID*               3877               0-5.016353393E-011.9758919200E-01+
*       -1.960893090E-01               0
GRID*               3878               0-5.446267000E-012.3253821561E-01+
*       -1.353058978E-01               0
GRID*               3879               0-4.459892673E-013.8650818547E-01+
*       -1.771822992E-01               0
GRID*               3880               0-6.560310847E-013.4640470197E-01+
*       -1.986426813E-01               0
GRID*               3881               0-6.214186429E-012.8220133351E-01+
*       -1.986426813E-01               0
GRID*               3882               0-5.539780111E-015.0092850894E-01+
*       9.0692728169E-01               0
GRID*               3883               0-5.640416763E-014.5445245647E-01+
*       1.0136405412E+00               0
GRID*               3884               0-6.789780111E-015.5834223839E-01+
*       8.9273915942E-01               0
GRID*               3885               0-5.726538539E-017.7205168692E-01+
*       8.7762561372E-01               0
GRID*               3886               0-5.708807856E-016.8753257699E-01+
*       9.1852242249E-01               0
GRID*               3887               01.2065839910E+003.8368694391E-01+
*       -1.758204191E-01               0
GRID*               3888               0-6.976538539E-018.0901770794E-01+
*       9.7774938885E-01               0
GRID*               3889               01.8725056350E-01-6.826043999E-01+
*       -5.844746708E-02               0
GRID*               3890               02.7453768968E-01-5.156218132E-01+
*       -7.002925722E-02               0
GRID*               3891               02.7498589863E-01-5.901674574E-01+
*       -7.002925722E-02               0
GRID*               3892               02.0941905001E-01-5.896930260E-01+
*       -1.284767243E-01               0
GRID*               3893               05.3056005759E-018.8404865635E-01+
*       1.8015407949E-02               0
GRID*               3894               05.9311542008E-018.4555121783E-01+
*       2.8850742050E-02               0
GRID*               3895               05.2464071659E-018.8357694387E-01+
*       -2.532784530E-02               0
GRID*               3896               05.5520077418E-019.2147175407E-01+
*       -7.312437348E-03               0
GRID*               3897               05.8719607908E-018.4507950535E-01+
*       -1.449251119E-02               0
GRID*               3898               0-5.583229189E-017.6652639305E-01+
*       3.0290694550E-01               0
GRID*               3899               0-5.583229189E-018.2250118493E-01+
*       2.6547390876E-01               0
GRID*               3900               05.6844991718E-016.3304152405E-01+
*       4.0385185885E-02               0
GRID*               3901               05.6844991718E-015.5611844713E-01+
*       4.0385185885E-02               0
GRID*               3902               05.0395962935E-016.5845391378E-01+
*       -6.554598111E-02               0
GRID*               3903               0-9.465982432E-018.7591975875E-01+
*       -2.172447832E-02               0
GRID*               3904               0-9.098826511E-018.6399807725E-01+
*       -2.172447832E-02               0
GRID*               3905               0-9.098847681E-018.6399962612E-01+
*       -6.339086287E-02               0
GRID*               3906               05.6844991718E-014.7919537021E-01+
*       4.0385185885E-02               0
GRID*               3907               06.3325036168E-014.7696029413E-01+
*       1.3204370887E-01               0
GRID*               3908               05.6480044450E-013.8238030853E-01+
*       9.1658522981E-02               0
GRID*               3909               05.6159990324E-013.8473193996E-01+
*       6.6144821120E-04               0
GRID*               3910               06.3004982042E-014.7931192556E-01+
*       4.1046634096E-02               0
GRID*               3911               06.2640034774E-013.8249686388E-01+
*       9.2319971193E-02               0
GRID*               3912               06.6891401940E-016.5401689411E-01+
*       -1.969736901E-01               0
GRID*               3913               07.2831232190E-016.9753909611E-01+
*       -1.962847177E-01               0
GRID*               3914               08.3882363563E-01-6.416862011E-01+
*       -7.896474171E-02               0
GRID*               3915               06.2069393609E-01-4.865081592E-01+
*       -1.947321479E-01               0
GRID*               3916               04.4575041223E-02-4.515409826E-01+
*       -5.588864971E-02               0
GRID*               3917               04.6311622287E-02-5.269628205E-01+
*       -5.588864971E-02               0
GRID*               3918               0-5.089105246E-02-5.281805584E-01+
*       -5.643310787E-02               0
GRID*               3919               0-5.262763353E-02-4.527587205E-01+
*       -5.643310787E-02               0
GRID*               3920               0-1.058039524E-02-5.224979414E-01+
*       -1.123217576E-01               0
GRID*               3921               08.9120755153E-01-6.630865988E-01+
*       -1.865534787E-01               0
GRID*               3922               0-1.150014103E+008.1820744057E-01+
*       -1.155541947E-01               0
GRID*               3923               0-1.127329012E+008.4944661920E-01+
*       -1.572207156E-01               0
GRID*               3924               05.3052556269E-01-8.488695115E-01+
*       1.2215954673E+00               0
GRID*               3925               05.3052556269E-01-7.634355890E-01+
*       1.1955500589E+00               0
GRID*               3926               05.3052556269E-01-7.634821613E-01+
*       1.2666144131E+00               0
GRID*               3927               06.5625142895E-01-8.248048544E-01+
*       1.2600925006E+00               0
GRID*               3928               07.1875029295E-01-8.049135209E-01+
*       1.2917496993E+00               0
GRID*               3929               07.1926031018E-01-8.174122569E-01+
*       1.2649475383E+00               0
GRID*               3930               06.5676144618E-01-8.373035904E-01+
*       1.2332903396E+00               0
GRID*               3931               06.8801060313E-01-7.960869935E-01+
*       1.2433771723E+00               0
GRID*               3932               06.3337402778E-01-7.766868567E-01+
*       1.2240905641E+00               0
GRID*               3933               06.6462318473E-01-7.354702598E-01+
*       1.2341773968E+00               0
GRID*               3934               06.6513320196E-01-7.479689958E-01+
*       1.2073752358E+00               0
GRID*               3935               07.3223016418E-02-7.555777749E-01+
*       -5.844746708E-02               0
GRID*               3936               01.0252288423E-01-7.814082335E-01+
*       -1.323225236E-01               0
GRID*               3937               05.4062185783E-02-8.548560399E-01+
*       -7.387505651E-02               0
GRID*               3938               0-1.590657281E-02-8.292463726E-01+
*       -7.392761637E-02               0
GRID*               3939               03.2554125637E-02-7.557985663E-01+
*       -1.323750834E-01               0
GRID*               3940               01.3393295002E-02-8.550768313E-01+
*       -1.478026729E-01               0
GRID*               3941               02.9758190905E-01-5.550312951E-01+
*       -1.950292572E-01               0
GRID*               3942               02.8694296455E-01-6.309806045E-01+
*       -1.874438887E-01               0
GRID*               3943               02.8651544064E-01-5.732053928E-01+
*       -1.324731459E-01               0
GRID*               3944               01.9878010551E-01-6.656423353E-01+
*       -1.208913558E-01               0
GRID*               3945               02.8338272875E-01-3.112260133E-01+
*       -1.871173658E-01               0
GRID*               3946               02.3358668503E-01-3.836109310E-01+
*       -1.860458823E-01               0
GRID*               3947               05.8317160838E-02-2.974054218E-01+
*       -1.884022901E-01               0
GRID*               3948               01.3568733831E-01-3.343901666E-01+
*       -1.244481724E-01               0
GRID*               3949               09.7919996258E-02-2.346268646E-01+
*       -1.884022901E-01               0
GRID*               3950               0-3.186927429E-02-3.761139263E-01+
*       -6.823584205E-02               0
GRID*               3951               02.9721437997E-02-3.384851192E-01+
*       -6.823584205E-02               0
GRID*               3952               08.3080186329E-02-3.952765590E-01+
*       -6.104588233E-02               0
GRID*               3953               01.1399305406E+003.7550474295E-02+
*       -1.883836105E-01               0
GRID*               3954               01.0705485272E+004.5446066371E-02+
*       -1.277535087E-01               0
GRID*               3955               01.0662989632E+006.4545240179E-03+
*       -1.893698982E-01               0
GRID*               3956               01.1385139410E+00-3.920088749E-02+
*       -1.842202640E-01               0
GRID*               3957               01.1427635050E+00-2.093451408E-04+
*       -1.226038745E-01               0
GRID*               3958               01.0691319275E+00-3.130529542E-02+
*       -1.235901622E-01               0
GRID*               3959               05.5602510259E-018.3682068391E-01+
*       8.6223641863E-01               0
GRID*               3960               05.6589199826E-017.9781305950E-01+
*       7.9792489428E-01               0
GRID*               3961               05.6254316389E-018.7294552274E-01+
*       7.6259950987E-01               0
GRID*               3962               06.1856826648E-018.3809250548E-01+
*       8.2729015337E-01               0
GRID*               3963               06.2843516215E-017.9908488107E-01+
*       7.6297862902E-01               0
GRID*               3964               01.1970900523E+007.6732546786E-02+
*       -6.338361052E-02               0
GRID*               3965               01.1970900523E+001.1519408525E-01+
*       -1.258836105E-01               0
GRID*               3966               01.1970900523E+003.8271008324E-02+
*       -1.258836105E-01               0
GRID*               3967               05.6589199826E-017.4381095576E-01+
*       8.1759099521E-01               0
GRID*               3968               07.1749830481E-018.9571559048E-01+
*       1.2426128441E-01               0
GRID*               3969               06.5288136049E-019.6847502136E-01+
*       1.0656945054E-01               0
GRID*               3970               06.5447341728E-019.6847502136E-01+
*       1.8244048713E-01               0
GRID*               3971               06.5376294902E-018.7215362533E-01+
*       1.3333939493E-01               0
GRID*               3972               07.0205803673E-017.6908791923E-01+
*       2.3283233757E-01               0
GRID*               3973               01.1970900523E+007.6732546786E-02+
*       -1.883836105E-01               0
GRID*               3974               01.2215372153E+003.8159426268E-02+
*       -2.187455598E-01               0
GRID*               3975               01.1686272676E+003.7968896130E-02+
*       -1.571291704E-01               0
GRID*               3976               01.1643777036E+00-1.022646223E-03+
*       -2.187455598E-01               0
GRID*               3977               01.0694850380E+001.5056696929E-01+
*       -1.924505524E-01               0
GRID*               3978               09.8022426357E-011.9453254552E-01+
*       -1.805492479E-01               0
GRID*               3979               0-5.302963081E-01-8.539842978E-01+
*       1.2004688881E+00               0
GRID*               3980               0-5.927951711E-01-8.364673336E-01+
*       1.2336051453E+00               0
GRID*               3981               0-5.302963081E-01-8.166194330E-01+
*       1.2651871331E+00               0
GRID*               3982               07.1425004738E-018.8313276038E-01+
*       -2.479248745E-02               0
GRID*               3983               06.5180540987E-018.4463532186E-01+
*       -1.395715335E-02               0
GRID*               3984               06.8174835218E-019.2052074231E-01+
*       -5.907690563E-03               0
GRID*               3985               05.3011491255E-019.7364090183E-01+
*       7.9411663622E-02               0
GRID*               3986               05.3011491255E-019.2007215709E-01+
*       1.2953306519E-01               0
GRID*               3987               05.2130865279E-019.8080244313E-01+
*       2.9791433600E-02               0
GRID*               3988               05.5142356534E-019.5444334496E-01+
*       1.0920309722E-01               0
GRID*               3989               05.2130865279E-019.2723369839E-01+
*       7.9912835168E-02               0
GRID*               3990               06.5546449306E-019.6634237869E-01+
*       2.2112912297E-01               0
GRID*               3991               06.2577449643E-019.2807182386E-01+
*       2.2487721327E-01               0
GRID*               3992               06.5475402480E-018.7002098266E-01+
*       1.7202803076E-01               0
GRID*               3993               07.1732211583E-019.6847502136E-01+
*       1.4516586297E-01               0
GRID*               3994               01.0922698676E+007.6395588927E-02+
*       -1.883836105E-01               0
GRID*               3995               0-2.490293075E-018.6353562932E-01+
*       -1.885498338E-01               0
GRID*               3996               0-1.788634567E-019.7219637710E-01+
*       -3.107065768E-02               0
GRID*               3997               0-2.134866777E-019.6927025230E-01+
*       -3.033976512E-02               0
GRID*               3998               0-2.725563305E-019.7615708222E-01+
*       -3.234751226E-02               0
GRID*               3999               0-3.489029927E-019.2664604462E-01+
*       -3.234751226E-02               0
GRID*               4000               0-3.439849020E-019.7615708222E-01+
*       -3.234751226E-02               0
GRID*               4001               04.1827123706E-02-8.734647406E-01+
*       -1.988750565E-01               0
GRID*               4002               07.9479907749E-02-8.075344626E-01+
*       -1.988750565E-01               0
GRID*               4003               09.5111491533E-03-7.819247953E-01+
*       -1.989276164E-01               0
GRID*               4004               0-2.814163489E-02-8.478550734E-01+
*       -1.989276164E-01               0
GRID*               4005               0-1.383624410E-01-7.164299661E-01+
*       -5.190440938E-02               0
GRID*               4006               0-7.646235212E-02-6.766092879E-01+
*       -5.190440938E-02               0
GRID*               4007               0-8.416878790E-02-7.957451703E-01+
*       -7.392761637E-02               0
GRID*               4008               0-1.107691167E-01-7.501519598E-01+
*       -1.258320257E-01               0
GRID*               4009               0-2.226869898E-02-7.559244921E-01+
*       -7.392761637E-02               0
GRID*               4010               0-1.414968503E-01-7.783227509E-01+
*       -1.989276164E-01               0
GRID*               4011               0-1.762399229E-01-7.929557527E-01+
*       -1.456553555E-01               0
GRID*               4012               01.0177964001E-02-4.458531472E-01+
*       -1.241244918E-01               0
GRID*               4013               0-1.401653875E-02-4.973257219E-01+
*       -1.814331079E-01               0
GRID*               4014               01.8285828807E-02-1.906851908E-01+
*       -4.905797893E-02               0
GRID*               4015               0-6.382805503E-02-1.973505305E-01+
*       -1.111565133E-01               0
GRID*               4016               0-8.136837437E-02-2.365276703E-01+
*       -6.209853433E-02               0
GRID*               4017               0-1.194919081E-01-7.007518560E-01+
*       -1.769044094E-01               0
GRID*               4018               0-6.529825491E-02-7.800670601E-01+
*       -1.989276164E-01               0
GRID*               4019               0-2.038332472E-01-7.592337590E-01+
*       -7.172773914E-02               0
GRID*               4020               0-1.572097556E-01-8.444956172E-01+
*       -7.392761637E-02               0
GRID*               4021               0-3.521992386E-011.0531463969E-01+
*       -1.875577577E-01               0
GRID*               4022               0-3.956344985E-018.8856350491E-02+
*       -1.178699988E-01               0
GRID*               4023               0-3.897849511E-017.1920526542E-02+
*       -1.803122412E-01               0
GRID*               4024               0-3.272860493E-011.0259401687E-01+
*       -1.265577463E-01               0
GRID*               4025               0-3.648717618E-016.9199903725E-02+
*       -1.193122298E-01               0
GRID*               4026               0-3.063170315E-011.2269631334E-02+
*       -1.231407932E-01               0
GRID*               4027               0-3.563092320E-013.4703317244E-03+
*       -1.803122412E-01               0
GRID*               4028               0-3.666889599E-01-4.382999710E-02+
*       -1.149755100E-01               0
GRID*               4029               0-3.324587104E-01-6.430048444E-01+
*       -1.390438270E-01               0
GRID*               4030               0-4.129151281E-01-7.654906974E-01+
*       -5.245772721E-02               0
GRID*               4031               0-4.039729466E-012.7796355262E-02+
*       -5.531224116E-02               0
GRID*               4032               0-3.374416955E-01-7.149587918E-02+
*       -5.966326884E-02               0
GRID*               4033               0-4.030306920E-01-6.791014265E-02+
*       -5.499155446E-02               0
GRID*               4034               0-4.322779564E-01-4.024426057E-02+
*       -1.103037956E-01               0
GRID*               4035               0-3.657467053E-01-1.395364950E-01+
*       -1.146548233E-01               0
GRID*               4036               0-4.101852639E-01-6.894038813E-01+
*       -5.245772721E-02               0
GRID*               4037               0-3.353676782E-01-6.850068570E-01+
*       -7.172773914E-02               0
GRID*               4038               0-6.824081031E-01-9.220625780E-01+
*       -5.710209605E-03               0
GRID*               4039               0-6.126541854E-01-8.867205451E-01+
*       -4.532012814E-02               0
GRID*               4040               0-5.244346061E-01-8.826191950E-01+
*       -1.024438821E-01               0
GRID*               4041               0-6.112595813E-01-8.539187842E-01+
*       -8.106686290E-02               0
GRID*               4042               0-5.230400020E-01-8.498174342E-01+
*       -1.381906169E-01               0
GRID*               4043               0-5.405232847E-011.3361567971E-01+
*       -1.960893090E-01               0
GRID*               4044               0-6.223987869E-019.7198202022E-02+
*       -1.365783719E-01               0
GRID*               4045               0-5.751209183E-016.0364343057E-02+
*       -1.904890629E-01               0
GRID*               4046               0-4.632328135E-017.6122029047E-02+
*       -1.803122412E-01               0
GRID*               4047               0-5.105106821E-011.1295588801E-01+
*       -1.264015501E-01               0
GRID*               4048               0-5.451083158E-013.9704551354E-02+
*       -1.208013041E-01               0
GRID*               4049               0-5.784982103E-01-2.648810578E-02+
*       -6.548906291E-02               0
GRID*               4050               0-4.666101055E-01-1.073041979E-02+
*       -5.531224116E-02               0
GRID*               4051               0-5.189126625E-01-6.368510982E-02+
*       -6.234030866E-02               0
GRID*               4052               0-5.974108728E-01-1.325013868E-02+
*       -1.278293716E-01               0
GRID*               4053               0-4.855227680E-012.5075473136E-03+
*       -1.176525498E-01               0
GRID*               4054               0-6.991198850E-01-8.329588558E-01+
*       2.6228958198E-01               0
GRID*               4055               0-6.285038140E-01-8.039098271E-01+
*       2.3062676067E-01               0
GRID*               4056               0-6.991198850E-01-7.670242433E-01+
*       2.2869034034E-01               0
GRID*               4057               0-6.963017926E-018.1963212692E-01+
*       7.4930569368E-02               0
GRID*               4058               0-6.963017926E-018.4298645911E-01+
*       1.2505197094E-01               0
GRID*               4059               0-6.963017926E-017.8039311524E-01+
*       1.3297025957E-01               0
GRID*               4060               0-5.562674370E-01-5.428639208E-01+
*       7.3709940155E-02               0
GRID*               4061               0-5.543839289E-01-7.553974971E-01+
*       1.9237518400E-01               0
GRID*               4062               0-5.628657242E-01-6.847721148E-01+
*       1.5678906415E-01               0
GRID*               4063               0-4.656678509E-01-1.064369177E-01+
*       -5.499155446E-02               0
GRID*               4064               0-4.845805134E-01-9.319895060E-02+
*       -1.173318631E-01               0
GRID*               4065               06.3969622982E-01-8.945764674E-01+
*       9.3487519320E-01               0
GRID*               4066               06.2814014963E-01-8.693982863E-01+
*       1.0303491499E+00               0
GRID*               4067               06.5702413654E-01-9.311938546E-01+
*       9.9995581799E-01               0
GRID*               4068               06.7172073755E-01-8.522438328E-01+
*       9.5625718074E-01               0
GRID*               4069               06.6016465737E-01-8.270656517E-01+
*       1.0517311374E+00               0
GRID*               4070               0-2.649246109E-01-3.015294304E-01+
*       -1.318604660E-01               0
GRID*               4071               0-3.332623362E-01-2.514940412E-01+
*       -1.294252005E-01               0
GRID*               4072               06.3337202949E-01-7.345932779E-01+
*       1.2858304041E+00               0
GRID*               4073               06.5624943066E-01-7.827112756E-01+
*       1.3218323406E+00               0
GRID*               4074               06.9624825439E-01-6.049957272E-01+
*       1.1200099845E+00               0
GRID*               4075               06.9587289178E-01-6.756026282E-01+
*       1.1345505975E+00               0
GRID*               4076               05.7124825439E-01-5.730570191E-01+
*       1.1172547101E+00               0
GRID*               4077               05.7124825439E-01-5.760063350E-01+
*       1.1916435853E+00               0
GRID*               4078               05.7087289178E-01-6.466132360E-01+
*       1.2061841983E+00               0
GRID*               4079               05.6564033523E-01-7.476853762E-01+
*       1.1069586139E+00               0
GRID*               4080               05.7087289178E-01-7.087264655E-01+
*       1.1649841094E+00               0
GRID*               4081               05.3192813074E-01-7.635747866E-01+
*       1.1608262917E+00               0
GRID*               4082               05.9756846596E-01-7.811594939E-01+
*       1.1359921471E+00               0
GRID*               4083               06.0280102252E-01-7.422005833E-01+
*       1.1940176426E+00               0
GRID*               4084               01.8691470392E-015.5093582202E-01+
*       -1.819634721E-01               0
GRID*               4085               01.4446116056E-014.8555291033E-01+
*       -1.819634721E-01               0
GRID*               4086               03.0472319490E-015.5385646276E-01+
*       -1.794320570E-01               0
GRID*               4087               02.0657776855E-015.2287628899E-01+
*       -1.113955292E-01               0
GRID*               4088               02.6226965155E-014.8847355106E-01+
*       -1.794320570E-01               0
GRID*               4089               06.8798534288E-015.1375422105E-01+
*       1.2524829433E+00               0
GRID*               4090               06.8798534288E-015.0949361858E-01+
*       1.1765570450E+00               0
GRID*               4091               06.9696027031E-014.3394610953E-01+
*       1.2066162011E+00               0
GRID*               4092               0-1.221861672E-015.0891207995E-01+
*       -1.845585398E-01               0
GRID*               4093               01.1073181285E-015.5689717902E-01+
*       -1.819634721E-01               0
GRID*               4094               03.5788121964E-025.6239078408E-01+
*       -1.819634721E-01               0
GRID*               4095               05.5165768649E-012.6853971404E-01+
*       1.3977900059E+00               0
GRID*               4096               05.7196027031E-013.4902903090E-01+
*       1.3392207755E+00               0
GRID*               4097               05.6409784797E-013.3431177166E-01+
*       1.4348628997E+00               0
GRID*               4098               02.8574668505E-018.0254840866E-01+
*       -1.902155026E-01               0
GRID*               4099               03.2449441662E-017.3099246585E-01+
*       -1.902155026E-01               0
GRID*               4100               05.9589013828E-011.9534823783E-01+
*       1.1954998553E+00               0
GRID*               4101               05.9581184853E-011.5143988074E-01+
*       1.1260680119E+00               0
GRID*               4102               06.5598416482E-011.5113712341E-01+
*       1.1293979370E+00               0
GRID*               4103               06.5606245457E-011.9504548049E-01+
*       1.1988297804E+00               0
GRID*               4104               06.2679447476E-011.4471422748E-01+
*       1.1598091006E+00               0
GRID*               4105               01.0395246492E+003.3155626061E-01+
*       -1.738820219E-01               0
GRID*               4106               09.6785039917E-013.8702717998E-01+
*       -1.903398236E-01               0
GRID*               4107               06.8909784797E-014.2615338771E-01+
*       1.4551074278E+00               0
GRID*               4108               01.0960610956E+006.4959387409E-01+
*       -2.285067125E-01               0
GRID*               4109               01.0459053822E+005.6992525232E-01+
*       -1.108078145E-01               0
GRID*               4110               01.1098383490E+005.4281876160E-01+
*       -1.941411478E-01               0
GRID*               4111               05.6221123114E-011.0955969029E-01+
*       1.5777000266E+00               0
GRID*               4112               05.9410569458E-011.1564273658E-01+
*       1.6160069459E+00               0
GRID*               4113               05.3189446343E-011.3077633245E-01+
*       1.6302680439E+00               0
GRID*               4114               05.3095957968E-019.3882174975E-02+
*       1.6312514786E+00               0
GRID*               4115               05.9317081082E-017.8748579105E-02+
*       1.6169903806E+00               0
GRID*               4116               05.6285404311E-019.9965221272E-02+
*       1.6695583978E+00               0
GRID*               4117               06.2471209312E-011.2173672193E-01+
*       1.6511342775E+00               0
GRID*               4118               06.2471160104E-011.9459162397E-01+
*       1.6345052644E+00               0
GRID*               4119               06.5503507660E-012.7031967079E-01+
*       1.6761724263E+00               0
GRID*               4120               06.5503556868E-011.9746476875E-01+
*       1.6928014393E+00               0
GRID*               4121               06.5474593784E-011.7015414123E-01+
*       1.6051060905E+00               0
GRID*               4122               09.8811488916E-016.0756506501E-01+
*       -1.871297120E-01               0
GRID*               4123               09.9870598791E-015.8871188740E-01+
*       -2.069626368E-01               0
GRID*               4124               09.5253406698E-015.6320448635E-01+
*       -1.696377236E-01               0
GRID*               4125               0-1.224657359E+00-9.754027291E-01+
*       -1.882910472E-01               0
GRID*               4126               0-1.176969585E+00-9.754027291E-01+
*       -1.259460272E-01               0
GRID*               4127               0-1.199274649E+00-9.758127678E-01+
*       -2.193876945E-01               0
GRID*               4128               0-1.173932008E+00-9.512154968E-01+
*       -1.576787416E-01               0
GRID*               4129               0-1.151586875E+00-9.758127678E-01+
*       -1.570426745E-01               0
GRID*               4130               05.7740887023E-011.3300069779E-01+
*       1.4222492849E+00               0
GRID*               4131               05.6221123114E-011.3327612158E-01+
*       1.5049637054E+00               0
GRID*               4132               07.0240887023E-011.6593139219E-01+
*       1.4170798400E+00               0
GRID*               4133               07.0240887023E-019.8287524239E-02+
*       1.4328695318E+00               0
GRID*               4134               06.8721123114E-019.8562948033E-02+
*       1.5155839522E+00               0
GRID*               4135               06.8721123114E-011.6620681598E-01+
*       1.4997942605E+00               0
GRID*               4136               07.0240887023E-012.9137081991E-02+
*       1.4320775664E+00               0
GRID*               4137               06.8721123114E-012.9412505786E-02+
*       1.5147919869E+00               0
GRID*               4138               0-1.059119829E+00-8.880584970E-01+
*       -1.559790802E-01               0
GRID*               4139               0-1.078723275E+00-9.258784819E-01+
*       -1.463241114E-01               0
GRID*               4140               0-1.054937421E+00-9.073641369E-01+
*       -1.754008272E-01               0
GRID*               4141               0-4.076687231E-016.9191605981E-01+
*       -7.392710582E-02               0
GRID*               4142               0-4.067079548E-017.6632833151E-01+
*       -7.392710582E-02               0
GRID*               4143               0-3.792749122E-017.4536635391E-01+
*       -1.335200798E-01               0
GRID*               4144               0-3.463653623E-017.3965229541E-01+
*       -5.959297399E-02               0
GRID*               4145               0-1.986857415E-015.1545286797E-01+
*       -1.845585398E-01               0
GRID*               4146               0-2.318014916E-015.4801975711E-01+
*       -1.181335122E-01               0
GRID*               4147               0-2.867739020E-015.2274496055E-01+
*       -1.835749723E-01               0
GRID*               4148               0-2.524124638E-013.9547087796E-01+
*       -1.849142024E-01               0
GRID*               4149               0-1.974400534E-014.2074567452E-01+
*       -1.194727422E-01               0
GRID*               4150               0-3.865149938E-016.8842332860E-01+
*       -1.845929740E-01               0
GRID*               4151               0-4.468575863E-017.1509936470E-01+
*       -1.989271058E-01               0
GRID*               4152               0-4.717650116E-016.3248980937E-01+
*       -1.963506989E-01               0
GRID*               4153               0-4.041823375E-016.6275679858E-01+
*       -1.309436728E-01               0
GRID*               4154               0-4.645249300E-016.8943283468E-01+
*       -1.452778047E-01               0
GRID*               4155               0-9.954992436E-01-9.804680626E-01+
*       -2.194281986E-01               0
GRID*               4156               0-1.069028655E+00-9.804680626E-01+
*       -2.194281986E-01               0
GRID*               4157               0-1.023911601E+00-9.804680626E-01+
*       -1.571151056E-01               0
GRID*               4158               0-1.001504291E+00-9.068387872E-01+
*       -9.344078719E-02               0
GRID*               4159               0-9.679928395E-01-9.374717291E-01+
*       -1.038148995E-01               0
GRID*               4160               0-9.925168987E-01-9.230660720E-01+
*       -7.248252951E-02               0
GRID*               4161               0-9.163880983E-01-9.850251669E-01+
*       -3.167922766E-02               0
GRID*               4162               0-8.906402985E-01-9.850251669E-01+
*       -9.664999280E-02               0
GRID*               4163               0-9.644082988E-01-9.850251669E-01+
*       -9.436613465E-02               0
GRID*               4164               0-3.469611000E-027.1694995746E-01+
*       -1.837825686E-01               0
GRID*               4165               0-6.952957116E-018.8195907670E-02+
*       3.8490038369E-02               0
GRID*               4166               0-6.952957116E-011.2783782973E-01+
*       1.0929670503E-01               0
GRID*               4167               0-6.952957116E-015.8004467829E-02+
*       1.0700528983E-01               0
GRID*               4168               0-2.266548863E-016.2787345343E-01+
*       -1.173575409E-01               0
GRID*               4169               0-2.261762200E-017.0956268749E-01+
*       -1.183755426E-01               0
GRID*               4170               0-4.076024257E-017.6756124789E-01+
*       -1.989271058E-01               0
GRID*               4171               0-3.472598331E-017.4088521180E-01+
*       -1.845929740E-01               0
GRID*               4172               0-6.161930885E-01-5.368104653E-01+
*       1.2718317038E+00               0
GRID*               4173               0-5.641798425E-01-5.055588357E-01+
*       1.3014967196E+00               0
GRID*               4174               0-5.591558635E-01-4.485465750E-01+
*       1.2473399730E+00               0
GRID*               4175               0-6.111691096E-01-4.797982046E-01+
*       1.2176749573E+00               0
GRID*               4176               0-6.233357060E-01-4.725084139E-01+
*       1.3234660301E+00               0
GRID*               4177               0-5.702957116E-011.6511898459E-01+
*       3.8490038369E-02               0
GRID*               4178               0-5.702957116E-018.8195907670E-02+
*       3.8490038369E-02               0
GRID*               4179               0-5.702957116E-011.1270015555E-01+
*       1.1018780363E-01               0
GRID*               4180               0-6.841558635E-01-4.506275552E-01+
*       1.2841633618E+00               0
GRID*               4181               0-6.841558635E-01-4.463669524E-01+
*       1.2082374645E+00               0
GRID*               4182               0-8.480011294E-012.1821098785E-01+
*       -6.978519317E-02               0
GRID*               4183               0-9.769675211E-011.9812287997E-01+
*       -1.947851932E-01               0
GRID*               4184               0-9.696433109E-012.6730399709E-01+
*       -1.947851932E-01               0
GRID*               4185               0-1.036886831E+002.3189355149E-01+
*       -1.834403166E-01               0
GRID*               4186               0-1.005921569E+002.3942341645E-01+
*       -1.282255098E-01               0
GRID*               4187               0-9.276843655E-017.2984766210E-02+
*       -7.862785470E-02               0
GRID*               4188               02.0834695922E-018.9982677855E-01+
*       -1.554268320E-01               0
GRID*               4189               02.8038752401E-019.0014759761E-01+
*       -1.446002694E-01               0
GRID*               4190               0-7.491337148E-011.3487733938E-01+
*       -1.943917131E-01               0
GRID*               4191               08.2627412905E-01-2.974209258E-03+
*       -1.143319435E-01               0
GRID*               4192               05.7186183179E-017.1458049640E-01+
*       3.2132661713E-01               0
GRID*               4193               0-5.304505941E-01-8.052344512E-01+
*       1.2937602007E+00               0
GRID*               4194               0-5.607469022E-01-7.956150999E-01+
*       1.2456272685E+00               0
GRID*               4195               0-5.929494571E-01-8.250823519E-01+
*       1.2621782130E+00               0
GRID*               4196               0-5.304505941E-01-7.586409129E-01+
*       1.3521864555E+00               0
GRID*               4197               0-5.304505941E-01-7.436287261E-01+
*       1.2820318394E+00               0
GRID*               4198               08.9558073263E-01-1.295189078E-01+
*       -6.316377109E-02               0
GRID*               4199               09.3161866724E-01-1.909859535E-01+
*       -1.304223033E-01               0
GRID*               4200               09.0977989000E-01-2.159234807E-01+
*       -6.725853226E-02               0
GRID*               4201               08.3680147999E-01-1.957761767E-01+
*       -6.526568179E-02               0
GRID*               4202               08.7283941460E-01-2.572432224E-01+
*       -1.325242140E-01               0
GRID*               4203               09.6987018476E-01-1.785336800E-01+
*       -1.881637711E-01               0
GRID*               4204               09.1663437535E-01-2.394339160E-01+
*       -1.922585323E-01               0
GRID*               4205               09.8406934213E-01-2.649382529E-01+
*       -1.922585323E-01               0
GRID*               4206               0-1.217302240E+00-1.920613191E-01+
*       -3.055797597E-02               0
GRID*               4207               0-1.186014171E+00-1.928862392E-01+
*       -6.155159275E-02               0
GRID*               4208               09.9812585903E-01-3.147941311E-02+
*       -6.436989821E-02               0
GRID*               4209               01.0703408368E+00-7.713482462E-02+
*       -5.922026400E-02               0
GRID*               4210               09.5837713912E-01-9.094516148E-02+
*       -6.316377109E-02               0
GRID*               4211               01.0293832076E+00-9.077104379E-02+
*       -1.223840351E-01               0
GRID*               4212               08.9627630392E-01-5.239335383E-02+
*       -6.316377109E-02               0
GRID*               4213               09.5688028643E-01-1.685538477E-01+
*       -6.316377109E-02               0
GRID*               4214               09.7107944379E-01-2.549584206E-01+
*       -6.725853226E-02               0
GRID*               4215               05.6746979527E-017.8355926819E-01+
*       1.0710506858E+00               0
GRID*               4216               06.2349489786E-017.8211701283E-01+
*       1.0046293452E+00               0
GRID*               4217               05.5602510259E-018.0340992202E-01+
*       9.9334840277E-01               0
GRID*               4218               05.3132505959E-018.4603199308E-01+
*       1.0396398454E+00               0
GRID*               4219               05.9879485486E-018.2473908389E-01+
*       1.0509207878E+00               0
GRID*               4220               05.8735016218E-018.4458973772E-01+
*       9.7321850475E-01               0
GRID*               4221               0-6.281816117E-01-8.464998949E-01+
*       1.1051772839E+00               0
GRID*               4222               0-5.656818454E-01-8.317399377E-01+
*       1.1389586120E+00               0
GRID*               4223               0-5.317413945E-01-8.847652307E-01+
*       1.1344709282E+00               0
GRID*               4224               0-5.942411608E-01-8.995251878E-01+
*       1.1006896001E+00               0
GRID*               4225               0-5.974232399E-01-8.155366544E-01+
*       1.0895459649E+00               0
GRID*               4226               06.8102510259E-017.6305594909E-01+
*       9.6176031872E-01               0
GRID*               4227               06.7964357190E-016.8077222234E-01+
*       9.9269694764E-01               0
GRID*               4228               06.9089199826E-017.3170846587E-01+
*       7.5748864419E-01               0
GRID*               4229               06.9089199826E-017.9340343530E-01+
*       8.0158867771E-01               0
GRID*               4230               06.8754316389E-018.6853589853E-01+
*       7.6626329330E-01               0
GRID*               4231               05.3083056946E-019.0121120656E-01+
*       8.0899579992E-01               0
GRID*               4232               05.8685567205E-018.6635818931E-01+
*       8.7368644343E-01               0
GRID*               4233               05.9337373335E-019.0248302813E-01+
*       7.7404953466E-01               0
GRID*               4234               05.5602510259E-017.8281858017E-01+
*       8.8190251956E-01               0
GRID*               4235               05.3130313910E-018.8035003062E-01+
*       9.4154664769E-01               0
GRID*               4236               05.8732824169E-018.5734923731E-01+
*       9.4015088524E-01               0
GRID*               4237               05.5602510259E-018.2496845997E-01+
*       9.2832282459E-01               0
GRID*               4238               05.3066699579E-018.8459681666E-01+
*       9.0805034168E-01               0
GRID*               4239               05.6197013488E-019.1697759400E-01+
*       9.1987840234E-01               0
GRID*               4240               05.8669209838E-018.6159602335E-01+
*       9.0665457923E-01               0
GRID*               4241               05.7960826404E-01-3.216813128E-02+
*       -5.654891959E-02               0
GRID*               4242               06.5375175348E-012.1584012428E-02+
*       -2.279807805E-02               0
GRID*               4243               06.4084186617E-01-5.071572461E-02+
*       6.2343422446E-02               0
GRID*               4244               0-5.620304199E-013.9471159158E-01+
*       5.2758233845E-02               0
GRID*               4245               0-6.349249810E-014.5980855765E-01+
*       -2.459427213E-02               0
GRID*               4246               0-6.534502628E-013.6994949717E-01+
*       -2.088444743E-02               0
GRID*               4247               0-6.870304199E-013.9471159158E-01+
*       5.2758233845E-02               0
GRID*               4248               0-6.870304199E-013.5287482946E-01+
*       1.2804643374E-01               0
GRID*               4249               0-6.940747713E-013.2165144141E-01+
*       3.7599968345E-02               0
GRID*               4250               0-6.311051912E-013.3174764837E-01+
*       9.0358202190E-02               0
GRID*               4251               0-6.940747713E-012.7981467930E-01+
*       1.1288816824E-01               0
GRID*               4252               0-7.179870000E-012.2932300479E-01+
*       3.9423122502E-01               0
GRID*               4253               0-6.554855383E-012.7481295756E-01+
*       4.2346549239E-01               0
GRID*               4254               0-7.258191743E-011.8680004284E-01+
*       3.9346557752E-01               0
GRID*               4255               0-6.938061743E-012.5826558717E-01+
*       3.8335649769E-01               0
GRID*               4256               0-6.633177127E-012.3228999561E-01+
*       4.2269984488E-01               0
GRID*               4257               0-5.525338497E-015.2442402834E-01+
*       1.1109821527E-01               0
GRID*               4258               0-5.620304199E-014.7163466850E-01+
*       5.2758233845E-02               0
GRID*               4259               0-5.620304199E-014.3597476756E-01+
*       1.2206597198E-01               0
GRID*               4260               0-6.145642695E-014.9325705932E-01+
*       9.4548710982E-02               0
GRID*               4261               0-7.189071483E-013.2287735876E-01+
*       4.9967202021E-01               0
GRID*               4262               0-7.189071483E-013.6378133527E-01+
*       4.4976318502E-01               0
GRID*               4263               0-7.279718018E-013.3361160909E-01+
*       5.2896485162E-01               0
GRID*               4264               0-6.968789502E-013.3681275648E-01+
*       4.8408031312E-01               0
GRID*               4265               0-7.279718018E-013.7451558560E-01+
*       4.7905601643E-01               0
GRID*               4266               0-7.164198429E-013.5985329021E-01+
*       -7.364268128E-02               0
GRID*               4267               0-6.604946142E-012.9688934700E-01+
*       -3.604271293E-02               0
GRID*               4268               06.8102510259E-018.3241105971E-01+
*       8.6590020207E-01               0
GRID*               4269               0-6.819509459E-011.5538550838E-01+
*       1.3506875491E+00               0
GRID*               4270               0-6.921560296E-012.6126807462E-01+
*       1.3309368360E+00               0
GRID*               4271               0-6.220380652E-011.8264755844E-01+
*       1.3052989742E+00               0
GRID*               4272               0-6.900871193E-012.4015290741E-01+
*       1.2623293661E+00               0
GRID*               4273               0-6.322431489E-012.8853012469E-01+
*       1.2855482610E+00               0
GRID*               4274               0-7.000075261E-01-6.148019745E-02+
*       1.3738806184E+00               0
GRID*               4275               0-7.000075261E-01-1.166997692E-01+
*       1.3782469738E+00               0
GRID*               4276               0-5.312736391E-01-3.231018316E-01+
*       1.6581490438E+00               0
GRID*               4277               0-5.314675290E-01-4.607859420E-01+
*       1.6002628796E+00               0
GRID*               4278               0-5.939674741E-01-4.924459460E-01+
*       1.5803698407E+00               0
GRID*               4279               0-5.939664865E-01-4.277249652E-01+
*       1.6177359307E+00               0
GRID*               4280               0-5.620304199E-013.4852756012E-01+
*       1.3807594257E-01               0
GRID*               4281               0-5.690747713E-013.2165144141E-01+
*       3.7599968345E-02               0
GRID*               4282               0-5.690747713E-012.7546740996E-01+
*       1.2291767707E-01               0
GRID*               4283               07.9636182417E-01-4.785291369E-01+
*       -7.804296395E-02               0
GRID*               4284               0-7.192529622E-01-3.921096578E-01+
*       6.1931316802E-01               0
GRID*               4285               0-7.192529622E-01-3.696447891E-01+
*       5.7012042405E-01               0
GRID*               4286               0-6.567537793E-01-3.921087158E-01+
*       6.1931008773E-01               0
GRID*               4287               07.8762266462E-01-4.706268518E-01+
*       -2.030429640E-01               0
GRID*               4288               0-6.849066319E-017.5973199148E-01+
*       6.0317525519E-01               0
GRID*               4289               0-6.849066319E-017.5369456382E-01+
*       6.7404220279E-01               0
GRID*               4290               0-6.841558635E-01-3.900250577E-01+
*       1.3220580375E+00               0
GRID*               4291               0-6.194733605E-01-3.266287750E-01+
*       1.3239817688E+00               0
GRID*               4292               0-6.162824511E-01-4.081573310E-01+
*       1.3618744649E+00               0
GRID*               4293               0-6.826713677E-01-2.991615006E-01+
*       1.2302755740E+00               0
GRID*               4294               0-6.841558635E-01-3.894047570E-01+
*       1.2498552005E+00               0
GRID*               4295               0-6.168272313E-01-3.252528968E-01+
*       1.2497296571E+00               0
GRID*               4296               0-6.841558635E-01-3.326666229E-01+
*       1.2851371692E+00               0
GRID*               4297               0-6.476147821E-014.8303080180E-01+
*       8.4076920572E-01               0
GRID*               4298               0-6.561375881E-013.9268902268E-01+
*       8.5189336418E-01               0
GRID*               4299               0-6.552957986E-013.8320817983E-01+
*       8.8442187897E-01               0
GRID*               4300               0-6.467729926E-014.7354995895E-01+
*       8.7329772051E-01               0
GRID*               4301               0-6.864317525E-014.1129313479E-01+
*       8.7925112788E-01               0
GRID*               4302               0-6.841558635E-01-3.837300647E-01+
*       1.1775124528E+00               0
GRID*               4303               0-5.603174970E-01-2.903629782E-01+
*       1.3216377191E+00               0
GRID*               4304               0-6.266797877E-01-5.464202216E-01+
*       1.4769308503E+00               0
GRID*               4305               0-6.213064301E-01-4.651695917E-01+
*       1.4160312115E+00               0
GRID*               4306               0-5.954295222E-01-5.406813349E-01+
*       1.4479588463E+00               0
GRID*               4307               0-5.883762673E-01-4.763302519E-01+
*       1.4863672811E+00               0
GRID*               4308               0-6.849066319E-016.8858552046E-01+
*       7.1737673130E-01               0
GRID*               4309               0-5.610268190E-01-5.850836351E-01+
*       3.7002026969E-01               0
GRID*               4310               0-5.610268190E-01-6.083482094E-01+
*       4.3528023012E-01               0
GRID*               4311               0-5.601296485E-01-4.955893218E-01+
*       4.2458584084E-01               0
GRID*               4312               0-5.601296485E-01-4.723247475E-01+
*       3.5932588041E-01               0
GRID*               4313               0-5.652302658E-016.7630539740E-01+
*       7.9308050773E-01               0
GRID*               4314               0-5.652302658E-017.3720654927E-01+
*       8.3534347329E-01               0
GRID*               4315               0-5.599066319E-016.8119713517E-01+
*       7.0529327725E-01               0
GRID*               4316               0-9.558557339E-01-5.916019279E-01+
*       -9.935161371E-02               0
GRID*               4317               0-9.588011151E-01-5.752807705E-01+
*       -7.955166502E-02               0
GRID*               4318               0-5.571265876E-01-4.725394472E-01+
*       1.4594587197E+00               0
GRID*               4319               0-5.571265876E-01-4.225874095E-01+
*       1.4119139859E+00               0
GRID*               4320               0-5.641798425E-01-4.869384925E-01+
*       1.3735055511E+00               0
GRID*               4321               0-5.641798425E-01-5.368905302E-01+
*       1.4210502849E+00               0
GRID*               4322               0-9.854368742E-01-6.153920509E-01+
*       -6.240295826E-02               0
GRID*               4323               0-9.920009325E-01-5.947810445E-01+
*       -4.106459405E-02               0
GRID*               4324               0-9.854368742E-01-6.153920509E-01+
*       -2.073629159E-02               0
GRID*               4325               0-9.925692172E-01-5.796817981E-01+
*       -9.935189584E-02               0
GRID*               4326               0-4.912187961E-01-5.871097120E-01+
*       -6.184384434E-02               0
GRID*               4327               0-5.349934653E-01-5.226676726E-01+
*       -2.015571324E-01               0
GRID*               4328               0-6.158575615E-01-5.147245965E-01+
*       -2.015571324E-01               0
GRID*               4329               0-6.264384301E-01-6.324888039E-01+
*       -1.984445248E-01               0
GRID*               4330               0-5.455743338E-01-6.404318800E-01+
*       -1.984445248E-01               0
GRID*               4331               0-6.159075985E-01-5.844475467E-01+
*       -1.500016572E-01               0
GRID*               4332               0-6.898792711E-01-5.224588896E-01+
*       -1.911142984E-01               0
GRID*               4333               0-6.899293081E-01-5.921818398E-01+
*       -1.395588232E-01               0
GRID*               4334               0-7.638593210E-01-7.614446042E-01+
*       -7.431259575E-02               0
GRID*               4335               0-8.521119636E-01-8.408459794E-01+
*       -1.159789662E-01               0
GRID*               4336               0-5.590440568E-01-6.416335927E-01+
*       3.1282337339E-01               0
GRID*               4337               0-5.590440568E-01-7.067141114E-01+
*       3.1733563665E-01               0
GRID*               4338               0-9.410043337E-01-8.749440150E-01+
*       -2.297860870E-02               0
GRID*               4339               0-9.042934361E-01-8.629992470E-01+
*       -6.464497913E-02               0
GRID*               4340               0-9.042956512E-01-8.630008795E-01+
*       -2.297860870E-02               0
GRID*               4341               0-7.665297843E-01-6.816199984E-01+
*       -1.894719089E-01               0
GRID*               4342               0-1.216617954E+008.4655658191E-01+
*       -5.105279950E-02               0
GRID*               4343               0-1.160727834E+008.4296021469E-01+
*       -7.171794833E-02               0
GRID*               4344               0-1.194109880E+008.4255747894E-01+
*       -2.066514882E-02               0
GRID*               4345               0-1.217616003E+008.3072087435E-01+
*       -2.182275011E-02               0
GRID*               4346               0-1.184233957E+008.3112361011E-01+
*       -7.287554962E-02               0
GRID*               4347               0-1.161725883E+008.2712450713E-01+
*       -4.248789894E-02               0
GRID*               4348               05.6745356295E-01-7.972100485E-01+
*       1.3933992815E-02               0
GRID*               4349               06.3528956512E-01-7.709795041E-01+
*       9.2325565956E-02               0
GRID*               4350               05.6783600216E-01-8.199233017E-01+
*       7.8391573142E-02               0
GRID*               4351               05.3085177160E-01-8.828612570E-01+
*       1.8293684557E-02               0
GRID*               4352               05.9830533455E-01-8.339174593E-01+
*       3.2227677371E-02               0
GRID*               4353               05.9868777376E-01-8.566307125E-01+
*       9.6685257699E-02               0
GRID*               4354               01.1743052227E+002.2782700407E-01+
*       -1.924505524E-01               0
GRID*               4355               01.1179767451E+001.8677013818E-01+
*       -1.924505524E-01               0
GRID*               4356               01.2215730679E+001.9091990889E-01+
*       -2.188568031E-01               0
GRID*               4357               01.1458782907E+001.8797768220E-01+
*       -1.613073555E-01               0
GRID*               4358               01.1652445903E+001.4986304300E-01+
*       -2.188568031E-01               0
GRID*               4359               01.2065839910E+003.4522540545E-01+
*       -1.133204191E-01               0
GRID*               4360               01.2065839910E+004.2214848237E-01+
*       -1.133204191E-01               0
GRID*               4361               06.9283600216E-01-8.199233017E-01+
*       7.8391573142E-02               0
GRID*               4362               06.9245356295E-01-7.972100485E-01+
*       1.3933992815E-02               0
GRID*               4363               07.1818736429E-01-8.825293086E-01+
*       1.8233414058E-02               0
GRID*               4364               06.6102336646E-01-8.562987642E-01+
*       9.6624987200E-02               0
GRID*               4365               06.6064092724E-01-8.335855110E-01+
*       3.2167406873E-02               0
GRID*               4366               06.3003431381E-01-8.968463786E-01+
*       1.9062003989E-01               0
GRID*               4367               06.2863819023E-01-8.968463786E-01+
*       1.1450370792E-01               0
GRID*               4368               05.9184925713E-01-9.682479581E-01+
*       1.0634189576E-01               0
GRID*               4369               05.9324538072E-01-9.682479581E-01+
*       1.8245822774E-01               0
GRID*               4370               05.9888307124E-01-8.650943368E-01+
*       1.4862133413E-01               0
GRID*               4371               05.6783600216E-01-7.661624518E-01+
*       1.5016881937E-01               0
GRID*               4372               05.6745356295E-01-7.434491986E-01+
*       8.5711239043E-02               0
GRID*               4373               06.1591907880E-01-7.854171397E-01+
*       2.3641771937E-01               0
GRID*               4374               06.5616549069E-01-9.617798809E-01+
*       2.2861457641E-01               0
GRID*               4375               06.6180318121E-01-8.586262596E-01+
*       1.9477768280E-01               0
GRID*               4376               06.4205025569E-01-8.503506420E-01+
*       2.7441225589E-01               0
GRID*               4377               06.9245356295E-01-7.579710370E-01+
*       7.1973683440E-02               0
GRID*               4378               02.2359181464E-02-2.431449588E-01+
*       -1.740579789E-01               0
GRID*               4379               0-1.522010168E-02-2.609670710E-01+
*       -1.172938210E-01               0
GRID*               4380               03.7189142692E-02-3.270691986E-01+
*       -1.869015973E-01               0
GRID*               4381               05.0656109373E-02-2.354322908E-01+
*       -1.109595762E-01               0
GRID*               4382               0-3.901404539E-04-3.448913108E-01+
*       -1.301374393E-01               0
GRID*               4383               01.1111750867E+00-3.462859403E-01+
*       -6.862498776E-02               0
GRID*               4384               01.1142853239E+00-2.622374233E-01+
*       -5.687137771E-02               0
GRID*               4385               01.1533307157E+00-3.095404826E-01+
*       -3.134065940E-02               0
GRID*               4386               01.1429609156E+00-3.450917986E-01+
*       -9.996564716E-02               0
GRID*               4387               01.1460711528E+00-2.610432816E-01+
*       -8.821203711E-02               0
GRID*               4388               01.0181476129E-01-1.179006396E-01+
*       -1.740579789E-01               0
GRID*               4389               09.0135430779E-02-9.814032871E-02+
*       -1.123729898E-01               0
GRID*               4390               01.1079535666E+00-4.312652171E-01+
*       -6.862498776E-02               0
GRID*               4391               01.1754026433E+00-3.832263204E-01+
*       -6.862498776E-02               0
GRID*               4392               01.2166584879E+00-4.286504255E-01+
*       -3.201670882E-02               0
GRID*               4393               01.1492094112E+00-4.766893222E-01+
*       -3.201670882E-02               0
GRID*               4394               01.1420611313E+00-4.272613613E-01+
*       -1.006416966E-01               0
GRID*               4395               0-6.860268190E-01-6.508140995E-01+
*       4.4706438465E-01               0
GRID*               4396               08.4474728406E-013.8453183559E-01+
*       -1.817763856E-01               0
GRID*               4397               08.6312900719E-016.3082375434E-01+
*       -9.693303611E-02               0
GRID*               4398               08.6431255750E-015.7453276890E-01+
*       -1.211075696E-01               0
GRID*               4399               09.0747458834E-016.4354196345E-01+
*       -6.339381759E-02               0
GRID*               4400               08.4405938059E-016.2550488292E-01+
*       -7.699323075E-02               0
GRID*               4401               09.0865813864E-015.8725097802E-01+
*       -8.756835105E-02               0
GRID*               4402               0-7.187472416E-019.7171342981E-01+
*       3.3921999953E-01               0
GRID*               4403               0-5.569509459E-011.2520037049E-01+
*       1.3764962345E+00               0
GRID*               4404               0-6.124481398E-011.2901610022E-01+
*       1.1480785176E+00               0
GRID*               4405               0-6.150360284E-011.8379219062E-01+
*       1.2087204890E+00               0
GRID*               4406               0-6.275863500E-012.1263886707E-01+
*       1.1562988197E+00               0
GRID*               4407               0-6.560432000E-011.5044118989E-01+
*       1.1249636201E+00               0
GRID*               4408               0-6.434928784E-011.2159451345E-01+
*       1.1773852894E+00               0
GRID*               4409               0-6.586310886E-012.0521728030E-01+
*       1.1856055915E+00               0
GRID*               4410               09.7282833607E-01-6.084240180E-01+
*       -2.289580793E-01               0
GRID*               4411               09.9156416740E-01-5.906423529E-01+
*       -2.279601080E-01               0
GRID*               4412               0-6.555282463E-011.7928866264E-01+
*       1.1139407829E+00               0
GRID*               4413               0-6.865729849E-011.7186707587E-01+
*       1.1432475546E+00               0
GRID*               4414               0-6.581161349E-012.3406475304E-01+
*       1.1745827543E+00               0
GRID*               4415               05.5778592889E-01-5.076766911E-01+
*       1.4182157690E+00               0
GRID*               4416               06.1351651443E-01-4.677709637E-01+
*       1.4188104346E+00               0
GRID*               4417               05.5573058555E-01-4.511811009E-01+
*       1.4534585129E+00               0
GRID*               4418               05.3091144835E-01-5.087963017E-01+
*       1.4831773979E+00               0
GRID*               4419               05.8869737724E-01-5.253861645E-01+
*       1.4485293196E+00               0
GRID*               4420               05.8664203390E-01-4.688905743E-01+
*       1.4837720635E+00               0
GRID*               4421               07.1850109411E-01-5.259258431E-01+
*       1.5673100748E+00               0
GRID*               4422               06.5600114894E-01-5.575858472E-01+
*       1.5474170359E+00               0
GRID*               4423               07.1796538694E-01-4.914879654E-01+
*       1.5821519018E+00               0
GRID*               4424               06.8646648105E-01-5.174140480E-01+
*       1.5334369748E+00               0
GRID*               4425               06.5546544178E-01-5.231479694E-01+
*       1.5622588628E+00               0
GRID*               4426               0-6.900871193E-011.9711140774E-01+
*       1.2142024111E+00               0
GRID*               4427               0-6.749489091E-011.1348864089E-01+
*       1.2059821090E+00               0
GRID*               4428               0-6.749489091E-011.5653014056E-01+
*       1.2541090639E+00               0
GRID*               4429               0-5.650871193E-011.9798209915E-01+
*       1.2251371059E+00               0
GRID*               4430               07.1873471907E-01-3.146460099E-01+
*       1.0123341023E+00               0
GRID*               4431               06.5623618073E-01-2.792265963E-01+
*       1.0532079688E+00               0
GRID*               4432               06.5623448118E-01-3.146464415E-01+
*       1.0123332897E+00               0
GRID*               4433               0-1.082829166E+00-9.732420907E-01+
*       -3.160122345E-02               0
GRID*               4434               0-1.061956658E+00-9.419989581E-01+
*       -5.356175675E-02               0
GRID*               4435               0-1.062460825E+00-9.687568674E-01+
*       -2.196053330E-02               0
GRID*               4436               0-1.050542395E+00-9.858085353E-01+
*       -2.310506291E-02               0
GRID*               4437               0-1.050038227E+00-9.590506260E-01+
*       -5.470628637E-02               0
GRID*               4438               0-1.029669886E+00-9.545654028E-01+
*       -4.506559622E-02               0
GRID*               4439               05.9473152264E-01-4.193990973E-01+
*       1.0081925435E+00               0
GRID*               4440               06.2656791307E-01-3.858580400E-01+
*       1.0021477056E+00               0
GRID*               4441               05.9572369611E-01-3.945173105E-01+
*       1.0339731749E+00               0
GRID*               4442               06.3547502464E-01-5.931546002E-01+
*       1.0776916846E+00               0
GRID*               4443               05.6406815097E-01-5.260072980E-01+
*       1.0571343875E+00               0
GRID*               4444               06.3531640535E-01-4.990887390E-01+
*       1.1089739116E+00               0
GRID*               4445               06.2829492122E-01-5.461048790E-01+
*       1.0175713620E+00               0
GRID*               4446               0-5.615647632E-01-3.402036597E-02+
*       1.2497006149E+00               0
GRID*               4447               0-5.499489091E-014.6371218742E-02+
*       1.2156584008E+00               0
GRID*               4448               0-5.499489091E-017.7124487555E-02+
*       1.1633157137E+00               0
GRID*               4449               0-6.124502040E-017.7119422629E-02+
*       1.1633162059E+00               0
GRID*               4450               0-5.319610770E-013.8179751884E-02+
*       1.1525037894E+00               0
GRID*               4451               0-5.819099861E-016.1224688097E-02+
*       1.1896882625E+00               0
GRID*               4452               0-5.944623720E-013.8174686959E-02+
*       1.1525042815E+00               0
GRID*               4453               06.2656961262E-01-3.504381948E-01+
*       1.0430223848E+00               0
GRID*               4454               05.9415700680E-01-2.929164875E-01+
*       1.0281419707E+00               0
GRID*               4455               0-6.865647632E-011.2347593560E-02+
*       1.3017063946E+00               0
GRID*               4456               0-6.865647632E-01-2.659337532E-02+
*       1.2497006148E+00               0
GRID*               4457               0-6.749489091E-015.3798209396E-02+
*       1.2156584008E+00               0
GRID*               4458               0-6.749489091E-019.2739178272E-02+
*       1.2676641806E+00               0
GRID*               4459               0-6.240660581E-01-3.272162083E-03+
*       1.1973584200E+00               0
GRID*               4460               0-6.561658073E-014.1994145086E-02+
*       1.1524787966E+00               0
GRID*               4461               0-6.552292756E-01-1.534743849E-02+
*       1.2237049915E+00               0
GRID*               4462               0-6.436134215E-016.5044146224E-02+
*       1.1896627775E+00               0
GRID*               4463               0-7.191134990E-01-3.959440596E-01+
*       6.5584075450E-01               0
GRID*               4464               0-6.883664612E-01-4.234477624E-01+
*       6.3221186621E-01               0
GRID*               4465               0-6.566143161E-01-3.959431176E-01+
*       6.5583767421E-01               0
GRID*               4466               07.1873471907E-01-2.792310498E-01+
*       1.0532043218E+00               0
GRID*               4467               0-5.655363469E-01-1.784505553E-01+
*       2.5859319107E-01               0
GRID*               4468               0-5.655363469E-01-2.199384022E-01+
*       1.8924933640E-01               0
GRID*               4469               0-5.649546040E-01-2.941359461E-01+
*       2.2797533040E-01               0
GRID*               4470               0-6.304909509E-01-2.546203323E-01+
*       1.9730441032E-01               0
GRID*               4471               0-5.649546040E-01-3.356237930E-01+
*       1.5863147572E-01               0
GRID*               4472               08.5555045956E-01-8.710366284E-01+
*       -1.080891749E-01               0
GRID*               4473               08.7521398925E-01-8.596884217E-01+
*       -1.269164154E-01               0
GRID*               4474               09.1090780558E-01-8.870501039E-01+
*       -9.545092869E-02               0
GRID*               4475               08.9124427589E-01-8.983983106E-01+
*       -7.662368816E-02               0
GRID*               4476               08.5957757199E-01-8.955993662E-01+
*       -1.390337212E-01               0
GRID*               4477               0-6.878657242E-01-6.048070440E-01+
*       3.8127546717E-02               0
GRID*               4478               0-6.812674370E-01-5.428639208E-01+
*       7.3709940155E-02               0
GRID*               4479               0-1.639391701E-014.4442742643E-01+
*       -1.845585398E-01               0
GRID*               4480               0-2.176658924E-013.2444543642E-01+
*       -1.849142024E-01               0
GRID*               4481               0-1.972354836E-014.6171835408E-01+
*       -5.955853985E-02               0
GRID*               4482               0-1.354992747E-014.9934960708E-01+
*       -5.955853985E-02               0
GRID*               4483               0-1.096833314E-013.9735711091E-01+
*       -7.125028367E-02               0
GRID*               4484               0-1.714195402E-013.5972585792E-01+
*       -7.125028367E-02               0
GRID*               4485               0-1.178973877E-014.3873516837E-01+
*       -1.308088235E-01               0
GRID*               4486               0-7.899146449E-027.6476926595E-01+
*       -5.878256863E-02               0
GRID*               4487               0-3.554864736E-027.6944296777E-01+
*       -1.300479074E-01               0
GRID*               4488               0-4.894918215E-024.3500696588E-01+
*       -7.125028367E-02               0
GRID*               4489               0-6.851296485E-01-4.114469370E-01+
*       4.0872359737E-01               0
GRID*               4490               0-1.978329759E-015.3724606593E-01+
*       -5.955853985E-02               0
GRID*               4491               0-2.859211365E-015.4453815850E-01+
*       -5.857497231E-02               0
GRID*               4492               0-2.297919668E-015.8663435754E-01+
*       -1.845585398E-01               0
GRID*               4493               0-2.246453615E-016.6648805386E-01+
*       -1.837825686E-01               0
GRID*               4494               05.3050081651E-01-3.884888047E-01+
*       8.8580520307E-01               0
GRID*               4495               05.3050081651E-01-3.961858280E-01+
*       8.3227622595E-01               0
GRID*               4496               05.9300163360E-01-3.884878626E-01+
*       8.8580828335E-01               0
GRID*               4497               05.3184651497E-01-4.059065909E-01+
*       7.6941125073E-01               0
GRID*               4498               05.9434651497E-01-4.059065909E-01+
*       7.6941125073E-01               0
GRID*               4499               05.9434733206E-01-3.982086255E-01+
*       8.2294330813E-01               0
GRID*               4500               06.3175363059E-027.8595786807E-01+
*       -1.962653388E-01               0
GRID*               4501               0-1.132549691E-027.8999283458E-01+
*       -1.962653388E-01               0
GRID*               4502               05.3132505959E-019.2139205485E-01+
*       1.0321324815E+00               0
GRID*               4503               05.3132505959E-018.6759053103E-01+
*       9.7461426720E-01               0
GRID*               4504               05.6746979527E-018.3161743648E-01+
*       1.1331076018E+00               0
GRID*               4505               05.3070645963E-018.8492205426E-01+
*       1.1353862085E+00               0
GRID*               4506               05.9817625490E-018.1557097677E-01+
*       1.0846102349E+00               0
GRID*               4507               05.3070645963E-018.3686388596E-01+
*       1.0733292925E+00               0
GRID*               4508               0-8.451854929E-029.4153834741E-01+
*       -1.853678561E-01               0
GRID*               4509               0-5.670572127E-019.3689828717E-01+
*       4.3238421969E-01               0
GRID*               4510               0-6.295280298E-019.3689828717E-01+
*       4.6866688123E-01               0
GRID*               4511               0-6.564646623E-019.6968821488E-01+
*       2.6593234291E-01               0
GRID*               4512               0-6.884489782E-019.3167525730E-01+
*       2.7009560738E-01               0
GRID*               4513               0-6.613233132E-019.0658650204E-01+
*       3.6108709964E-01               0
GRID*               4514               0-6.559458034E-019.7171342981E-01+
*       3.0144946249E-01               0
GRID*               4515               0-1.858418782E-019.0522802095E-01+
*       -2.185099143E-01               0
GRID*               4516               0-1.575672188E-019.0996680539E-01+
*       -1.538777704E-01               0
GRID*               4517               0-1.838609681E-019.3761547575E-01+
*       -1.879630469E-01               0
GRID*               4518               0-1.218014362E-019.1072536518E-01+
*       -1.548209888E-01               0
GRID*               4519               04.1476178812E-025.2661345391E-01+
*       -5.696347214E-02               0
GRID*               4520               07.0147436055E-013.7239669021E-02+
*       1.7627410997E-01               0
GRID*               4521               06.8454232253E-018.8346834263E-02+
*       2.4486329447E-01               0
GRID*               4522               06.8454232253E-011.3780399385E-01+
*       1.8435168140E-01               0
GRID*               4523               06.3601668309E-014.9112090181E-02+
*       2.1723026085E-01               0
GRID*               4524               06.9914348943E-017.0205048340E-03+
*       1.0226609319E-01               0
GRID*               4525               06.5061784998E-01-1.043551208E-02+
*       1.3832718625E-01               0
GRID*               4526               06.9914348943E-017.8256391591E-02+
*       1.0544860679E-01               0
GRID*               4527               06.8454232253E-012.2096186836E-01+
*       1.9797162487E-01               0
GRID*               4528               06.7521445416E-012.6663760794E-01+
*       1.2735920609E-01               0
GRID*               4529               06.0975677669E-011.9535215459E-01+
*       1.5469541350E-01               0
GRID*               4530               02.0053327963E-016.0555116785E-01+
*       -5.121972775E-02               0
GRID*               4531               01.3595254392E-016.4327784118E-01+
*       -5.121972775E-02               0
GRID*               4532               02.0099007947E-016.8309174987E-01+
*       -5.121972775E-02               0
GRID*               4533               03.3835284260E-014.8054752421E-01+
*       -1.794320570E-01               0
GRID*               4534               0-2.716364096E-01-7.232837218E-01+
*       -7.172773914E-02               0
GRID*               4535               0-1.708392735E-01-9.637514071E-01+
*       -9.492424648E-02               0
GRID*               4536               0-2.055085831E-01-9.637514071E-01+
*       -3.245045210E-02               0
GRID*               4537               0-1.663029819E-01-9.762217211E-01+
*       -3.193570081E-02               0
GRID*               4538               0-1.316336723E-01-9.762217211E-01+
*       -9.440949519E-02               0
GRID*               4539               0-1.575258508E-01-9.399731282E-01+
*       -6.438615292E-02               0
GRID*               4540               05.7414348943E-019.3394065767E-02+
*       1.0455750820E-01               0
GRID*               4541               05.5954232253E-018.3108306124E-02+
*       1.8116916760E-01               0
GRID*               4542               06.3368581196E-019.0128812750E-02+
*       1.4640475768E-01               0
GRID*               4543               05.5954232253E-011.5294166802E-01+
*       1.8346058280E-01               0
GRID*               4544               0-6.226294106E-01-3.849129037E-01+
*       4.6744041614E-01               0
GRID*               4545               0-6.516105296E-01-4.232757114E-01+
*       4.6671384369E-01               0
GRID*               4546               0-6.539806432E-01-3.580398885E-01+
*       5.4383162115E-01               0
GRID*               4547               0-6.561402411E-01-3.328606449E-01+
*       5.1500634661E-01               0
GRID*               4548               0-6.537701275E-01-3.980964678E-01+
*       4.3788856915E-01               0
GRID*               4549               0-6.851213601E-01-3.712234526E-01+
*       5.1427977417E-01               0
GRID*               4550               05.5021445416E-011.9861740761E-01+
*       1.1284816403E-01               0
GRID*               4551               08.5975275293E-01-7.206606515E-01+
*       -2.285129323E-01               0
GRID*               4552               0-6.825369437E-014.0158343758E-02+
*       2.3860688158E-01               0
GRID*               4553               0-6.825369437E-014.3709664213E-04+
*       1.7268878993E-01               0
GRID*               4554               0-6.928179269E-017.5124256552E-02+
*       1.7224173120E-01               0
GRID*               4555               0-6.928179269E-011.1484550367E-01+
*       2.3815982285E-01               0
GRID*               4556               0-6.253548705E-015.9021155953E-02+
*       2.0790001820E-01               0
GRID*               4557               07.1397680849E-01-7.478773914E-01+
*       -1.798123170E-01               0
GRID*               4558               0-5.575369437E-015.5132784365E-02+
*       1.7587130372E-01               0
GRID*               4559               0-5.575369437E-015.6756247816E-03+
*       2.3638291680E-01               0
GRID*               4560               0-5.678179269E-018.0362784692E-02+
*       2.3593585807E-01               0
GRID*               4561               0-5.678179269E-011.2981994428E-01+
*       1.7542424499E-01               0
GRID*               4562               07.0590625250E-01-8.641209128E-01+
*       -3.264694736E-02               0
GRID*               4563               0-5.690747713E-011.9230953545E-01+
*       1.0929773360E-01               0
GRID*               4564               0-6.368926981E-011.9619790704E-01+
*       1.4132644808E-01               0
GRID*               4565               0-6.928179269E-011.4495761845E-01+
*       1.7453314640E-01               0
GRID*               4566               0-6.381136385E-011.1658852714E-01+
*       1.4221651811E-01               0
GRID*               4567               0-6.940747713E-012.0744720962E-01+
*       1.0840663501E-01               0
GRID*               4568               0-6.393704829E-011.7907811831E-01+
*       7.6090006714E-02               0
GRID*               4569               08.4399704202E-01-9.341188420E-01+
*       -1.507464907E-01               0
GRID*               4570               08.4854592392E-01-9.104604895E-01+
*       -1.813543859E-01               0
GRID*               4571               0-5.784982103E-015.0434971144E-02+
*       -6.548906291E-02               0
GRID*               4572               0-5.439005767E-011.2368630780E-01+
*       -7.108930897E-02               0
GRID*               4573               0-4.666101055E-016.6192657134E-02+
*       -5.531224116E-02               0
GRID*               4574               0-6.815133211E-01-8.034161832E-01+
*       4.9215433562E-01               0
GRID*               4575               0-6.175401401E-01-7.676126736E-01+
*       4.1293447882E-01               0
GRID*               4576               0-6.860268190E-01-7.114700114E-01+
*       4.9093127405E-01               0
GRID*               4577               0-6.218694271E-01-8.036806411E-01+
*       5.1901472927E-01               0
GRID*               4578               0-6.362711865E-01-8.977081702E-01+
*       2.6918771827E-01               0
GRID*               4579               0-6.165352304E-01-9.062016570E-01+
*       1.8598829073E-01               0
GRID*               4580               0-6.559193945E-01-9.669190195E-01+
*       2.2108200431E-01               0
GRID*               4581               0-6.678879781E-01-8.646271897E-01+
*       2.6572047425E-01               0
GRID*               4582               0-6.481520220E-01-8.731206765E-01+
*       1.8252104671E-01               0
GRID*               4583               0-6.552926925E-011.6320248346E-01+
*       -1.404810221E-01               0
GRID*               4584               0-6.898903261E-018.9951146799E-02+
*       -1.348807761E-01               0
GRID*               4585               0-6.487939219E-016.1707801890E-02+
*       -2.699902455E-02               0
GRID*               4586               0-6.141962883E-011.3495913855E-01+
*       -3.259927060E-02               0
GRID*               4587               0-6.816878275E-011.2771208333E-01+
*       -3.090167477E-02               0
GRID*               4588               0-6.459161711E-012.0266989787E-01+
*       -1.960893090E-01               0
GRID*               4589               0-6.353204196E-012.5277036724E-01+
*       -1.447319902E-01               0
GRID*               4590               0-6.934354374E-012.8499072643E-01+
*       -1.986426813E-01               0
GRID*               4591               0-7.134077103E-011.9542284265E-01+
*       -1.943917131E-01               0
GRID*               4592               0-7.028119588E-012.4552331202E-01+
*       -1.430343944E-01               0
GRID*               4593               0-5.235959673E-01-1.702216408E-01+
*       1.1102687339E+00               0
GRID*               4594               0-5.235959673E-01-2.157160523E-01+
*       1.0810308276E+00               0
GRID*               4595               0-5.235959673E-01-2.125903868E-01+
*       1.1472691421E+00               0
GRID*               4596               0-1.026916410E-01-8.469637085E-01+
*       -1.989276164E-01               0
GRID*               4597               0-4.243448681E-011.4009554133E-01+
*       -1.803122412E-01               0
GRID*               4598               06.3433483918E-01-7.336509429E-01+
*       2.2382198010E-01               0
GRID*               4599               06.7308307664E-01-7.377666012E-01+
*       2.7668766367E-01               0
GRID*               4600               06.1458191365E-01-7.253753254E-01+
*       3.0345655319E-01               0
GRID*               4601               0-3.461177068E-02-6.849994535E-01+
*       -1.879755907E-01               0
GRID*               4602               02.3831334320E-02-7.063984624E-01+
*       -1.834474671E-01               0
GRID*               4603               0-5.259575219E-02-7.190567868E-01+
*       -1.870408921E-01               0
GRID*               4604               0-4.387296088E-02-7.684568907E-01+
*       -1.359685084E-01               0
GRID*               4605               04.5256628354E-02-6.947882930E-01+
*       -1.204883591E-01               0
GRID*               4606               0-3.080457063E-01-5.325650444E-01+
*       -6.731608787E-02               0
GRID*               4607               0-2.383980542E-01-5.266405134E-01+
*       -1.237491957E-01               0
GRID*               4608               0-1.774307221E-01-5.296402103E-01+
*       -5.643310787E-02               0
GRID*               4609               0-2.060205720E-01-6.032007484E-01+
*       -5.190440938E-02               0
GRID*               4610               0-2.669879042E-01-6.002010516E-01+
*       -1.192204972E-01               0
GRID*               4611               07.1889441708E-01-9.707894688E-01+
*       4.8564022034E-01               0
GRID*               4612               06.5563553733E-01-8.978744866E-01+
*       4.7053027359E-01               0
GRID*               4613               0-6.860268190E-01-7.151599823E-01+
*       4.1867928719E-01               0
GRID*               4614               05.9276883547E-01-9.659974818E-01+
*       2.2101923310E-01               0
GRID*               4615               05.7865360047E-01-8.545682429E-01+
*       2.6681691258E-01               0
GRID*               4616               05.9840652599E-01-8.628438604E-01+
*       1.8718233949E-01               0
GRID*               4617               05.6649883701E-01-6.596727952E-01+
*       3.1663270556E-01               0
GRID*               4618               05.6277956934E-01-6.553187747E-01+
*       3.7646664257E-01               0
GRID*               4619               05.4808307664E-01-7.114389919E-01+
*       3.2922844483E-01               0
GRID*               4620               0-1.059004668E+00-8.882406517E-01+
*       -1.361394460E-01               0
GRID*               4621               0-1.022240592E+00-9.001708382E-01+
*       -1.361393388E-01               0
GRID*               4622               06.8777956934E-01-6.439030681E-01+
*       3.7907475259E-01               0
GRID*               4623               0-9.767860206E-01-8.737880814E-01+
*       -1.866996192E-01               0
GRID*               4624               0-9.989799628E-01-9.114124165E-01+
*       -1.781974097E-01               0
GRID*               4625               0-1.013492575E+00-8.857296597E-01+
*       -1.866993355E-01               0
GRID*               4626               0-1.155988422E+00-9.387925168E-01+
*       -1.369695189E-01               0
GRID*               4627               0-1.136384975E+00-9.009725318E-01+
*       -1.466244877E-01               0
GRID*               4628               0-1.154071681E+00-9.131781723E-01+
*       -1.668157887E-01               0
GRID*               4629               0-1.223513036E+00-9.517553870E-01+
*       -2.191695020E-01               0
GRID*               4630               0-1.168770676E+00-9.018021936E-01+
*       -2.191695020E-01               0
GRID*               4631               0-1.223513036E+00-8.748323100E-01+
*       -2.191695020E-01               0
GRID*               4632               0-3.077002882E-01-2.948658586E-01+
*       -6.976193167E-02               0
GRID*               4633               0-3.072446335E-01-3.712729850E-01+
*       -6.976193167E-02               0
GRID*               4634               0-5.713017926E-017.6587127671E-01+
*       1.4670781513E-01               0
GRID*               4635               0-6.242002243E-017.3213903494E-01+
*       2.2055252429E-01               0
GRID*               4636               0-5.528984316E-017.0489990396E-01+
*       2.1739920069E-01               0
GRID*               4637               0-5.583229189E-017.5656657232E-01+
*       2.3187466700E-01               0
GRID*               4638               0-6.296247115E-017.8380570330E-01+
*       2.3502799060E-01               0
GRID*               4639               0-5.713017926E-018.3180588932E-01+
*       1.8030705689E-01               0
GRID*               4640               0-6.963017926E-017.4575104351E-01+
*       1.9359208579E-01               0
GRID*               4641               0-6.963017926E-018.2399009758E-01+
*       1.9271992538E-01               0
GRID*               4642               0-7.476512547E-025.3699946204E-01+
*       -5.955853985E-02               0
GRID*               4643               0-7.768838654E-026.1170750380E-01+
*       -5.955853985E-02               0
GRID*               4644               0-2.747202672E-025.3034165640E-01+
*       -1.165220120E-01               0
GRID*               4645               03.8552917737E-026.0132149566E-01+
*       -5.696347214E-02               0
GRID*               4646               0-5.525338497E-016.6016923292E-01+
*       1.1356772290E-01               0
GRID*               4647               0-6.054322813E-016.2643699115E-01+
*       1.8741243206E-01               0
GRID*               4648               0-6.238356423E-016.8740836390E-01+
*       1.1672104651E-01               0
GRID*               4649               0-5.653561060E-01-6.805339865E-01+
*       6.1698603863E-01               0
GRID*               4650               0-6.304789941E-01-6.539987242E-01+
*       6.5670904775E-01               0
GRID*               4651               0-5.651228880E-01-5.867302739E-01+
*       6.4982316823E-01               0
GRID*               4652               0-5.546854036E-01-6.231859970E-01+
*       5.7122845297E-01               0
GRID*               4653               0-6.778984316E-015.8283421406E-01+
*       3.0978651388E-01               0
GRID*               4654               0-6.796749241E-015.8654042474E-01+
*       3.7473511195E-01               0
GRID*               4655               0-5.528984316E-017.1485972469E-01+
*       2.8843147918E-01               0
GRID*               4656               0-1.499260730E-026.2384332238E-01+
*       -1.879887630E-01               0
GRID*               4657               02.5617859726E-026.8816279131E-01+
*       -1.879887630E-01               0
GRID*               4658               0-7.310615069E-026.7164789101E-01+
*       -1.217713317E-01               0
GRID*               4659               0-1.034682289E+00-3.647009463E-01+
*       -1.902193871E-01               0
GRID*               4660               0-1.088533165E+00-3.123916584E-01+
*       -1.902193871E-01               0
GRID*               4661               0-1.101089709E+00-4.184832349E-01+
*       -1.811281965E-01               0
GRID*               4662               0-1.068964415E+00-3.865127074E-01+
*       -1.213475835E-01               0
GRID*               4663               09.9537153995E-01-3.402396636E-01+
*       -1.922585323E-01               0
GRID*               4664               09.1428116096E-01-3.347357394E-01+
*       -1.265756712E-01               0
GRID*               4665               09.6383487631E-01-3.975848765E-01+
*       -1.843171389E-01               0
GRID*               4666               01.0728652710E+00-3.924630285E-01+
*       -1.936249878E-01               0
GRID*               4667               01.0233115556E+00-3.296138913E-01+
*       -1.358835200E-01               0
GRID*               4668               09.9177489198E-01-3.869591043E-01+
*       -1.279421267E-01               0
GRID*               4669               0-1.027772127E+00-1.025668517E-01+
*       -6.384096535E-02               0
GRID*               4670               0-1.040149657E+00-6.185615827E-02+
*       -1.207375238E-01               0
GRID*               4671               0-9.655186902E-01-1.411463834E-01+
*       -6.384096535E-02               0
GRID*               4672               0-9.856269565E-01-1.849688364E-01+
*       -1.203460998E-01               0
GRID*               4673               0-1.029268979E+00-1.801755379E-01+
*       -6.384096535E-02               0
GRID*               4674               0-5.553385352E-016.2860768281E-01+
*       1.3388518076E+00               0
GRID*               4675               0-5.553385352E-015.6565099794E-01+
*       1.3048525001E+00               0
GRID*               4676               0-5.561887235E-015.0509265374E-01+
*       1.3401896348E+00               0
GRID*               4677               0-5.561887235E-015.6804933860E-01+
*       1.3741889422E+00               0
GRID*               4678               0-6.115272587E-015.8498469173E-01+
*       1.3460246971E+00               0
GRID*               4679               0-6.811887235E-015.0301167369E-01+
*       1.3033662455E+00               0
GRID*               4680               0-6.811887235E-014.8439133020E-01+
*       1.3753750778E+00               0
GRID*               4681               0-6.764890288E-014.3314677828E-01+
*       1.3101353763E+00               0
GRID*               4682               0-6.764890288E-014.5176712177E-01+
*       1.2381265441E+00               0
GRID*               4683               0-6.076777523E-014.7318179560E-01+
*       1.3161221304E+00               0
GRID*               4684               0-6.178378985E-016.6285918056E-01+
*       1.3968682851E+00               0
GRID*               4685               0-6.186880867E-016.0230083635E-01+
*       1.4322054198E+00               0
GRID*               4686               0-6.561514808E-016.5578805786E-01+
*       1.4439692286E+00               0
GRID*               4687               0-6.489906528E-016.3847191323E-01+
*       1.3577885060E+00               0
GRID*               4688               0-6.498408411E-015.7791356903E-01+
*       1.3931256407E+00               0
GRID*               4689               0-6.231226113E-014.8341458223E-01+
*       1.5138364797E+00               0
GRID*               4690               0-6.168112800E-014.6396787174E-01+
*       1.4163979336E+00               0
GRID*               4691               0-6.186887783E-015.4387305802E-01+
*       1.4788003779E+00               0
GRID*               4692               0-5.935046561E-015.4484899993E-01+
*       1.5447375193E+00               0
GRID*               4693               0-5.916271577E-014.6494381365E-01+
*       1.4823350751E+00               0
GRID*               4694               0-5.871933248E-015.2540228944E-01+
*       1.4472989732E+00               0
GRID*               4695               0-5.650871193E-012.0996776952E-01+
*       1.2881380515E+00               0
GRID*               4696               0-5.671560296E-012.3108293674E-01+
*       1.3567455214E+00               0
GRID*               4697               0-5.317207046E-011.8108871609E-01+
*       1.1126063890E+00               0
GRID*               4698               0-5.942199353E-011.8109137120E-01+
*       1.1126049661E+00               0
GRID*               4699               0-5.816696136E-011.5224469475E-01+
*       1.1650266354E+00               0
GRID*               4700               0-5.313223939E-019.6893917875E-01+
*       4.8325836301E-01               0
GRID*               4701               0-5.983796066E-019.0583746592E-01+
*       4.6564258270E-01               0
GRID*               4702               0-5.313223939E-019.0647110149E-01+
*       5.1371003276E-01               0
GRID*               4703               0-6.920572127E-018.7655912156E-01+
*       4.0136951828E-01               0
GRID*               4704               0-2.509622059E-013.4173636407E-01+
*       -5.991420237E-02               0
GRID*               4705               0-2.585445277E-012.5928492078E-01+
*       -1.849142024E-01               0
GRID*               4706               0-1.507536891E-012.3530601768E-01+
*       -1.302761296E-01               0
GRID*               4707               0-1.581314411E-011.9382725396E-01+
*       -1.953619272E-01               0
GRID*               4708               0-1.790018620E-012.7727441463E-01+
*       -1.962502837E-01               0
GRID*               4709               0-1.716241100E-013.1875317835E-01+
*       -1.311644860E-01               0
GRID*               4710               0-7.121102345E-022.5329551153E-01+
*       -1.416122109E-01               0
GRID*               4711               0-3.714853898E-01-4.947804199E-01+
*       -6.731608787E-02               0
GRID*               4712               0-3.085676709E-01-4.561227333E-01+
*       -6.731608787E-02               0
GRID*               4713               0-3.701623524E-01-4.099306716E-01+
*       -6.976193167E-02               0
GRID*               4714               0-4.345065192E-01-6.109365199E-01+
*       -6.731608787E-02               0
GRID*               4715               0-3.719220063E-01-5.715673601E-01+
*       -6.731608787E-02               0
GRID*               4716               0-7.192202350E-01-9.551007298E-01+
*       8.9668460763E-01               0
GRID*               4717               0-6.567204206E-01-9.474487080E-01+
*       9.3645041533E-01               0
GRID*               4718               0-6.567211450E-01-9.586300377E-01+
*       8.6745098848E-01               0
GRID*               4719               0-5.938156652E-01-9.585667315E-01+
*       8.6272732246E-01               0
GRID*               4720               0-5.313147551E-01-9.550374235E-01+
*       8.9196094161E-01               0
GRID*               4721               0-5.306721374E-01-9.621775752E-01+
*       8.5916502484E-01               0
GRID*               4722               0-5.931730475E-01-9.657068831E-01+
*       8.2993140569E-01               0
GRID*               4723               0-5.619868925E-01-9.283844661E-01+
*       8.5208375140E-01               0
GRID*               4724               0-5.306721374E-01-9.677623089E-01+
*       7.8464391731E-01               0
GRID*               4725               0-2.282752726E-01-4.359724023E-01+
*       -1.876187268E-01               0
GRID*               4726               0-3.015505052E-01-4.735673263E-01+
*       -1.299348147E-01               0
GRID*               4727               0-1.709355210E-01-4.706424922E-01+
*       -1.190518347E-01               0
GRID*               4728               0-6.232009243E-01-8.817851735E-01+
*       9.6535726776E-01               0
GRID*               4729               0-6.232016488E-01-8.929665032E-01+
*       8.9635784091E-01               0
GRID*               4730               0-6.549209737E-01-8.557073924E-01+
*       9.2323385264E-01               0
GRID*               4731               0-3.363190246E-01-5.581477041E-01+
*       -1.923160879E-01               0
GRID*               4732               0-6.463772465E-014.8117419241E-01+
*       6.4137330356E-01               0
GRID*               4733               0-6.561528277E-013.8647920690E-01+
*       6.2351809251E-01               0
GRID*               4734               0-6.561099538E-013.9480191078E-01+
*       6.5711637826E-01               0
GRID*               4735               0-6.463343726E-014.8949689629E-01+
*       6.7497158931E-01               0
GRID*               4736               0-6.872644157E-014.1667704997E-01+
*       6.3769858604E-01               0
GRID*               4737               0-5.546749241E-016.5227088958E-01+
*       4.5177922691E-01               0
GRID*               4738               0-5.638916769E-016.8981402138E-01+
*       5.5180130660E-01               0
GRID*               4739               0-5.638916769E-016.2915810895E-01+
*       5.0793441664E-01               0
GRID*               4740               01.1743052227E+001.8936546561E-01+
*       -1.299505524E-01               0
GRID*               4741               01.1743052227E+002.6628854253E-01+
*       -1.299505524E-01               0
GRID*               4742               0-6.205591121E-013.4282991220E-01+
*       4.2488857788E-01               0
GRID*               4743               0-6.205608117E-013.7824976650E-01+
*       4.6576325006E-01               0
GRID*               4744               0-5.931535027E-012.8032809338E-01+
*       4.5417776204E-01               0
GRID*               4745               0-5.887155381E-013.7432063958E-01+
*       4.1625750035E-01               0
GRID*               4746               0-5.931552023E-013.1574794768E-01+
*       4.9505243422E-01               0
GRID*               4747               0-7.186536448E-013.6401527873E-01+
*       5.7432842950E-01               0
GRID*               4748               0-7.186536448E-013.8648014893E-01+
*       6.2352117279E-01               0
GRID*               4749               08.3371797942E-012.8862953317E-01+
*       -6.828175138E-02               0
GRID*               4750               08.3724747946E-013.3508948279E-01+
*       -1.250581370E-01               0
GRID*               4751               06.9190337507E-01-8.774015669E-01+
*       6.9243971400E-01               0
GRID*               4752               06.9190337507E-01-8.151767986E-01+
*       7.1950972404E-01               0
GRID*               4753               06.9491730182E-01-8.144605567E-01+
*       6.4038360689E-01               0
GRID*               4754               0-6.561538827E-013.6401571035E-01+
*       5.7432924211E-01               0
GRID*               4755               05.7458639395E-01-9.445283062E-01+
*       5.9341548680E-01               0
GRID*               4756               05.3140431032E-01-9.686184101E-01+
*       5.5830319856E-01               0
GRID*               4757               06.0599070427E-01-9.131467163E-01+
*       5.5171868535E-01               0
GRID*               4758               05.9387513044E-01-9.686184101E-01+
*       5.1958606533E-01               0
GRID*               4759               0-1.090879008E+00-6.362251781E-01+
*       -2.147055120E-02               0
GRID*               4760               0-1.079755921E+00-6.084452990E-01+
*       -4.267038135E-02               0
GRID*               4761               0-1.090879836E+00-6.362258526E-01+
*       -6.313710868E-02               0
GRID*               4762               0-1.232901718E+00-6.758461446E-01+
*       -3.016979354E-02               0
GRID*               4763               0-1.179290662E+00-6.290355010E-01+
*       -3.016979354E-02               0
GRID*               4764               0-1.200122974E+00-6.806147250E-01+
*       -3.016979354E-02               0
GRID*               4765               06.3708069226E-01-9.445283062E-01+
*       6.2271036041E-01               0
GRID*               4766               0-8.715736266E-018.1363609417E-01+
*       -2.054254269E-02               0
GRID*               4767               0-8.715741366E-018.1363736272E-01+
*       -6.220905098E-02               0
GRID*               4768               0-8.942970167E-018.4489532804E-01+
*       -2.054254269E-02               0
GRID*               4769               0-9.712956829E-019.7422269704E-01+
*       -9.287259331E-02               0
GRID*               4770               0-9.232755106E-019.7422269704E-01+
*       -3.018569680E-02               0
GRID*               4771               0-9.774944010E-019.5763195792E-01+
*       -6.048764860E-02               0
GRID*               4772               06.6756896124E-01-9.139718316E-01+
*       6.2282769523E-01               0
GRID*               4773               05.2548566270E-01-9.105526098E-01+
*       6.4990258670E-01               0
GRID*               4774               06.0007205666E-01-9.196432497E-01+
*       6.1405163218E-01               0
GRID*               4775               0-1.102140067E+00-6.526320684E-01+
*       -6.297121525E-02               0
GRID*               4776               0-1.155994345E+00-6.597480686E-01+
*       -7.285505525E-02               0
GRID*               4777               0-1.108377088E+00-4.768834874E-01+
*       -5.612819646E-02               0
GRID*               4778               0-1.112149424E+00-5.456453445E-01+
*       -5.612819646E-02               0
GRID*               4779               0-1.164772669E+00-4.950284153E-01+
*       -3.056518601E-02               0
GRID*               4780               0-1.137916539E+00-5.107492118E-01+
*       -8.669338247E-02               0
GRID*               4781               0-1.168545005E+00-5.637902724E-01+
*       -3.056518601E-02               0
GRID*               4782               0-1.077517916E+00-5.707540314E-01+
*       -1.394613858E-01               0
GRID*               4783               0-1.116236230E+00-6.393280146E-01+
*       -9.320357980E-02               0
GRID*               4784               0-1.120239540E+00-5.611784841E-01+
*       -1.076652188E-01               0
GRID*               4785               0-1.116236497E+00-6.393282316E-01+
*       -1.348702117E-01               0
GRID*               4786               05.2548566270E-01-9.751149435E-01+
*       6.2063614538E-01               0
GRID*               4787               0-6.903561060E-01-6.809997375E-01+
*       6.2729042849E-01               0
GRID*               4788               0-6.868186421E-01-6.949955152E-01+
*       7.9316164477E-01               0
GRID*               4789               0-6.868186421E-01-7.601688565E-01+
*       7.6400015015E-01               0
GRID*               4790               0-6.903561060E-01-7.436334753E-01+
*       6.7027259831E-01               0
GRID*               4791               0-6.903561060E-01-6.784601341E-01+
*       6.9943409293E-01               0
GRID*               4792               0-6.271747482E-01-7.643378180E-01+
*       7.1759946999E-01               0
GRID*               4793               0-5.546854036E-01-5.417646660E-01+
*       5.4927508418E-01               0
GRID*               4794               0-5.651228880E-01-5.053089429E-01+
*       6.2786979944E-01               0
GRID*               4795               0-5.625717085E-01-4.568177445E-01+
*       5.6121247636E-01               0
GRID*               4796               0-6.172571121E-01-5.481595363E-01+
*       5.4429413901E-01               0
GRID*               4797               0-6.276945965E-01-5.117038132E-01+
*       6.2288885427E-01               0
GRID*               4798               0-6.276237051E-01-4.623995413E-01+
*       6.6624103654E-01               0
GRID*               4799               0-6.250725256E-01-4.139083428E-01+
*       5.9958371346E-01               0
GRID*               4800               0-5.943789247E-01-3.866750744E-01+
*       6.2420526798E-01               0
GRID*               4801               0-5.970009957E-01-4.844705448E-01+
*       6.4751040879E-01               0
GRID*               4802               0-5.944498162E-01-4.359793463E-01+
*       5.8085308571E-01               0
GRID*               4803               06.8757905904E-011.8711436583E-01+
*       1.2339269778E+00               0
GRID*               4804               09.0513999717E-01-3.714985438E-01+
*       -1.843171389E-01               0
GRID*               4805               0-6.276228880E-01-4.700975034E-01+
*       7.1977309442E-01               0
GRID*               4806               0-6.559933268E-01-4.075598106E-01+
*       7.3695017524E-01               0
GRID*               4807               0-6.559941439E-01-3.998618485E-01+
*       6.8341811736E-01               0
GRID*               4808               0-6.586162148E-01-4.976573188E-01+
*       7.0672325817E-01               0
GRID*               4809               0-6.796854036E-01-6.295340775E-01+
*       5.0738704944E-01               0
GRID*               4810               0-5.641285157E-01-5.852711831E-01+
*       8.2456386867E-01               0
GRID*               4811               0-5.641285157E-01-5.144006683E-01+
*       7.7522519644E-01               0
GRID*               4812               0-5.651228880E-01-5.211742919E-01+
*       6.9501600411E-01               0
GRID*               4813               0-5.651228880E-01-5.920448067E-01+
*       7.4435467634E-01               0
GRID*               4814               0-6.292514038E-01-5.534213881E-01+
*       7.6975536969E-01               0
GRID*               4815               0-6.891285157E-01-5.166342738E-01+
*       7.7285677694E-01               0
GRID*               4816               0-6.891285157E-01-5.778827979E-01+
*       8.1248041487E-01               0
GRID*               4817               0-6.901228880E-01-5.846564215E-01+
*       7.3227122254E-01               0
GRID*               4818               0-6.901228880E-01-5.234078974E-01+
*       6.9264758460E-01               0
GRID*               4819               01.1202651646E+00-1.866209843E-01+
*       -1.818713777E-01               0
GRID*               4820               01.1785128804E+00-2.222547265E-01+
*       -1.818713777E-01               0
GRID*               4821               01.2207459472E+00-1.931822731E-01+
*       -2.186516365E-01               0
GRID*               4822               01.1624982313E+00-1.575485309E-01+
*       -2.186516365E-01               0
GRID*               4823               01.1492588277E+00-1.846677688E-01+
*       -1.505230142E-01               0
GRID*               4824               01.0452587290E+00-3.853918117E-01+
*       -6.862498776E-02               0
GRID*               4825               01.0485731748E+00-3.071817855E-01+
*       -6.862498776E-02               0
GRID*               4826               0-6.266285157E-01-4.633238798E-01+
*       7.9998228675E-01               0
GRID*               4827               0-5.941067078E-01-4.065019584E-01+
*       7.3812314531E-01               0
GRID*               4828               0-5.957352235E-01-4.898258430E-01+
*       7.8810542058E-01               0
GRID*               4829               0-5.967295958E-01-4.965994666E-01+
*       7.0789622825E-01               0
GRID*               4830               06.9246979527E-017.4320529525E-01+
*       1.0394626018E+00               0
GRID*               4831               05.6254316389E-018.7638978494E-01+
*       6.9300366961E-01               0
GRID*               4832               05.6254316389E-018.1416501661E-01+
*       7.2007367886E-01               0
GRID*               4833               06.9263047102E-016.3677139831E-01+
*       8.4813572584E-01               0
GRID*               4834               06.2227404292E-015.9001143722E-01+
*       9.1277478926E-01               0
GRID*               4835               06.3352246928E-016.3328753955E-01+
*       8.1752663598E-01               0
GRID*               4836               0-6.539816982E-01-3.805033836E-01+
*       5.9302047222E-01               0
GRID*               4837               0-6.233589888E-01-4.025743870E-01+
*       5.7428984447E-01               0
GRID*               4838               0-5.943778697E-01-3.642115793E-01+
*       5.7501641691E-01               0
GRID*               4839               08.7975918415E-01-5.684563247E-01+
*       -5.005222388E-02               0
GRID*               4840               06.8754316389E-019.3710867215E-01+
*       7.3882662230E-01               0
GRID*               4841               06.4835981545E-01-8.151771151E-01+
*       -1.871295454E-02               0
GRID*               4842               0-5.575369437E-01-1.610310239E-02+
*       1.7268879013E-01               0
GRID*               4843               0-5.702957116E-014.1464268795E-02+
*       1.0700529003E-01               0
GRID*               4844               0-6.278326553E-014.1901367230E-02+
*       1.4266357684E-01               0
GRID*               4845               0-6.952957116E-011.1272830747E-02+
*       3.8490038369E-02               0
GRID*               4846               0-6.872004124E-01-9.714125724E-02+
*       3.5461058494E-02               0
GRID*               4847               0-6.324961241E-01-8.945349573E-03+
*       7.3951096862E-02               0
GRID*               4848               0-6.872004124E-01-5.040962016E-02+
*       1.0397630996E-01               0
GRID*               4849               0-6.952957116E-011.6511898459E-01+
*       3.8490038369E-02               0
GRID*               4850               0-6.940747713E-012.4472836449E-01+
*       3.7599968345E-02               0
GRID*               4851               06.9420996494E-014.2981904641E-01+
*       3.4465496632E-01               0
GRID*               4852               06.9420996494E-014.9933916153E-01+
*       3.2757722553E-01               0
GRID*               4853               06.8980044450E-013.9679204495E-01+
*       2.3468553251E-01               0
GRID*               4854               06.3401040945E-014.1317223390E-01+
*       2.9328647978E-01               0
GRID*               4855               06.8980044450E-014.6631216008E-01+
*       2.1760779171E-01               0
GRID*               4856               05.6406815097E-01-4.646383847E-01+
*       1.0980096172E+00               0
GRID*               4857               05.6406815097E-01-4.543042032E-01+
*       1.0139461805E+00               0
GRID*               4858               05.6406815097E-01-4.020014969E-01+
*       1.0672846055E+00               0
GRID*               4859               08.8417733296E-01-8.312614582E-01+
*       -2.283957094E-02               0
GRID*               4860               08.8417732298E-01-8.312614226E-01+
*       -6.450623626E-02               0
GRID*               4861               06.2656896806E-01-4.083215411E-01+
*       9.5295885761E-01               0
GRID*               4862               06.5488445177E-01-3.835935969E-01+
*       8.8421857730E-01               0
GRID*               4863               06.5488339678E-01-3.611300957E-01+
*       9.3340742529E-01               0
GRID*               4864               06.5645178564E-01-4.273110735E-01+
*       9.8011330864E-01               0
GRID*               4865               0-5.690747713E-012.4472836449E-01+
*       3.7599968345E-02               0
GRID*               4866               0-9.380539462E-015.0183139329E-01+
*       -1.882856382E-01               0
GRID*               4867               0-9.230981961E-015.5683620433E-01+
*       -1.882856382E-01               0
GRID*               4868               0-9.965429625E-015.2300179484E-01+
*       -1.830916379E-01               0
GRID*               4869               0-1.011498713E+004.6799698380E-01+
*       -1.830916379E-01               0
GRID*               4870               0-9.772684568E-015.1198919097E-01+
*       -1.213772760E-01               0
GRID*               4871               0-8.211249950E-015.4160417079E-01+
*       -1.949394318E-01               0
GRID*               4872               0-8.291524803E-016.0417984854E-01+
*       -1.949394318E-01               0
GRID*               4873               0-8.708684998E-015.2033759843E-01+
*       -1.882856382E-01               0
GRID*               4874               0-8.788959850E-015.8291327619E-01+
*       -1.882856382E-01               0
GRID*               4875               0-9.466424586E-014.6729682466E-01+
*       -6.328563817E-02               0
GRID*               4876               0-9.171425805E-013.8205998780E-01+
*       -5.262701987E-02               0
GRID*               4877               0-8.743238124E-014.6058676361E-01+
*       -1.159126580E-01               0
GRID*               4878               0-9.377233149E-015.4350562737E-01+
*       -6.328563817E-02               0
GRID*               4879               06.1660073337E-01-4.632995359E-01+
*       7.9493628024E-01               0
GRID*               4880               06.1660155046E-01-4.556015706E-01+
*       8.4846833763E-01               0
GRID*               4881               05.8594724834E-01-4.892061316E-01+
*       8.1434751949E-01               0
GRID*               4882               06.7910073337E-01-5.589979628E-01+
*       8.9526753742E-01               0
GRID*               4883               06.7910073337E-01-4.918552653E-01+
*       9.0155380138E-01               0
GRID*               4884               06.7910073337E-01-5.108259985E-01+
*       8.3820431760E-01               0
GRID*               4885               0-8.344400648E-015.2476001318E-01+
*       -6.993943182E-02               0
GRID*               4886               0-8.841835695E-015.0349344082E-01+
*       -6.328563817E-02               0
GRID*               4887               0-8.804952492E-015.7226011213E-01+
*       -6.328563817E-02               0
GRID*               4888               0-8.413686217E-014.3510076158E-01+
*       -1.776270199E-01               0
GRID*               4889               07.1957150959E-01-3.488790761E-01+
*       9.5789654571E-01               0
GRID*               4890               06.5707127169E-01-3.488795077E-01+
*       9.5789573309E-01               0
GRID*               4891               07.1957150959E-01-3.713439509E-01+
*       9.0870380483E-01               0
GRID*               4892               06.9914348943E-01-2.317093321E-02+
*       3.3750841537E-02               0
GRID*               4893               06.9914348943E-015.3752143709E-02+
*       3.3750841537E-02               0
GRID*               4894               07.1902668951E-01-3.925519008E-01+
*       8.5148307776E-01               0
GRID*               4895               05.3111669711E-01-2.022199094E-01+
*       1.0986152073E+00               0
GRID*               4896               05.3111669711E-01-2.485694516E-01+
*       1.1331227655E+00               0
GRID*               4897               05.3111669711E-01-2.477143209E-01+
*       1.0693773010E+00               0
GRID*               4898               05.9361815876E-01-2.477098673E-01+
*       1.0693809481E+00               0
GRID*               4899               05.9361592781E-01-2.022225645E-01+
*       1.0986137844E+00               0
GRID*               4900               0-5.569139577E-01-6.472739272E-01+
*       1.1851178357E+00               0
GRID*               4901               0-5.696295047E-01-6.303596754E-01+
*       1.2549386407E+00               0
GRID*               4902               0-6.819139577E-01-7.029082604E-01+
*       1.1519454481E+00               0
GRID*               4903               0-6.906818454E-01-6.812434698E-01+
*       1.0797244174E+00               0
GRID*               4904               0-6.906818454E-01-7.463060152E-01+
*       1.1129132036E+00               0
GRID*               4905               0-6.321303670E-01-7.118608209E-01+
*       1.3426125478E+00               0
GRID*               4906               0-6.194148199E-01-7.287750727E-01+
*       1.2727917428E+00               0
GRID*               4907               0-6.555644765E-01-7.686484468E-01+
*       1.3474896630E+00               0
GRID*               4908               0-6.626931189E-01-6.986749741E-01+
*       1.3166168629E+00               0
GRID*               4909               0-6.499775719E-01-7.155892259E-01+
*       1.2467960580E+00               0
GRID*               4910               0-6.192462567E-01-4.335206984E-01+
*       1.1583394901E+00               0
GRID*               4911               0-1.055391774E+005.3300496224E-01+
*       -5.809163785E-02               0
GRID*               4912               0-1.079525061E+004.5094843953E-01+
*       -1.830916379E-01               0
GRID*               4913               0-1.087088889E+003.4846809277E-01+
*       -1.834403166E-01               0
GRID*               4914               05.6588223534E-01-1.976469848E-01+
*       1.1633297240E+00               0
GRID*               4915               05.6588223534E-01-1.829928733E-01+
*       1.2321665860E+00               0
GRID*               4916               05.6588223534E-01-2.439965270E-01+
*       1.1978372823E+00               0
GRID*               4917               0-1.085989357E+003.9437222937E-01+
*       -5.809163785E-02               0
GRID*               4918               0-1.093553185E+002.9189188262E-01+
*       -5.844031660E-02               0
GRID*               4919               0-1.027651053E+003.3098206841E-01+
*       -5.844031660E-02               0
GRID*               4920               06.9283600216E-01-7.095705059E-01+
*       1.4173560724E-01               0
GRID*               4921               06.9245356295E-01-6.868572527E-01+
*       7.7278026915E-02               0
GRID*               4922               06.9764840468E-01-5.999040332E-01+
*       1.0467557043E-01               0
GRID*               4923               06.9764840468E-01-6.333337521E-01+
*       4.1331536332E-02               0
GRID*               4924               06.9245356295E-01-7.202869716E-01+
*       1.3933992815E-02               0
GRID*               4925               06.4010196763E-01-6.613130314E-01+
*       5.5265529147E-02               0
GRID*               4926               05.7479398131E-016.0903542939E-02+
*       -1.188720067E-01               0
GRID*               4927               05.0465715020E-017.2286839443E-02+
*       -1.245749417E-01               0
GRID*               4928               05.7647436055E-012.2265228414E-02+
*       2.3900968782E-01               0
GRID*               4929               05.5954232253E-011.2282955324E-01+
*       2.4708725925E-01               0
GRID*               4930               06.2278296466E-01-2.216923044E-01+
*       -2.581570025E-02               0
GRID*               4931               06.7372714093E-01-5.136189224E-03+
*       -1.815489196E-01               0
GRID*               4932               05.7264840468E-01-6.564959791E-01+
*       1.1310878256E-01               0
GRID*               4933               05.6745356295E-01-7.202869716E-01+
*       1.3933992815E-02               0
GRID*               4934               08.5992355843E-01-7.403690078E-01+
*       -1.869141852E-01               0
GRID*               4935               06.7409361679E-01-9.004963753E-01+
*       -1.441353330E-02               0
GRID*               4936               05.8090625250E-01-8.641209128E-01+
*       -3.264694736E-02               0
GRID*               4937               0-5.653561060E-01-7.509575629E-01+
*       6.6818301714E-01               0
GRID*               4938               0-6.334640282E-01-8.246380907E-01+
*       6.9951673705E-01               0
GRID*               4939               06.2440825946E-01-1.912731528E-01+
*       2.3805393477E-01               0
GRID*               4940               05.6391693796E-01-2.743276764E-01+
*       2.0107294352E-01               0
GRID*               4941               06.2631429189E-01-2.750830340E-01+
*       1.9569621533E-01               0
GRID*               4942               0-6.931079222E-01-8.204691292E-01+
*       7.4591741722E-01               0
GRID*               4943               0-6.931079222E-01-8.821640986E-01+
*       7.9001744984E-01               0
GRID*               4944               0-6.931079222E-01-9.507368723E-01+
*       7.6258077798E-01               0
GRID*               4945               0-6.306088322E-01-9.486814465E-01+
*       8.0786826635E-01               0
GRID*               4946               0-6.306079222E-01-9.507368723E-01+
*       7.6258077798E-01               0
GRID*               4947               0-6.306022207E-01-9.507368723E-01+
*       7.1687565160E-01               0
GRID*               4948               05.3218665096E-017.8475624268E-01+
*       1.3215223958E+00               0
GRID*               4949               06.9277370031E-01-2.774597077E-01+
*       -7.506360030E-02               0
GRID*               4950               06.2979891523E-01-2.556698616E-01+
*       -1.398937611E-01               0
GRID*               4951               07.1770420261E-01-2.806230514E-01+
*       -1.403292821E-01               0
GRID*               4952               06.4421134100E-01-2.341736715E-01+
*       -1.898301608E-01               0
GRID*               4953               06.4995982639E-01-3.026539944E-01+
*       -2.000636003E-01               0
GRID*               4954               05.7991454693E-01-2.906790157E-01+
*       -2.000636003E-01               0
GRID*               4955               08.4111225433E-01-3.516425104E-01+
*       -1.843171389E-01               0
GRID*               4956               07.1751370599E-01-3.176771265E-01+
*       -2.000636003E-01               0
GRID*               4957               06.8529899479E-01-1.778300773E-01+
*       -1.898301608E-01               0
GRID*               4958               07.3211662838E-01-2.591268613E-01+
*       -1.902656818E-01               0
GRID*               4959               07.7320428217E-01-2.027832672E-01+
*       -1.902656818E-01               0
GRID*               4960               08.7264891798E-01-2.942972975E-01+
*       -1.922585323E-01               0
GRID*               4961               07.9967050797E-01-2.741499934E-01+
*       -1.902656818E-01               0
GRID*               4962               08.4130275096E-01-3.145884353E-01+
*       -1.245828207E-01               0
GRID*               4963               0-5.575369437E-01-5.582435123E-02+
*       2.3860688247E-01               0
GRID*               4964               0-5.575369437E-01-8.593646408E-02+
*       1.7498020578E-01               0
GRID*               4965               0-5.655363469E-01-1.475709328E-01+
*       1.8476780280E-01               0
GRID*               4966               0-5.655363469E-01-1.174588200E-01+
*       2.4839447950E-01               0
GRID*               4967               0-6.230732906E-01-7.730047272E-02+
*       2.1813467396E-01               0
GRID*               4968               0-6.280376418E-01-9.650217959E-02+
*       3.0089503370E-01               0
GRID*               4969               0-6.200382386E-01-3.486771082E-02+
*       2.9110743668E-01               0
GRID*               4970               0-5.943136703E-01-6.438451835E-02+
*       3.4680104592E-01               0
GRID*               4971               0-5.973487222E-01-1.068172803E-01+
*       2.7382828321E-01               0
GRID*               4972               0-5.893493191E-01-4.518281149E-02+
*       2.6404068618E-01               0
GRID*               4973               0-5.622004124E-01-1.367831809E-01+
*       1.0626772580E-01               0
GRID*               4974               0-6.277367593E-01-1.281471895E-01+
*       1.4942219399E-01               0
GRID*               4975               0-6.197373561E-01-6.651272076E-02+
*       1.3963459696E-01               0
GRID*               4976               0-5.536606486E-019.7249033194E-01+
*       -2.123653038E-01               0
GRID*               4977               0-5.137695113E-019.7114257863E-01+
*       -2.183147492E-01               0
GRID*               4978               0-5.527242775E-019.4363291057E-01+
*       -1.806800531E-01               0
GRID*               4979               0-5.474810413E-019.1339060768E-01+
*       -2.183147492E-01               0
GRID*               4980               0-6.825369437E-01-7.079879017E-02+
*       1.7587130405E-01               0
GRID*               4981               0-6.905363469E-01-1.324332589E-01+
*       1.8565890107E-01               0
GRID*               4982               0-6.872004124E-01-1.216455070E-01+
*       1.0715882407E-01               0
GRID*               4983               0-5.622004124E-01-2.021818032E-02+
*       3.5461058494E-02               0
GRID*               4984               0-5.622004124E-01-6.694981919E-02+
*       1.0397631015E-01               0
GRID*               4985               0-7.456445556E-019.6097011744E-01+
*       -3.786772919E-02               0
GRID*               4986               0-7.131239101E-019.6070008738E-01+
*       -2.439763201E-02               0
GRID*               4987               0-7.131239101E-018.8377701045E-01+
*       -2.439763201E-02               0
GRID*               4988               0-7.087684657E-019.2167020482E-01+
*       -6.226536120E-02               0
GRID*               4989               0-5.971040459E-018.8535772659E-01+
*       -1.626761370E-01               0
GRID*               4990               0-6.306879166E-018.8319567006E-01+
*       -1.759095191E-01               0
GRID*               4991               0-8.446948242E-019.3775581014E-01+
*       -1.273632953E-01               0
GRID*               4992               0-7.876396600E-019.3775581014E-01+
*       -6.186640855E-02               0
GRID*               4993               0-8.038822465E-019.7465338282E-01+
*       -3.287779674E-02               0
GRID*               4994               0-8.609374106E-019.7465338282E-01+
*       -9.837468351E-02               0
GRID*               4995               0-8.415219065E-019.1240919297E-01+
*       -9.474420530E-02               0
GRID*               4996               0-6.825369437E-01-2.134163251E-02+
*       2.3638291688E-01               0
GRID*               4997               0-6.905363469E-01-8.297610127E-02+
*       2.4617051390E-01               0
GRID*               4998               0-8.170514247E-019.3775581014E-01+
*       -1.868664086E-01               0
GRID*               4999               0-7.820221735E-019.3775581014E-01+
*       -1.357111879E-01               0
GRID*               5000               01.0295709587E-018.5179243589E-01+
*       -1.962653388E-01               0
GRID*               5001               01.6992133390E-017.9074333232E-01+
*       -1.364808414E-01               0
GRID*               5002               01.3189964371E-018.5160013696E-01+
*       -1.337740507E-01               0
GRID*               5003               02.4611589181E-017.3445003777E-01+
*       -1.902155026E-01               0
GRID*               5004               08.7298652647E-028.0030199866E-01+
*       -7.126533879E-02               0
GRID*               5005               01.9489716085E-017.5259445261E-01+
*       -6.521550262E-02               0
GRID*               5006               01.3306451632E-017.1930382056E-01+
*       -5.121972775E-02               0
GRID*               5007               01.0808868938E-017.5745270027E-01+
*       -1.224850665E-01               0
GRID*               5008               02.1568719758E-017.0974515421E-01+
*       -1.164352304E-01               0
GRID*               5009               03.7497597711E-017.2994664513E-01+
*       -1.866780823E-01               0
GRID*               5010               03.6202027720E-018.0316758925E-01+
*       -1.133602317E-01               0
GRID*               5011               03.2800140259E-017.4198996554E-01+
*       -1.268935850E-01               0
GRID*               5012               03.7235970563E-016.9176353481E-01+
*       -1.875113476E-01               0
GRID*               5013               03.7586669160E-017.0276103451E-01+
*       -1.241894300E-01               0
GRID*               5014               03.2538513111E-017.0380685523E-01+
*       -1.277268503E-01               0
GRID*               5015               05.6255536249E-017.3073333071E-01+
*       1.0835334102E-02               0
GRID*               5016               03.4792762534E-016.2237303758E-01+
*       -1.794320570E-01               0
GRID*               5017               04.3969412492E-016.7177464034E-01+
*       -1.905459811E-01               0
GRID*               5018               03.4881833982E-015.9518742696E-01+
*       -1.169434047E-01               0
GRID*               5019               04.4058483941E-016.4458902972E-01+
*       -1.280573287E-01               0
GRID*               5020               0-5.261579706E-018.8438403756E-01+
*       -2.460890633E-02               0
GRID*               5021               0-5.261579706E-019.6130711448E-01+
*       -2.460890633E-02               0
GRID*               5022               0-4.850570746E-018.8282446789E-01+
*       -3.012490613E-02               0
GRID*               5023               0-5.112150451E-019.2105465930E-01+
*       -5.473381245E-02               0
GRID*               5024               0-4.850570746E-019.5974754481E-01+
*       -3.012490613E-02               0
GRID*               5025               0-4.154134734E-019.7615708222E-01+
*       -3.234751226E-02               0
GRID*               5026               0-4.667710900E-019.8170245848E-01+
*       -2.122174374E-02               0
GRID*               5027               0-3.821845634E-019.5785954070E-01+
*       -5.356925601E-02               0
GRID*               5028               0-4.002606094E-019.3219142088E-01+
*       -2.122174374E-02               0
GRID*               5029               04.5087023382E-027.2142580788E-01+
*       -1.871124271E-01               0
GRID*               5030               09.0000349701E-026.9292064008E-01+
*       -1.133321549E-01               0
GRID*               5031               04.4234486027E-027.7391881819E-01+
*       -1.333777659E-01               0
GRID*               5032               02.6282272399E-017.1638238192E-01+
*       -6.521550262E-02               0
GRID*               5033               02.8625593271E-016.0776295365E-01+
*       -5.443205703E-02               0
GRID*               5034               02.3912040629E-016.0112572595E-01+
*       -1.056517848E-01               0
GRID*               5035               03.0095305082E-016.3441635799E-01+
*       -1.196475597E-01               0
GRID*               5036               02.1945734166E-016.2918525897E-01+
*       -1.762197278E-01               0
GRID*               5037               01.8428324729E-017.0115940572E-01+
*       -1.762197278E-01               0
GRID*               5038               02.8128998619E-016.6247589102E-01+
*       -1.902155026E-01               0
GRID*               5039               01.3851738362E-017.8215758383E-01+
*       -1.962653388E-01               0
GRID*               5040               04.4114424359E-016.1878197000E-01+
*       -6.554598111E-02               0
GRID*               5041               04.4411276212E-016.9496768970E-01+
*       -6.554598111E-02               0
GRID*               5042               05.3484263546E-017.5699730556E-01+
*       -1.972830121E-01               0
GRID*               5043               04.4642127784E-017.5914885968E-01+
*       -1.972830121E-01               0
GRID*               5044               0-6.299535407E-012.7838017231E-01+
*       1.5957967726E+00               0
GRID*               5045               0-6.567231892E-013.2179889967E-01+
*       1.6560916347E+00               0
GRID*               5046               01.1187657266E+006.8086514317E-01+
*       -1.868402014E-01               0
GRID*               5047               0-6.834933971E-011.1353395974E-01+
*       1.5652103559E+00               0
GRID*               5048               0-6.834933971E-016.8987860161E-02+
*       1.5023023161E+00               0
GRID*               5049               0-6.209930272E-011.9856589343E-01+
*       1.6220155937E+00               0
GRID*               5050               0-6.618417380E-012.6943424786E-01+
*       1.5583337508E+00               0
GRID*               5051               0-6.528812246E-011.8961996897E-01+
*       1.5845525718E+00               0
GRID*               5052               0-6.303166319E-019.3888861088E-02+
*       2.9066037713E-01               0
GRID*               5053               0-6.303186962E-011.4578554269E-01+
*       3.0589805530E-01               0
GRID*               5054               0-5.935611443E-011.0421400443E-01+
*       3.5872012450E-01               0
GRID*               5055               0-5.988803661E-011.4403345920E-01+
*       2.7551270684E-01               0
GRID*               5056               0-5.935632085E-011.5611068603E-01+
*       3.7395780267E-01               0
GRID*               5057               05.9314543058E-01-8.957034279E-01+
*       4.6819325181E-01               0
GRID*               5058               0-6.856225565E-013.5545649685E-01+
*       1.4319044127E+00               0
GRID*               5059               0-6.856225565E-014.0419183137E-01+
*       1.4844615577E+00               0
GRID*               5060               0-6.924539106E-012.8470339443E-01+
*       1.4491983676E+00               0
GRID*               5061               0-6.280764671E-013.3275629352E-01+
*       1.4687279903E+00               0
GRID*               5062               0-6.924539106E-013.3343872895E-01+
*       1.5017555125E+00               0
GRID*               5063               0-5.671560296E-012.7381641473E-01+
*       1.3951526616E+00               0
GRID*               5064               0-5.674539106E-012.0726188633E-01+
*       1.4226786285E+00               0
GRID*               5065               0-5.674539106E-012.4999536432E-01+
*       1.4610857687E+00               0
GRID*               5066               0-6.865647632E-01-5.134758910E-02+
*       1.3095936088E+00               0
GRID*               5067               0-6.819509459E-012.7899363428E-02+
*       1.3721298799E+00               0
GRID*               5068               0-6.365722893E-01-7.074635401E-02+
*       1.3328716246E+00               0
GRID*               5069               0-6.921560296E-013.0852444483E-01+
*       1.3832652605E+00               0
GRID*               5070               05.3140431032E-01-9.686184101E-01+
*       4.8330319856E-01               0
GRID*               5071               0-2.033259330E-01-8.619921617E-01+
*       -1.250000000E-01               0
GRID*               5072               05.6174112026E-01-8.646169406E-01+
*       4.6534172370E-01               0
GRID*               5073               06.5573963002E-01-9.714372418E-01+
*       3.0158552512E-01               0
GRID*               5074               0-4.498715622E-01-8.151693749E-01+
*       -1.774577272E-01               0
GRID*               5075               0-4.001060980E-01-8.679392570E-01+
*       -1.762887406E-01               0
GRID*               5076               0-5.926150785E-013.5354756924E-01+
*       9.6210096239E-01               0
GRID*               5077               0-5.941569927E-014.1987679557E-01+
*       1.0085012147E+00               0
GRID*               5078               0-5.941536076E-013.2835148383E-01+
*       9.8726783244E-01               0
GRID*               5079               0-5.617691619E-013.6222198472E-01+
*       9.9392698225E-01               0
GRID*               5080               0-5.956955218E-013.9468071017E-01+
*       1.0336680848E+00               0
GRID*               5081               0-3.921421006E-01-9.353890772E-01+
*       -1.108147096E-01               0
GRID*               5082               0-4.419075647E-01-8.826191950E-01+
*       -1.119836962E-01               0
GRID*               5083               0-4.278420122E-01-9.719717071E-01+
*       -8.881934974E-02               0
GRID*               5084               0-3.817085368E-01-9.073607843E-01+
*       -8.058212136E-02               0
GRID*               5085               0-4.314740010E-01-8.545909021E-01+
*       -8.175110795E-02               0
GRID*               5086               0-3.727995985E-01-8.822917294E-01+
*       -5.128874062E-02               0
GRID*               5087               0-3.568278420E-01-9.353890772E-01+
*       -1.762887406E-01               0
GRID*               5088               0-3.872756528E-01-9.719717071E-01+
*       -2.929338075E-02               0
GRID*               5089               0-5.929325543E-012.4964443201E-01+
*       1.0696260892E+00               0
GRID*               5090               0-5.304310927E-012.4964888555E-01+
*       1.0696224421E+00               0
GRID*               5091               0-5.317273250E-012.7537788664E-01+
*       1.0502134551E+00               0
GRID*               5092               0-5.942287867E-012.7537343309E-01+
*       1.0502171022E+00               0
GRID*               5093               0-5.621584177E-012.7618048466E-01+
*       1.0826520183E+00               0
GRID*               5094               0-3.306848301E-01-9.659826075E-01+
*       -2.204103285E-01               0
GRID*               5095               0-3.198656133E-01-9.013716847E-01+
*       -1.466990691E-01               0
GRID*               5096               0-2.917902488E-01-9.659826075E-01+
*       -1.578855698E-01               0
GRID*               5097               0-6.265431379E-013.5058645073E-01+
*       1.0427167452E+00               0
GRID*               5098               0-6.291287956E-013.5987523925E-01+
*       1.1325915542E+00               0
GRID*               5099               0-6.275885809E-012.5812616896E-01+
*       1.1270659821E+00               0
GRID*               5100               0-5.957690013E-013.7712250338E-01+
*       1.0557426743E+00               0
GRID*               5101               0-5.968144443E-012.8466222161E-01+
*       1.1400919112E+00               0
GRID*               5102               0-5.301153164E-013.5354713761E-01+
*       9.6210177501E-01               0
GRID*               5103               0-5.316538455E-013.2835105220E-01+
*       9.8726864506E-01               0
GRID*               5104               0-6.764890288E-013.9634198270E-01+
*       1.1755501443E+00               0
GRID*               5105               0-6.165761481E-013.4467610058E-01+
*       1.2339116100E+00               0
GRID*               5106               0-6.890416763E-014.1154112137E-01+
*       1.0742300885E+00               0
GRID*               5107               0-6.155307051E-014.3713638235E-01+
*       1.1495623731E+00               0
GRID*               5108               03.7592360049E-01-3.157056431E-01+
*       -1.913375819E-01               0
GRID*               5109               05.8901628404E-01-4.226913497E-01+
*       -1.947321479E-01               0
GRID*               5110               05.1788511071E-01-3.322761161E-01+
*       -1.913375819E-01               0
GRID*               5111               0-6.921560296E-013.2630492797E-01+
*       1.3093884560E+00               0
GRID*               5112               0-8.532011879E-018.3207616331E-01+
*       -1.035329168E-01               0
GRID*               5113               02.4932855448E-01-2.431955727E-01+
*       -1.871173658E-01               0
GRID*               5114               0-5.934500818E-013.1047844809E-01+
*       1.6603815847E+00               0
GRID*               5115               0-5.309504517E-013.4577037290E-01+
*       1.6480326393E+00               0
GRID*               5116               0-5.315434808E-013.0490448061E-01+
*       1.6650584189E+00               0
GRID*               5117               0-5.940431109E-012.6961255580E-01+
*       1.6774073643E+00               0
GRID*               5118               0-5.624939324E-012.8533385036E-01+
*       1.6322173489E+00               0
GRID*               5119               01.9409605341E-01-2.088473951E-01+
*       -6.211736579E-02               0
GRID*               5120               02.4817552751E-01-1.716295808E-01+
*       -7.146939502E-02               0
GRID*               5121               0-6.231235989E-014.1869360140E-01+
*       1.5512025697E+00               0
GRID*               5122               0-5.606225565E-014.5175457820E-01+
*       1.5337295186E+00               0
GRID*               5123               0-5.309902184E-014.4779691441E-01+
*       1.6012595932E+00               0
GRID*               5124               0-5.934912608E-014.1473593762E-01+
*       1.6187326443E+00               0
GRID*               5125               0-5.916127748E-013.9955173217E-01+
*       1.5189641100E+00               0
GRID*               5126               07.1784127519E-02-2.057685140E-01+
*       -1.124602690E-01               0
GRID*               5127               0-1.182697236E+008.7685140898E-02+
*       -6.448324232E-02               0
GRID*               5128               0-1.119553147E+001.2638164891E-01+
*       -6.448324232E-02               0
GRID*               5129               0-1.120130687E+004.9120938876E-02+
*       -6.448324232E-02               0
GRID*               5130               0-5.984441289E-013.2879862974E-01+
*       1.5362580648E+00               0
GRID*               5131               02.6217781171E-01-4.888489680E-01+
*       -1.950292572E-01               0
GRID*               5132               03.0034759274E-01-4.278632946E-01+
*       -1.950292572E-01               0
GRID*               5133               02.3039347743E-01-4.530037199E-01+
*       -1.310751396E-01               0
GRID*               5134               0-5.674539106E-013.1112126551E-01+
*       1.5063094843E+00               0
GRID*               5135               0-5.674539106E-012.2988334980E-01+
*       1.5410624354E+00               0
GRID*               5136               0-6.031401140E-01-6.366574340E-01+
*       1.3587684324E+00               0
GRID*               5137               0-5.976904518E-01-5.804740972E-01+
*       1.3917099469E+00               0
GRID*               5138               0-6.338093472E-01-5.857040114E-01+
*       1.3446812622E+00               0
GRID*               5139               0-6.656645299E-01-6.557631385E-01+
*       1.3662013818E+00               0
GRID*               5140               0-6.295456345E-01-6.505332242E-01+
*       1.4132300664E+00               0
GRID*               5141               0-6.602148677E-01-5.995798017E-01+
*       1.3991428963E+00               0
GRID*               5142               0-6.946295047E-01-6.267798384E-01+
*       1.3393779007E+00               0
GRID*               5143               0-6.891798425E-01-5.076398159E-01+
*       1.3383201084E+00               0
GRID*               5144               0-6.891798425E-01-5.705965016E-01+
*       1.3723194152E+00               0
GRID*               5145               0-6.891798425E-01-4.470373184E-01+
*       1.3762147841E+00               0
GRID*               5146               0-5.622304785E-01-2.590281221E-01+
*       1.5298165594E+00               0
GRID*               5147               0-6.225479754E-01-2.446936469E-01+
*       1.4378997740E+00               0
GRID*               5148               0-6.193570661E-01-3.262222029E-01+
*       1.4757924701E+00               0
GRID*               5149               0-5.934195593E-01-5.230676836E-01+
*       1.5615273291E+00               0
GRID*               5150               0-5.621692938E-01-5.173287969E-01+
*       1.5325553251E+00               0
GRID*               5151               0-5.880462018E-01-4.418170537E-01+
*       1.5006276903E+00               0
GRID*               5152               0-5.011934297E-028.7607972170E-01+
*       -1.853678561E-01               0
GRID*               5153               02.8795913294E-028.5376681347E-01+
*       -1.962653388E-01               0
GRID*               5154               05.5410073337E-01-5.778584540E-01+
*       8.0743440836E-01               0
GRID*               5155               05.5410073337E-01-5.738159864E-01+
*       8.7846748531E-01               0
GRID*               5156               05.5410073337E-01-6.387596057E-01+
*       8.4969737279E-01               0
GRID*               5157               07.0545232173E-029.2851883877E-01+
*       -3.249968009E-02               0
GRID*               5158               05.4149010348E-028.9551198853E-01+
*       -1.037650189E-01               0
GRID*               5159               0-2.476624591E-029.1782489676E-01+
*       -9.286753623E-02               0
GRID*               5160               08.6450051407E-01-7.477651655E-01+
*       -6.392422902E-02               0
GRID*               5161               01.0363496040E-019.1922543919E-01+
*       -1.337391332E-01               0
GRID*               5162               06.7926118735E-029.1922543919E-01+
*       -1.962653388E-01               0
GRID*               5163               09.8352711477E-029.7347748114E-01+
*       -2.260742425E-01               0
GRID*               5164               01.3406155314E-019.7347748114E-01+
*       -1.635480369E-01               0
GRID*               5165               09.2749418447E-028.9270292033E-01+
*       -1.723395813E-01               0
GRID*               5166               01.0340990618E-015.6502840423E-01+
*       -5.696347214E-02               0
GRID*               5167               01.2131191531E-015.9820508521E-01+
*       -1.081831999E-01               0
GRID*               5168               07.1095555481E-026.7957093261E-01+
*       -5.121972775E-02               0
GRID*               5169               0-5.938149407E-01-9.473854018E-01+
*       9.3172674931E-01               0
GRID*               5170               0-4.345065192E-01-5.340134430E-01+
*       -6.731608787E-02               0
GRID*               5171               0-4.257253153E-01-5.826616165E-01+
*       -1.291599322E-01               0
GRID*               5172               0-6.812674370E-01-4.659408439E-01+
*       7.3709940155E-02               0
GRID*               5173               0-6.899546040E-01-3.774605539E-01+
*       8.3343274822E-02               0
GRID*               5174               0-5.590440568E-01-5.774314527E-01+
*       3.0317752584E-01               0
GRID*               5175               0-5.562674370E-01-5.208835358E-01+
*       2.3787450122E-01               0
GRID*               5176               0-6.191737053E-01-5.552554317E-01+
*       3.3417428410E-01               0
GRID*               5177               01.3338368861E-019.0604447785E-01+
*       -2.260742425E-01               0
GRID*               5178               01.6232623646E-019.0585217891E-01+
*       -1.635829544E-01               0
GRID*               5179               0-5.325353524E-01-1.797590558E-01+
*       1.6959545346E+00               0
GRID*               5180               0-7.189549219E-01-8.031627224E-02+
*       1.7092332228E+00               0
GRID*               5181               0-6.888390078E-01-1.282427697E-01+
*       1.6682090901E+00               0
GRID*               5182               0-5.639589303E-01-2.902259051E-01+
*       1.5534221318E+00               0
GRID*               5183               0-6.281337694E-01-2.727598958E-01+
*       1.5603673113E+00               0
GRID*               5184               0-5.641748391E-01-2.489643378E-01+
*       1.5694330044E+00               0
GRID*               5185               0-6.261894088E-01-2.828236801E-01+
*       1.5207508663E+00               0
GRID*               5186               0-6.264053175E-01-2.415621128E-01+
*       1.5367617389E+00               0
GRID*               5187               0-7.187197185E-01-5.748972405E-01+
*       1.5224570693E+00               0
GRID*               5188               0-6.885735647E-016.5001523834E-01+
*       1.1909211604E+00               0
GRID*               5189               0-6.885735647E-016.9211290363E-01+
*       1.2367840656E+00               0
GRID*               5190               0-6.803385352E-016.3218752011E-01+
*       1.2544125468E+00               0
GRID*               5191               0-6.189121000E-016.6337075417E-01+
*       1.2471961761E+00               0
GRID*               5192               0-6.803385352E-016.7428518539E-01+
*       1.3002754520E+00               0
GRID*               5193               0-5.599066319E-017.5027497959E-01+
*       6.0287071011E-01               0
GRID*               5194               0-6.145815559E-017.1592826113E-01+
*       5.2836569923E-01               0
GRID*               5195               0-6.902302658E-016.8369378269E-01+
*       8.0516396178E-01               0
GRID*               5196               0-6.179538676E-016.4874350096E-01+
*       7.4490553013E-01               0
GRID*               5197               0-5.635735647E-017.0569614329E-01+
*       1.2288131278E+00               0
GRID*               5198               0-5.553385352E-016.2570862381E-01+
*       1.2624402482E+00               0
GRID*               5199               0-5.553385352E-016.8786842506E-01+
*       1.2923045142E+00               0
GRID*               5200               0-5.553385352E-016.8929737173E-01+
*       1.3704300687E+00               0
GRID*               5201               0-6.938604811E-015.6500755977E-01+
*       1.2506929829E+00               0
GRID*               5202               0-6.938604811E-015.8156795818E-01+
*       1.1854507095E+00               0
GRID*               5203               0-6.803385352E-016.1562712170E-01+
*       1.3196548203E+00               0
GRID*               5204               0-6.241990164E-015.9492347400E-01+
*       1.2417257251E+00               0
GRID*               5205               0-7.179870000E-012.7481741108E-01+
*       4.2346914000E-01               0
GRID*               5206               0-7.189071483E-012.8746238959E-01+
*       4.5880180825E-01               0
GRID*               5207               0-6.564056867E-012.8745793607E-01+
*       4.5879816064E-01               0
GRID*               5208               0-6.868941483E-013.1343352763E-01+
*       4.1945481346E-01               0
GRID*               5209               0-5.309914628E-016.8914188592E-01+
*       1.4272270017E+00               0
GRID*               5210               0-5.934908261E-016.6270369474E-01+
*       1.4536652181E+00               0
GRID*               5211               0-5.863299980E-016.4538755012E-01+
*       1.3674844955E+00               0
GRID*               5212               06.7161456108E-01-1.190000917E-01+
*       -1.276375107E-01               0
GRID*               5213               07.4827013959E-01-1.008274956E-01+
*       -6.255351589E-02               0
GRID*               5214               06.8529535451E-01-1.559607265E-01+
*       -1.273836767E-01               0
GRID*               5215               07.3285948575E-01-8.777127952E-02+
*       -1.253608659E-01               0
GRID*               5216               0-5.944597821E-01-1.589472885E-02+
*       1.1525042824E+00               0
GRID*               5217               0-6.883458737E-01-6.915391345E-01+
*       9.7586338414E-01               0
GRID*               5218               0-6.906818454E-01-7.433277960E-01+
*       1.0453136135E+00               0
GRID*               5219               0-6.290277191E-01-7.107227000E-01+
*       1.0245834194E+00               0
GRID*               5220               0-6.906818454E-01-7.968803036E-01+
*       1.0764110824E+00               0
GRID*               5221               0-6.857007387E-01-8.192968243E-01+
*       9.4821849360E-01               0
GRID*               5222               0-6.857007387E-01-7.570940442E-01+
*       9.7436714164E-01               0
GRID*               5223               0-6.857007387E-01-8.106465518E-01+
*       1.0054646106E+00               0
GRID*               5224               07.7320064189E-01-1.809139163E-01+
*       -1.278191977E-01               0
GRID*               5225               09.4800356644E-01-8.989501484E-01+
*       -1.161377518E-01               0
GRID*               5226               09.1123919773E-01-8.870197388E-01+
*       -1.161378966E-01               0
GRID*               5227               09.1123948669E-01-8.870199738E-01+
*       -1.578045256E-01               0
GRID*               5228               08.7679361867E-01-3.505164860E-01+
*       -5.931713892E-02               0
GRID*               5229               08.1637224866E-01-3.883481685E-01+
*       -5.931713892E-02               0
GRID*               5230               07.7493050230E-01-3.108556515E-01+
*       -6.526568179E-02               0
GRID*               5231               08.3535187231E-01-2.730239690E-01+
*       -6.526568179E-02               0
GRID*               5232               06.4123186177E-01-5.447866959E-01+
*       -1.463950069E-01               0
GRID*               5233               0-7.182433665E-014.0642627906E-01+
*       7.3795805466E-01               0
GRID*               5234               0-6.567253105E-014.0420619302E-01+
*       7.7175427831E-01               0
GRID*               5235               0-6.874686770E-014.3063247685E-01+
*       7.5971233297E-01               0
GRID*               5236               0-7.192253105E-014.0420619302E-01+
*       7.7175427831E-01               0
GRID*               5237               0-6.789780111E-015.1017027391E-01+
*       8.3567593813E-01               0
GRID*               5238               0-1.157920440E+002.5198165937E-01+
*       -5.844031660E-02               0
GRID*               5239               0-1.094776350E+002.1375509046E-01+
*       -5.844031660E-02               0
GRID*               5240               0-1.217709246E+001.9297183197E-01+
*       -3.107630125E-02               0
GRID*               5241               0-1.125629685E+002.1418426057E-01+
*       -8.951661785E-02               0
GRID*               5242               0-1.154565157E+001.5474526306E-01+
*       -3.107630125E-02               0
GRID*               5243               09.6743024765E-01-9.063605384E-01+
*       -1.165754754E-01               0
GRID*               5244               0-6.902302658E-017.2777326509E-01+
*       8.7707886530E-01               0
GRID*               5245               0-6.378841197E-017.7833810083E-01+
*       8.5344689386E-01               0
GRID*               5246               0-6.361110514E-016.9381899089E-01+
*       8.9434370262E-01               0
GRID*               5247               09.6612547847E-01-9.058195929E-01+
*       -9.436881356E-02               0
GRID*               5248               09.6956729583E-01-9.370660413E-01+
*       -1.060605712E-01               0
GRID*               5249               01.0035147776E+00-9.062464271E-01+
*       -9.502509099E-02               0
GRID*               5250               09.9048025738E-01-8.907081563E-01+
*       -6.249599604E-02               0
GRID*               5251               09.5653277558E-01-9.215277706E-01+
*       -7.353147624E-02               0
GRID*               5252               09.9392207474E-01-9.219546048E-01+
*       -7.418775367E-02               0
GRID*               5253               0-7.881271628E-018.0048225040E-01+
*       -1.949822347E-01               0
GRID*               5254               0-7.406206195E-017.8291628072E-01+
*       -1.949822347E-01               0
GRID*               5255               08.7521427821E-01-8.596886568E-01+
*       -1.685830445E-01               0
GRID*               5256               08.5990896414E-01-8.955690010E-01+
*       -1.597206891E-01               0
GRID*               5257               0-5.936322500E-013.9513227866E-01+
*       6.5661463787E-01               0
GRID*               5258               0-5.625923251E-014.2252144564E-01+
*       6.3288743509E-01               0
GRID*               5259               0-5.838566688E-014.8982726417E-01+
*       6.7446984892E-01               0
GRID*               5260               06.2456302510E-014.5212189619E-01+
*       6.4993689825E-01               0
GRID*               5261               06.2456220801E-014.5981985995E-01+
*       7.0346895589E-01               0
GRID*               5262               06.5605894037E-014.0745185009E-01+
*       7.3655097907E-01               0
GRID*               5263               06.5605975747E-013.9975388633E-01+
*       6.8301892144E-01               0
GRID*               5264               06.5562114838E-014.8727171480E-01+
*       6.9001993496E-01               0
GRID*               5265               05.6763047102E-015.8325863173E-01+
*       8.1795621433E-01               0
GRID*               5266               05.6763047102E-015.1238811628E-01+
*       7.6861754054E-01               0
GRID*               5267               05.6206220801E-015.1089664798E-01+
*       6.7871186716E-01               0
GRID*               5268               05.6206220801E-015.8176716343E-01+
*       7.2805054095E-01               0
GRID*               5269               06.2969267903E-015.4113119296E-01+
*       7.4684358516E-01               0
GRID*               5270               06.8706220801E-015.8280071014E-01+
*       5.6967762980E-01               0
GRID*               5271               06.3013047102E-014.6131132825E-01+
*       7.9337462927E-01               0
GRID*               5272               05.9455047616E-014.0668131149E-01+
*       7.3821745202E-01               0
GRID*               5273               05.9968094718E-014.8799264451E-01+
*       7.8159208129E-01               0
GRID*               5274               05.9411268416E-014.8650117621E-01+
*       6.9168640791E-01               0
GRID*               5275               0-1.040760479E+00-5.588021420E-01+
*       -1.394615298E-01               0
GRID*               5276               0-1.151857265E+00-7.228498784E-01+
*       -1.358255536E-01               0
GRID*               5277               0-1.151857269E+00-7.228498907E-01+
*       -9.415888729E-02               0
GRID*               5278               0-1.150053973E+00-6.872587183E-01+
*       -1.348837322E-01               0
GRID*               5279               0-1.183026187E+00-6.987265053E-01+
*       -1.040426163E-01               0
GRID*               5280               06.9263047102E-015.1462172173E-01+
*       7.6624912106E-01               0
GRID*               5281               06.9263047102E-015.7587024644E-01+
*       8.0587276029E-01               0
GRID*               5282               06.8706220801E-015.1313025343E-01+
*       6.7634344768E-01               0
GRID*               5283               05.6422677026E-01-6.206018181E-01+
*       9.5167577836E-01               0
GRID*               5284               05.6406815097E-01-5.265359570E-01+
*       9.8295800529E-01               0
GRID*               5285               05.7124825439E-01-5.116881059E-01+
*       1.1581299398E+00               0
GRID*               5286               06.1832750363E-01-5.933849084E-01+
*       9.1308084205E-01               0
GRID*               5287               06.1816888434E-01-4.993190472E-01+
*       9.4436306898E-01               0
GRID*               5288               05.8460154988E-01-4.794853687E-01+
*       8.7721249471E-01               0
GRID*               5289               05.9456896747E-01-4.322053393E-01+
*       9.8170301469E-01               0
GRID*               5290               0-1.151873392E+00-7.443773738E-01+
*       -1.354535442E-01               0
GRID*               5291               0-1.136466113E+00-7.460361943E-01+
*       -2.123031740E-02               0
GRID*               5292               01.1502572741E+00-6.873722624E-01+
*       -1.573670162E-01               0
GRID*               5293               01.1831177085E+00-6.997440771E-01+
*       -1.481410778E-01               0
GRID*               5294               01.1517368767E+00-7.237297309E-01+
*       -1.574402470E-01               0
GRID*               5295               01.1357580498E+00-7.093558661E-01+
*       -1.880672093E-01               0
GRID*               5296               01.1671388815E+00-6.853702124E-01+
*       -1.787680401E-01               0
GRID*               5297               01.1686184841E+00-7.217276809E-01+
*       -1.788412709E-01               0
GRID*               5298               01.2324831250E+00-6.759928428E-01+
*       -2.190750442E-01               0
GRID*               5299               01.1824566074E+00-6.295183328E-01+
*       -2.190750442E-01               0
GRID*               5300               01.1997026198E+00-6.807563705E-01+
*       -2.190750442E-01               0
GRID*               5301               05.9316418877E-01-3.756816206E-01+
*       9.1229781216E-01               0
GRID*               5302               08.8477124864E-016.7476787616E-01+
*       -2.172700611E-02               0
GRID*               5303               09.0747568924E-016.4354106675E-01+
*       -2.172700611E-02               0
GRID*               5304               06.8922677026E-01-5.820866067E-01+
*       1.0357139466E+00               0
GRID*               5305               06.9624825439E-01-5.350704668E-01+
*       1.1271164961E+00               0
GRID*               5306               06.8906815097E-01-4.880207456E-01+
*       1.0669961735E+00               0
GRID*               5307               09.4799528662E-016.2713711717E-01+
*       -2.100907807E-02               0
GRID*               5308               09.4799418572E-016.2713801387E-01+
*       -6.267588955E-02               0
GRID*               5309               08.5992356999E-01-7.403689700E-01+
*       -2.285808504E-01               0
GRID*               5310               06.8922677026E-01-6.057837945E-01+
*       9.6847583047E-01               0
GRID*               5311               06.8906815097E-01-5.117179334E-01+
*       9.9975805740E-01               0
GRID*               5312               0-6.906818454E-01-8.317399377E-01+
*       1.1389586120E+00               0
GRID*               5313               0-5.656818454E-01-7.574609006E-01+
*       1.1400531741E+00               0
GRID*               5314               0-5.656818454E-01-7.836817691E-01+
*       1.0769016968E+00               0
GRID*               5315               0-5.633458737E-01-6.854938023E-01+
*       9.4906308520E-01               0
GRID*               5316               0-6.240466124E-01-7.244889482E-01+
*       9.5363694757E-01               0
GRID*               5317               0-5.607007387E-01-7.510487119E-01+
*       9.4756684269E-01               0
GRID*               5318               0-5.656818454E-01-7.372824637E-01+
*       1.0185133145E+00               0
GRID*               5319               0-6.263825841E-01-7.762776097E-01+
*       1.0230871769E+00               0
GRID*               5320               0-5.607007387E-01-7.974480173E-01+
*       1.0059552250E+00               0
GRID*               5321               05.3085520290E-01-9.544438404E-01+
*       8.9587780748E-01               0
GRID*               5322               05.3085520290E-01-8.914558004E-01+
*       8.4879337181E-01               0
GRID*               5323               05.3085520290E-01-8.843034694E-01+
*       9.1850484102E-01               0
GRID*               5324               0-6.232005050E-01-8.602661430E-01+
*       1.0342308121E+00               0
GRID*               5325               0-6.556412798E-01-9.056538216E-01+
*       1.1004963439E+00               0
GRID*               5326               0-6.588233589E-01-8.216652883E-01+
*       1.0893527087E+00               0
GRID*               5327               0-6.538422522E-01-8.354315364E-01+
*       1.0184062369E+00               0
GRID*               5328               0-5.688604811E-015.1503143602E-01+
*       1.2358906628E+00               0
GRID*               5329               0-6.250492046E-015.3436512980E-01+
*       1.2770628598E+00               0
GRID*               5330               0-6.560793995E-015.5752168919E-01+
*       1.5472969664E+00               0
GRID*               5331               0-6.497680681E-015.3807497870E-01+
*       1.4498584203E+00               0
GRID*               5332               0-6.542019011E-014.7761650291E-01+
*       1.4848945222E+00               0
GRID*               5333               0-6.277785861E-013.5657734393E-01+
*       1.4027948832E+00               0
GRID*               5334               0-6.856225565E-014.7388489131E-01+
*       1.4579559139E+00               0
GRID*               5335               0-6.856225565E-014.2393285441E-01+
*       1.4104111796E+00               0
GRID*               5336               0-6.811887235E-015.3434336710E-01+
*       1.4229198121E+00               0
GRID*               5337               0-6.921560296E-013.7700080239E-01+
*       1.3617720273E+00               0
GRID*               5338               0-6.121115852E-014.1272331981E-01+
*       1.3511582322E+00               0
GRID*               5339               0-6.186450584E-013.6579126779E-01+
*       1.3025190799E+00               0
GRID*               5340               05.3126354634E-01-2.746680106E-01+
*       1.0507500513E+00               0
GRID*               5341               05.9376500800E-01-2.746635571E-01+
*       1.0507536984E+00               0
GRID*               5342               05.6238024345E-01-2.735360526E-01+
*       1.0829434660E+00               0
GRID*               5343               07.1832536759E-01-2.468232421E-01+
*       1.0706924844E+00               0
GRID*               5344               06.5582459830E-01-2.013314858E-01+
*       1.0999289678E+00               0
GRID*               5345               06.5582682924E-01-2.468187886E-01+
*       1.0706961315E+00               0
GRID*               5346               07.1947239998E-01-3.339213929E-01+
*       9.9086264647E-01               0
GRID*               5347               06.5697216209E-01-3.339218245E-01+
*       9.9086183385E-01               0
GRID*               5348               06.8904390957E-01-3.631242701E-01+
*       9.9331574470E-01               0
GRID*               5349               05.1068678227E-018.2275121004E-01+
*       -7.228301214E-02               0
GRID*               5350               05.3532749886E-018.6017430776E-01+
*       -9.761085744E-02               0
GRID*               5351               0-6.899546040E-01-3.312765241E-01+
*       1.6866098448E-01               0
GRID*               5352               0-6.899546040E-01-3.918722921E-01+
*       2.2637028619E-01               0
GRID*               5353               0-2.756303789E-017.3493582084E-01+
*       -1.845929740E-01               0
GRID*               5354               0-3.174014611E-016.7561568418E-01+
*       -1.845929740E-01               0
GRID*               5355               05.6255536249E-016.9730361151E-01+
*       7.4179367515E-02               0
GRID*               5356               06.5854055095E-01-4.001028023E-01+
*       1.0375677172E+00               0
GRID*               5357               06.5863966055E-01-4.150604855E-01+
*       1.0046016164E+00               0
GRID*               5358               05.6347503037E-015.6056160778E-01+
*       4.6605746516E-01               0
GRID*               5359               06.3268499531E-015.1314626798E-01+
*       4.3826090302E-01               0
GRID*               5360               06.3049121225E-016.2322161439E-01+
*       4.4108419872E-01               0
GRID*               5361               06.8706008666E-01-2.772080131E-01+
*       1.0867129198E+00               0
GRID*               5362               05.6190095590E-015.2347420109E-01+
*       4.8103396642E-01               0
GRID*               5363               06.3111092085E-014.7605886129E-01+
*       4.5323740428E-01               0
GRID*               5364               06.2537598627E-015.4300589391E-01+
*       4.8824239371E-01               0
GRID*               5365               06.2863076272E-01-4.347568612E-02+
*       1.2049627125E+00               0
GRID*               5366               06.3201170311E-01-1.351592379E-01+
*       1.2573964738E+00               0
GRID*               5367               06.2838353029E-01-1.457529619E-01+
*       1.1785659879E+00               0
GRID*               5368               06.5933214847E-01-6.290633337E-02+
*       1.2267251752E+00               0
GRID*               5369               06.5908491603E-01-1.651836092E-01+
*       1.2003284506E+00               0
GRID*               5370               05.6480044450E-014.3732299919E-01+
*       2.5582308194E-01               0
GRID*               5371               05.6326210037E-015.0801340215E-01+
*       3.0948619819E-01               0
GRID*               5372               06.3247206531E-014.8386263686E-01+
*       3.4694959604E-01               0
GRID*               5373               06.2806254487E-014.5083563541E-01+
*       2.3698016222E-01               0
GRID*               5374               0-5.603174970E-01-2.253261242E-01+
*       1.3431860986E+00               0
GRID*               5375               0-5.603174970E-01-1.615351617E-01+
*       1.3567412146E+00               0
GRID*               5376               06.3170972704E-013.8293815498E-01+
*       4.7390704876E-01               0
GRID*               5377               06.3171142660E-013.4751830068E-01+
*       4.3303237658E-01               0
GRID*               5378               05.9331297447E-013.2323459638E-01+
*       4.9874501893E-01               0
GRID*               5379               06.0002317731E-013.8649567676E-01+
*       4.2809388376E-01               0
GRID*               5380               05.9331467402E-012.8781474208E-01+
*       4.5787034675E-01               0
GRID*               5381               06.5310934899E-012.5574746266E-01+
*       4.3100548900E-01               0
GRID*               5382               06.5981785228E-013.5442839734E-01+
*       4.0122902601E-01               0
GRID*               5383               06.5577644523E-012.8036809331E-01+
*       4.5435500830E-01               0
GRID*               5384               06.8388287091E-012.8727818998E-01+
*       4.2255165772E-01               0
GRID*               5385               06.6248494852E-013.7904902799E-01+
*       4.2457854531E-01               0
GRID*               5386               06.9420996494E-013.5923477957E-01+
*       3.7227227349E-01               0
GRID*               5387               06.8980044450E-013.2620777812E-01+
*       2.6230283967E-01               0
GRID*               5388               0-5.750075261E-01-8.309394443E-02+
*       1.3659934047E+00               0
GRID*               5389               06.1150561071E-01-3.578808182E-01+
*       -2.000636003E-01               0
GRID*               5390               0-8.695402357E-01-6.969980547E-01+
*       -1.880353489E-01               0
GRID*               5391               0-8.378430148E-01-6.864611655E-01+
*       -1.691741651E-01               0
GRID*               5392               0-8.494263683E-01-7.008210462E-01+
*       -1.478050016E-01               0
GRID*               5393               0-8.608524257E-01-7.247971766E-01+
*       -1.869960255E-01               0
GRID*               5394               0-8.492690722E-01-7.104372959E-01+
*       -2.083651891E-01               0
GRID*               5395               0-8.291552047E-01-7.142602874E-01+
*       -1.681348417E-01               0
GRID*               5396               0-9.518753854E-015.8541181088E-01+
*       -1.466189715E-01               0
GRID*               5397               0-1.025320152E+005.5157740139E-01+
*       -1.414249712E-01               0
GRID*               5398               0-9.859691583E-016.0963225503E-01+
*       -1.867399419E-01               0
GRID*               5399               0-9.379174633E-015.7004404461E-01+
*       -1.666922468E-01               0
GRID*               5400               0-1.011362230E+005.3620963512E-01+
*       -1.614982464E-01               0
GRID*               5401               06.9246979527E-018.0540807507E-01+
*       1.0133139544E+00               0
GRID*               5402               06.9246979527E-017.9675780260E-01+
*       1.0705600715E+00               0
GRID*               5403               05.7264840468E-01-5.634194507E-01+
*       1.6728080640E-01               0
GRID*               5404               05.7264840468E-01-5.915398054E-01+
*       1.0518523463E-01               0
GRID*               5405               06.9246979527E-017.4618351444E-01+
*       1.1070621924E+00               0
GRID*               5406               05.7137425787E-01-4.749627973E-01+
*       1.7758371392E-01               0
GRID*               5407               05.6382045068E-01-5.317470100E-01+
*       2.2902488506E-01               0
GRID*               5408               06.3646885537E-01-5.426873711E-01+
*       1.4440715132E-01               0
GRID*               5409               06.3519470855E-01-4.542307177E-01+
*       1.5471005884E-01               0
GRID*               5410               05.5602510259E-017.5701061683E-01+
*       9.3496001965E-01               0
GRID*               5411               06.3410569778E-01-4.194493356E-01+
*       1.6503567944E-01               0
GRID*               5412               05.7137425787E-01-4.054426830E-01+
*       1.9466145521E-01               0
GRID*               5413               06.3302919937E-01-3.903680475E-01+
*       1.9808772240E-01               0
GRID*               5414               08.1951182671E-01-8.429802119E-01+
*       -1.075605082E-01               0
GRID*               5415               0-5.531949949E-01-1.575318037E-01+
*       -1.975270219E-01               0
GRID*               5416               0-5.200256988E-01-2.278098289E-01+
*       -1.975270219E-01               0
GRID*               5417               0-5.109163312E-01-1.439887453E-01+
*       -1.275185764E-01               0
GRID*               5418               05.3070645963E-019.1222394773E-01+
*       1.0658219286E+00               0
GRID*               5419               05.3083056946E-019.5978962227E-01+
*       8.5974401989E-01               0
GRID*               5420               05.3083056946E-018.8935898262E-01+
*       8.7508220588E-01               0
GRID*               5421               06.2996959545E-018.4656978191E-01+
*       1.0988368623E+00               0
GRID*               5422               06.2996998087E-018.6789642405E-01+
*       1.0304527293E+00               0
GRID*               5423               06.5678826699E-019.1609437367E-01+
*       1.0684863304E+00               0
GRID*               5424               06.6175826208E-018.3179095075E-01+
*       1.0519810963E+00               0
GRID*               5425               06.5678865241E-019.3742101580E-01+
*       1.0001021974E+00               0
GRID*               5426               0-5.837337691E-01-8.835458511E-02+
*       -1.975270219E-01               0
GRID*               5427               0-5.041531397E-01-8.031659825E-02+
*       -1.799915545E-01               0
GRID*               5428               0-5.452484803E-01-1.144749046E-01+
*       -7.252702191E-02               0
GRID*               5429               0-5.641611428E-01-1.012369375E-01+
*       -1.348673306E-01               0
GRID*               5430               0-4.029428398E-01-1.447111842E-01+
*       -5.499155446E-02               0
GRID*               5431               05.5021445416E-012.3589856247E-01+
*       4.2041497362E-02               0
GRID*               5432               05.5021445416E-012.7098487728E-01+
*       1.1732969725E-01               0
GRID*               5433               05.6480044450E-012.9905569779E-01+
*       2.3629057680E-01               0
GRID*               5434               05.6480044450E-013.4054354642E-01+
*       1.6694672287E-01               0
GRID*               5435               05.6480044450E-013.6771800561E-01+
*       2.4476793054E-01               0
GRID*               5436               0-8.954130965E-012.9050133584E-01+
*       -1.224122130E-01               0
GRID*               5437               0-8.956516872E-014.6238736688E-01+
*       -1.882856382E-01               0
GRID*               5438               0-7.727116912E-012.8905370757E-01+
*       -1.986426813E-01               0
GRID*               5439               0-7.638318101E-013.5522056128E-01+
*       -1.262697012E-01               0
GRID*               5440               0-7.838040830E-012.6565267749E-01+
*       -1.220187330E-01               0
GRID*               5441               0-5.572129086E-018.8400997328E-01+
*       -1.686255824E-01               0
GRID*               5442               0-7.974119671E-013.0305957876E-01+
*       -5.262701987E-02               0
GRID*               5443               0-7.164198429E-012.8293021329E-01+
*       -7.364268128E-02               0
GRID*               5444               0-7.177448460E-019.5969480943E-01+
*       1.7966160998E-02               0
GRID*               5445               0-7.177448460E-018.8277173251E-01+
*       1.7966160998E-02               0
GRID*               5446               0-6.808687561E-019.2039489681E-01+
*       -6.431471015E-03               0
GRID*               5447               0-4.781038168E-019.6868923141E-01+
*       -2.189102311E-01               0
GRID*               5448               0-5.118153468E-019.1093726046E-01+
*       -2.189102311E-01               0
GRID*               5449               0-3.084656026E-017.9871335553E-01+
*       -1.845929740E-01               0
GRID*               5450               0-2.688770107E-018.3378540757E-01+
*       -1.885045582E-01               0
GRID*               5451               0-2.793437277E-017.5376236985E-01+
*       -1.230975322E-01               0
GRID*               5452               0-2.360417869E-017.7000787287E-01+
*       -1.885045582E-01               0
GRID*               5453               0-4.026514789E-016.1968216495E-01+
*       -1.963506989E-01               0
GRID*               5454               0-3.178801273E-015.9392645012E-01+
*       -1.835749723E-01               0
GRID*               5455               0-4.698087524E-018.0909811808E-01+
*       -7.392710582E-02               0
GRID*               5456               0-4.548658270E-018.4576873982E-01+
*       -1.040520120E-01               0
GRID*               5457               0-5.358534131E-018.7261493946E-01+
*       -1.054357393E-01               0
GRID*               5458               0-3.429556792E-018.0983412131E-01+
*       -5.959297399E-02               0
GRID*               5459               0-2.832245458E-017.7322243195E-01+
*       -5.959297399E-02               0
GRID*               5460               0-6.892348792E-014.0716014786E-01+
*       -1.986426813E-01               0
GRID*               5461               0-6.707095974E-014.9701920834E-01+
*       -2.023525060E-01               0
GRID*               5462               0-7.702270034E-014.2728951334E-01+
*       -1.776270199E-01               0
GRID*               5463               0-7.974119671E-013.7998265568E-01+
*       -5.262701987E-02               0
GRID*               5464               06.1515977223E-019.3729676541E-01+
*       6.1953336803E-01               0
GRID*               5465               06.7766547373E-019.3729676541E-01+
*       5.9023849440E-01               0
GRID*               5466               07.1853502961E-019.6777492199E-01+
*       6.2968644207E-01               0
GRID*               5467               06.5602932811E-019.6777492199E-01+
*       6.5898131569E-01               0
GRID*               5468               06.4620050334E-019.0507168740E-01+
*       6.1992493647E-01               0
GRID*               5469               06.1852601264E-018.9892840758E-01+
*       8.8375101944E-01               0
GRID*               5470               06.2504407394E-019.3505324640E-01+
*       7.8411411068E-01               0
GRID*               5471               06.5577104141E-019.6187036926E-01+
*       8.3152571519E-01               0
GRID*               5472               06.4929523395E-018.6490962835E-01+
*       8.7470175788E-01               0
GRID*               5473               06.5581329525E-019.0103446717E-01+
*       7.7506484912E-01               0
GRID*               5474               06.1513629481E-019.3729676541E-01+
*       5.5152136124E-01               0
GRID*               5475               06.2170704276E-019.2866744652E-01+
*       4.7012727432E-01               0
GRID*               5476               06.5599966128E-019.6852066419E-01+
*       5.1946484962E-01               0
GRID*               5477               06.4619431393E-019.0581742960E-01+
*       5.4842047719E-01               0
GRID*               5478               06.5276506188E-018.9718811071E-01+
*       4.6702639026E-01               0
GRID*               5479               0-3.688081952E-018.2538939163E-01+
*       -1.989271058E-01               0
GRID*               5480               0-3.161286152E-018.8296719079E-01+
*       -1.867302301E-01               0
GRID*               5481               0-3.869379248E-018.2962018917E-01+
*       -1.356573359E-01               0
GRID*               5482               0-3.265953322E-018.0294415307E-01+
*       -1.213232041E-01               0
GRID*               5483               0-4.185465939E-019.1023650721E-01+
*       -3.012490613E-02               0
GRID*               5484               05.5266547373E-018.3341996538E-01+
*       5.2044740624E-01               0
GRID*               5485               05.5923622168E-018.7060602140E-01+
*       4.6933177734E-01               0
GRID*               5486               05.5266547373E-018.7923534029E-01+
*       5.5072586426E-01               0
GRID*               5487               06.3695573596E-01-1.426777356E-01+
*       1.4005112189E+00               0
GRID*               5488               09.6160489837E-01-8.816870367E-01+
*       -2.133363811E-02               0
GRID*               5489               09.6160489862E-01-8.816870366E-01+
*       -6.300030479E-02               0
GRID*               5490               09.9048025714E-01-8.907081564E-01+
*       -2.082932936E-02               0
GRID*               5491               09.5201219573E-01-8.973952143E-01+
*       -4.216296747E-02               0
GRID*               5492               06.8521316061E-01-8.111232357E-02+
*       1.3744127834E+00               0
GRID*               5493               07.0174257535E-01-1.902829477E-01+
*       1.4167567645E+00               0
GRID*               5494               0-4.538005033E-01-4.816121144E-01+
*       -1.923160879E-01               0
GRID*               5495               0-3.702999781E-01-3.333583406E-01+
*       -6.976193167E-02               0
GRID*               5496               0-6.826713677E-01-2.427830904E-01+
*       1.1974124230E+00               0
GRID*               5497               07.1889402624E-01-6.727978926E-01+
*       1.4515138156E+00               0
GRID*               5498               06.8765959947E-01-6.220662842E-01+
*       1.4388343499E+00               0
GRID*               5499               06.5639338948E-01-6.463597015E-01+
*       1.4779520320E+00               0
GRID*               5500               0-5.620664395E-01-3.473416293E-01+
*       4.3723305530E-04               0
GRID*               5501               0-5.280204288E-01-2.460680227E-01+
*       -6.160709467E-02               0
GRID*               5502               0-5.280204288E-01-3.229910996E-01+
*       -6.160709467E-02               0
GRID*               5503               0-6.262209346E-01-2.923473960E-01+
*       -1.290788924E-01               0
GRID*               5504               07.0174257535E-01-2.757021551E-01+
*       1.3258231151E+00               0
GRID*               5505               06.4262481068E-01-2.229381322E-01+
*       1.3090123976E+00               0
GRID*               5506               06.9088223534E-01-2.902005366E-01+
*       1.2478104666E+00               0
GRID*               5507               06.8408887156E-01-3.796239103E-01+
*       1.2677519257E+00               0
GRID*               5508               06.3583144691E-01-3.123615058E-01+
*       1.3289538567E+00               0
GRID*               5509               06.2497110690E-01-3.268598874E-01+
*       1.2509412083E+00               0
GRID*               5510               0-5.618261346E-01-4.631210960E-01+
*       6.3754957578E-04               0
GRID*               5511               0-6.776633650E-01-5.025724389E-01+
*       -7.655713239E-02               0
GRID*               5512               0-3.081907377E-01-6.098442249E-01+
*       -6.731608787E-02               0
GRID*               5513               0-2.061656034E-01-6.804799289E-01+
*       -5.190440938E-02               0
GRID*               5514               06.9088223534E-01-2.251636826E-01+
*       1.2693588461E+00               0
GRID*               5515               0-9.210556672E-01-4.778427519E-01+
*       -1.817527080E-01               0
GRID*               5516               0-9.548663946E-01-5.466924001E-01+
*       -1.826852292E-01               0
GRID*               5517               0-8.930239717E-01-5.503290558E-01+
*       -1.950782973E-01               0
GRID*               5518               0-8.667586245E-017.3332640301E-01+
*       -2.293778974E-01               0
GRID*               5519               0-8.667699102E-017.7192983318E-01+
*       -2.293778974E-01               0
GRID*               5520               0-8.667591249E-017.3332515667E-01+
*       -1.877113862E-01               0
GRID*               5521               0-6.865647632E-01-9.458148928E-02+
*       1.2509590189E+00               0
GRID*               5522               0-6.865647632E-01-1.065671609E-01+
*       1.3139599642E+00               0
GRID*               5523               0-6.192361309E-01-1.478116930E-01+
*       1.2493673227E+00               0
GRID*               5524               01.0299338242E+00-5.416207120E-01+
*       -1.629886090E-01               0
GRID*               5525               01.0383696568E+00-5.759783591E-01+
*       -1.433618344E-01               0
GRID*               5526               01.0160515262E+00-6.041156046E-01+
*       -1.870416814E-01               0
GRID*               5527               01.0076156936E+00-5.697579576E-01+
*       -2.066684560E-01               0
GRID*               5528               01.0544211829E+00-5.550939637E-01+
*       -1.637368491E-01               0
GRID*               5529               0-6.853174970E-01-2.437992447E-01+
*       1.3398096545E+00               0
GRID*               5530               0-6.179888647E-01-2.363855186E-01+
*       1.3044021423E+00               0
GRID*               5531               0-6.853174970E-01-1.951409865E-01+
*       1.3689947838E+00               0
GRID*               5532               0-5.615647632E-01-7.296133608E-02+
*       1.3017063950E+00               0
GRID*               5533               0-6.218822601E-01-1.491875713E-01+
*       1.3236194345E+00               0
GRID*               5534               0-5.576713677E-01-2.239502460E-01+
*       1.2689339868E+00               0
GRID*               5535               0-5.576713677E-01-2.889871000E-01+
*       1.2473856073E+00               0
GRID*               5536               01.0160515262E+00-6.041156046E-01+
*       -2.287083480E-01               0
GRID*               5537               06.9696027031E-013.7130922294E-01+
*       1.1758911884E+00               0
GRID*               5538               06.8876811277E-014.6262652996E-01+
*       1.0995614500E+00               0
GRID*               5539               06.8876811277E-013.9998964337E-01+
*       1.0688364373E+00               0
GRID*               5540               06.3572838308E-014.1933488448E-01+
*       1.1590120099E+00               0
GRID*               5541               06.1386891763E-011.6205096237E-01+
*       1.4733220753E+00               0
GRID*               5542               05.7740887023E-018.9592089802E-02+
*       1.3664191310E+00               0
GRID*               5543               05.5165768649E-012.0090098953E-01+
*       1.4148468520E+00               0
GRID*               5544               05.5165768649E-011.5749238155E-01+
*       1.3590166981E+00               0
GRID*               5545               05.3057052383E-01-9.659974818E-01+
*       1.8379076635E-01               0
GRID*               5546               05.3057052383E-01-9.659974818E-01+
*       2.5879076635E-01               0
GRID*               5547               05.3104372276E-01-9.707568022E-01+
*       3.3386926596E-01               0
GRID*               5548               05.9324203441E-01-9.707568022E-01+
*       2.9609773271E-01               0
GRID*               5549               06.2634717181E-013.4684739787E-01+
*       1.1432388969E+00               0
GRID*               5550               06.2626665112E-013.4842634268E-01+
*       1.0445742159E+00               0
GRID*               5551               05.9449550215E-012.7970098424E-01+
*       1.0528129132E+00               0
GRID*               5552               05.9457602284E-012.7812203943E-01+
*       1.1514775942E+00               0
GRID*               5553               05.9576507658E-013.7928994648E-01+
*       1.0601959560E+00               0
GRID*               5554               0-6.764890288E-013.8245090385E-01+
*       1.2577518050E+00               0
GRID*               5555               07.1855951861E-014.8125539182E-01+
*       1.5841772029E+00               0
GRID*               5556               0-6.527327537E-011.5502396088E-01+
*       1.5933407375E+00               0
GRID*               5557               0-5.606225565E-014.4729811290E-01+
*       1.4521489408E+00               0
GRID*               5558               05.5573058555E-01-4.556375670E-01+
*       1.5350390902E+00               0
GRID*               5559               05.3091144835E-01-5.132527678E-01+
*       1.5647579752E+00               0
GRID*               5560               0-6.834933971E-013.9716554265E-02+
*       1.5706796631E+00               0
GRID*               5561               0-7.197118848E-016.8653325058E-02+
*       1.7080180242E+00               0
GRID*               5562               0-6.572118848E-013.1288292603E-02+
*       1.7094163561E+00               0
GRID*               5563               0-7.190199202E-013.1948388383E-02+
*       1.7102520934E+00               0
GRID*               5564               0-6.887318050E-012.5871648532E-02+
*       1.6710667814E+00               0
GRID*               5565               0-6.565199202E-01-5.416644071E-03+
*       1.7116504253E+00               0
GRID*               5566               05.5573058555E-01-3.857573559E-01+
*       1.4903251014E+00               0
GRID*               5567               05.5778592889E-01-5.738780190E-01+
*       1.4576993824E+00               0
GRID*               5568               05.3091144835E-01-5.749976296E-01+
*       1.5226610113E+00               0
GRID*               5569               06.1813701791E-01-3.629576496E-01+
*       1.4997577760E+00               0
GRID*               5570               05.6240643236E-01-3.374396318E-01+
*       1.5360296989E+00               0
GRID*               5571               05.3262649632E-01-3.780517589E-01+
*       1.5586167171E+00               0
GRID*               5572               05.8835708187E-01-4.035697767E-01+
*       1.5223447942E+00               0
GRID*               5573               05.9503292868E-01-3.552520526E-01+
*       1.5680493917E+00               0
GRID*               5574               0-6.677566806E-01-1.266678011E-01+
*       1.5931044463E+00               0
GRID*               5575               06.8073058555E-01-3.593394840E-01+
*       1.4332139850E+00               0
GRID*               5576               06.3247316089E-01-3.098575621E-01+
*       1.4205391123E+00               0
GRID*               5577               07.0174257535E-01-2.579216725E-01+
*       1.3996999188E+00               0
GRID*               5578               06.8408887156E-01-3.618434277E-01+
*       1.3416287295E+00               0
GRID*               5579               06.1481945711E-01-4.137793173E-01+
*       1.3624679229E+00               0
GRID*               5580               0-6.830605738E-014.4362266484E-01+
*       4.7658086499E-01               0
GRID*               5581               0-6.830605738E-014.1915331140E-01+
*       4.1585360226E-01               0
GRID*               5582               06.2028598372E-01-5.437931612E-01+
*       1.4799033073E+00               0
GRID*               5583               06.1823064038E-01-4.872975711E-01+
*       1.5151460512E+00               0
GRID*               5584               06.5128702300E-01-5.380592398E-01+
*       1.4510814193E+00               0
GRID*               5585               06.4923167965E-01-4.815636497E-01+
*       1.4863241632E+00               0
GRID*               5586               05.5573058555E-01-3.879146679E-01+
*       1.4144299850E+00               0
GRID*               5587               05.5778592889E-01-4.444102580E-01+
*       1.3791872411E+00               0
GRID*               5588               05.5908887156E-01-3.904186116E-01+
*       1.3228447294E+00               0
GRID*               5589               06.1687480045E-01-4.702749075E-01+
*       1.3272251790E+00               0
GRID*               5590               0-6.966254467E-013.7795067645E-01+
*       5.5873672241E-01               0
GRID*               5591               0-6.654720397E-013.3361204070E-01+
*       5.2896566423E-01               0
GRID*               5592               06.8073058555E-01-4.777678796E-01+
*       1.4592654859E+00               0
GRID*               5593               06.8073058555E-01-4.278158420E-01+
*       1.4117207520E+00               0
GRID*               5594               06.8278592889E-01-4.843114321E-01+
*       1.3764780081E+00               0
GRID*               5595               06.8278592889E-01-5.342634698E-01+
*       1.4240227420E+00               0
GRID*               5596               0-7.236909120E-014.2144484073E-01+
*       5.4199344738E-01               0
GRID*               5597               0-7.236909120E-013.9697548728E-01+
*       4.8126618464E-01               0
GRID*               5598               0-6.567514858E-014.1464463429E-01+
*       4.5238089857E-01               0
GRID*               5599               0-5.546749241E-015.9664931641E-01+
*       4.0426642861E-01               0
GRID*               5600               0-5.638916769E-015.7353653579E-01+
*       4.6042161834E-01               0
GRID*               5601               0-5.618186421E-01-8.144212260E-01+
*       8.7052280523E-01               0
GRID*               5602               0-5.681079222E-01-8.747214987E-01+
*       8.5244007229E-01               0
GRID*               5603               0-6.288086609E-01-8.457588012E-01+
*       8.6365113051E-01               0
GRID*               5604               0-6.561529779E-01-9.616558001E-01+
*       8.3225376283E-01               0
GRID*               5605               0-6.543528065E-01-8.587331548E-01+
*       8.8803662699E-01               0
GRID*               5606               0-6.617599900E-01-9.144480982E-01+
*       7.9954705244E-01               0
GRID*               5607               0-7.186107709E-013.9480285281E-01+
*       6.5711945854E-01               0
GRID*               5608               0-5.994226773E-01-9.113590295E-01+
*       8.3002061206E-01               0
GRID*               5609               0-5.920154938E-01-8.556440861E-01+
*       9.1851018662E-01               0
GRID*               5610               0-6.259471579E-01-6.637604818E-01+
*       8.3064579193E-01               0
GRID*               5611               0-6.269415302E-01-6.705341054E-01+
*       7.5043659959E-01               0
GRID*               5612               0-5.623577886E-014.6547687158E-01+
*       5.4997672790E-01               0
GRID*               5613               0-6.262494655E-015.4623003992E-01+
*       5.4444186278E-01               0
GRID*               5614               0-5.681079222E-01-9.507368723E-01+
*       7.6258077798E-01               0
GRID*               5615               0-5.987800596E-01-9.184991812E-01+
*       7.9722469529E-01               0
GRID*               5616               05.6257905904E-011.6549421180E-01+
*       1.2846743547E+00               0
GRID*               5617               05.6320216900E-019.6179798111E-02+
*       1.3105176794E+00               0
GRID*               5618               06.2578122804E-011.7636507714E-01+
*       1.2603638598E+00               0
GRID*               5619               06.4061103924E-011.0046295514E-01+
*       1.3421086362E+00               0
GRID*               5620               05.6612946777E-012.6213485334E-02+
*       1.3093106863E+00               0
GRID*               5621               05.6612946777E-014.6962947948E-02+
*       1.2476286147E+00               0
GRID*               5622               05.6130493437E-011.2654919133E-01+
*       1.2181258319E+00               0
GRID*               5623               05.6130493437E-011.0579972872E-01+
*       1.2798079035E+00               0
GRID*               5624               06.2743440214E-014.6704281277E-02+
*       1.2542904155E+00               0
GRID*               5625               0-6.891285157E-01-5.146478376E-01+
*       8.3905551831E-01               0
GRID*               5626               0-7.194191643E-013.3261568134E-01+
*       9.9084314824E-01               0
GRID*               5627               0-6.569189264E-013.3261611297E-01+
*       9.9084233563E-01               0
GRID*               5628               0-7.189895519E-013.4899944780E-01+
*       9.5853088958E-01               0
GRID*               5629               0-6.884087162E-013.6193892405E-01+
*       9.9393060001E-01               0
GRID*               5630               0-6.564893140E-013.4899987943E-01+
*       9.5853007697E-01               0
GRID*               5631               0-7.177949815E-013.6074424852E-01+
*       9.3361154024E-01               0
GRID*               5632               0-6.552947436E-013.6074468015E-01+
*       9.3361072763E-01               0
GRID*               5633               05.6612946777E-01-3.748169733E-02+
*       1.3171979005E+00               0
GRID*               5634               05.7740887023E-012.5896907136E-02+
*       1.3743063452E+00               0
GRID*               5635               06.8721123114E-015.8683810647E-02+
*       1.5831693338E+00               0
GRID*               5636               0-2.770697671E-01-1.539625075E-02+
*       -6.782855200E-02               0
GRID*               5637               0-2.144441221E-01-5.373906016E-02+
*       -6.782855200E-02               0
GRID*               5638               0-2.748160505E-01-1.098386886E-01+
*       -5.966326884E-02               0
GRID*               5639               0-6.567847363E-011.4228413714E-01+
*       3.6999841410E-01               0
GRID*               5640               0-7.192839670E-011.4228148262E-01+
*       3.6999699095E-01               0
GRID*               5641               0-7.159014053E-011.7367850639E-01+
*       3.7567515792E-01               0
GRID*               5642               0-6.534021746E-011.7368116091E-01+
*       3.7567658106E-01               0
GRID*               5643               0-6.851853723E-011.5810252854E-01+
*       3.4133184403E-01               0
GRID*               5644               0-5.337815984E-01-2.098652417E-01+
*       -1.351712768E-01               0
GRID*               5645               0-5.732689091E-01-2.066967734E-01+
*       -1.341341166E-01               0
GRID*               5646               0-6.600266405E-01-3.555543155E-01+
*       -6.683424814E-02               0
GRID*               5647               0-6.144894996E-01-4.272319964E-01+
*       -7.591958281E-02               0
GRID*               5648               0-6.644919103E-01-5.784717339E-02+
*       -1.904890629E-01               0
GRID*               5649               0-7.215185434E-017.7309357036E-03+
*       -1.412858316E-01               0
GRID*               5650               0-7.290140331E-01-7.406310305E-02+
*       -2.007967687E-01               0
GRID*               5651               0-7.239345296E-01-1.499887528E-01+
*       -1.881030092E-01               0
GRID*               5652               0-1.075143597E+001.9535586460E-03+
*       -5.689655849E-02               0
GRID*               5653               0-1.089872962E+00-6.401504404E-02+
*       -6.384096535E-02               0
GRID*               5654               0-6.169834990E-01-3.677863313E-04+
*       -1.904890629E-01               0
GRID*               5655               0-3.647265080E-01-2.677750360E-01+
*       -1.947619317E-01               0
GRID*               5656               0-6.602669454E-01-3.166979257E-01+
*       -6.703456466E-02               0
GRID*               5657               0-9.925424884E-016.0373288474E-01+
*       -2.139898711E-02               0
GRID*               5658               0-9.558337978E-016.1567601526E-01+
*       -2.139898711E-02               0
GRID*               5659               0-1.143841593E+004.3359956522E-01+
*       -2.191692168E-01               0
GRID*               5660               0-1.214673144E+004.1403620874E-01+
*       -2.191692168E-01               0
GRID*               5661               0-1.212470755E+003.7477752026E-01+
*       -2.190290137E-01               0
GRID*               5662               0-1.141639205E+003.9434087674E-01+
*       -2.190290137E-01               0
GRID*               5663               0-1.177143899E+004.0419834438E-01+
*       -1.881982304E-01               0
GRID*               5664               0-1.084750166E+001.7316214918E-02+
*       -1.818965585E-01               0
GRID*               5665               0-1.128566392E+00-2.374322832E-02+
*       -2.194943232E-01               0
GRID*               5666               0-1.109035333E+009.8610205287E-03+
*       -1.513908817E-01               0
GRID*               5667               0-1.168365206E+002.3064791035E-02+
*       -2.194943232E-01               0
GRID*               5668               01.1124689317E+001.8939756472E-01+
*       -6.745055242E-02               0
GRID*               5669               0-5.165535468E-01-2.645352829E-01+
*       -1.242513496E-01               0
GRID*               5670               0-6.872004124E-01-1.740643342E-01+
*       3.5461058494E-02               0
GRID*               5671               0-6.074488928E-01-1.346930849E-01+
*       -3.706596341E-02               0
GRID*               5672               0-1.124754951E+001.2169792787E-01+
*       -1.894832423E-01               0
GRID*               5673               0-1.090617676E+001.8582064642E-01+
*       -1.229235589E-01               0
GRID*               5674               0-1.099978155E+002.0907136942E-01+
*       -1.834403166E-01               0
GRID*               5675               0-1.152608568E+001.2441213274E-01+
*       -1.580193568E-01               0
GRID*               5676               0-1.127831771E+002.1178557429E-01+
*       -1.519764310E-01               0
GRID*               5677               08.5993483273E-01-7.790216226E-01+
*       -2.285808504E-01               0
GRID*               5678               0-1.182697236E+008.7685140898E-02+
*       -1.894832423E-01               0
GRID*               5679               0-1.129737256E+006.4483595148E-02+
*       -1.894832423E-01               0
GRID*               5680               0-1.073106566E+007.9256533851E-02+
*       -1.894832423E-01               0
GRID*               5681               0-1.070407383E+005.1279824642E-02+
*       -1.213798008E-01               0
GRID*               5682               0-6.375058029E-014.3626376245E-01+
*       -2.023525060E-01               0
GRID*               5683               06.8454232253E-011.5124519046E-01+
*       2.5500725677E-01               0
GRID*               5684               06.8278592889E-01-5.549888799E-01+
*       1.3560948852E+00               0
GRID*               5685               05.6513237464E-01-6.917881970E-01+
*       1.3692403367E+00               0
GRID*               5686               05.6513237464E-01-6.310985075E-01+
*       1.3376620762E+00               0
GRID*               5687               05.3123598527E-01-6.891000008E-01+
*       1.4271809167E+00               0
GRID*               5688               05.9636835992E-01-6.478364903E-01+
*       1.3662486785E+00               0
GRID*               5689               05.3123598527E-01-6.284103113E-01+
*       1.3956026561E+00               0
GRID*               5690               05.5778592889E-01-5.050127555E-01+
*       1.3412925654E+00               0
GRID*               5691               05.5778592889E-01-5.679694412E-01+
*       1.3752918722E+00               0
GRID*               5692               0-5.007261234E-012.6269806165E-01+
*       -6.421658882E-02               0
GRID*               5693               0-5.698008946E-012.7665719537E-01+
*       -2.661662047E-02               0
GRID*               5694               0-3.131274626E-013.0389830559E-01+
*       -5.991420237E-02               0
GRID*               5695               0-3.893452700E-013.6045271981E-01+
*       -5.218229918E-02               0
GRID*               5696               01.1956734526E+00-7.694189193E-02+
*       -1.842202640E-01               0
GRID*               5697               01.1956734526E+00-1.154034304E-01+
*       -1.217202640E-01               0
GRID*               5698               01.1956734526E+00-3.848035346E-02+
*       -1.217202640E-01               0
GRID*               5699               05.3137502121E-01-4.075228129E-01+
*       7.3684635217E-01               0
GRID*               5700               05.9387502121E-01-4.075228129E-01+
*       7.3684635217E-01               0
GRID*               5701               05.6322153618E-01-4.334294085E-01+
*       7.5625759142E-01               0
GRID*               5702               0-5.937675707E-018.4091555387E-01+
*       -1.268362551E-02               0
GRID*               5703               0-5.302496657E-018.8231594908E-01+
*       1.9593924746E-02               0
GRID*               5704               0-5.564076363E-019.2054614049E-01+
*       -5.014981583E-03               0
GRID*               5705               0-5.978592658E-018.3884746540E-01+
*       3.1519205562E-02               0
GRID*               5706               01.0610275893E+007.0755419054E-03+
*       -6.436989821E-02               0
GRID*               5707               01.1332425671E+00-3.857986961E-02+
*       -5.922026400E-02               0
GRID*               5708               01.1956734526E+00-7.694189193E-02+
*       -5.922026400E-02               0
GRID*               5709               01.2185177129E+00-1.151700322E-01+
*       -3.100978280E-02               0
GRID*               5710               01.1374257368E+00-1.182312266E-01+
*       -1.842202640E-01               0
GRID*               5711               01.2207459472E+00-1.162591962E-01+
*       -2.186516365E-01               0
GRID*               5712               01.1664193998E+00-1.162780112E-01+
*       -1.528719005E-01               0
GRID*               5713               07.1777875695E-01-3.984867528E-01+
*       6.8396871273E-01               0
GRID*               5714               06.5527875695E-01-4.061837730E-01+
*       7.3749769031E-01               0
GRID*               5715               06.5527793985E-01-3.984858108E-01+
*       6.8396563243E-01               0
GRID*               5716               09.9653365705E-01-2.897380459E-02+
*       -1.893698982E-01               0
GRID*               5717               01.0687486348E+00-7.462921610E-02+
*       -1.842202640E-01               0
GRID*               5718               0-6.555624772E-01-8.106985928E-01+
*       1.2858250339E+00               0
GRID*               5719               05.6588223534E-01-2.947002449E-01+
*       1.1583576856E+00               0
GRID*               5720               05.5908887156E-01-3.841236186E-01+
*       1.1782991447E+00               0
GRID*               5721               06.2995038630E-01-3.447377657E-01+
*       1.1399266691E+00               0
GRID*               5722               06.2315702253E-01-4.341611394E-01+
*       1.1598681282E+00               0
GRID*               5723               0-6.946295047E-01-6.874695279E-01+
*       1.3709561613E+00               0
GRID*               5724               06.9624825439E-01-4.584425883E-01+
*       1.1346560498E+00               0
GRID*               5725               06.8906815097E-01-4.113928672E-01+
*       1.0745357272E+00               0
GRID*               5726               06.9624825439E-01-5.138677285E-01+
*       1.1972324483E+00               0
GRID*               5727               06.2903418327E-01-5.352025070E-01+
*       1.2763309624E+00               0
GRID*               5728               06.8278592889E-01-5.029317753E-01+
*       1.3044691766E+00               0
GRID*               5729               06.8408887156E-01-4.489401289E-01+
*       1.2481266649E+00               0
GRID*               5730               06.3033712595E-01-4.812108606E-01+
*       1.2199884508E+00               0
GRID*               5731               0-5.696295047E-01-6.874695279E-01+
*       1.3709561613E+00               0
GRID*               5732               0-6.321301415E-01-6.610313367E-01+
*       1.3973943777E+00               0
GRID*               5733               0-5.227080418E-01-7.355206281E-01+
*       1.3949273583E+00               0
GRID*               5734               0-5.852089041E-01-7.599119211E-01+
*       1.3665837448E+00               0
GRID*               5735               0-5.923375465E-01-6.899384484E-01+
*       1.3357109447E+00               0
GRID*               5736               0-5.696295047E-01-6.137992771E-01+
*       1.3201809137E+00               0
GRID*               5737               0-6.370474338E-01-1.571254355E-01+
*       1.5487160028E+00               0
GRID*               5738               0-6.351030732E-01-1.671892197E-01+
*       1.5090995577E+00               0
GRID*               5739               05.3066337167E-01-3.756825626E-01+
*       9.1229473189E-01               0
GRID*               5740               05.6588223534E-01-3.003749372E-01+
*       1.2307004333E+00               0
GRID*               5741               06.9246979527E-018.3161743648E-01+
*       1.1331076018E+00               0
GRID*               5742               07.1907085780E-018.4857617190E-01+
*       1.1872654192E+00               0
GRID*               5743               06.2838369699E-01-2.431369427E-01+
*       1.1340954649E+00               0
GRID*               5744               06.5961695441E-01-2.735261673E-01+
*       1.1501122531E+00               0
GRID*               5745               06.5920760293E-01-2.411183595E-01+
*       1.1676004158E+00               0
GRID*               5746               05.5464357190E-016.7472689008E-01+
*       9.6589664857E-01               0
GRID*               5747               05.6746979527E-017.3715996299E-01+
*       1.0126623027E+00               0
GRID*               5748               05.6203151922E-018.7804370166E-01+
*       1.0531993945E+00               0
GRID*               5749               05.5464357190E-016.5062660443E-01+
*       1.0298630259E+00               0
GRID*               5750               05.6746979527E-017.1305967735E-01+
*       1.0766286800E+00               0
GRID*               5751               06.1762891478E-015.8957484766E-01+
*       1.0973743844E+00               0
GRID*               5752               05.6588223534E-01-1.949785449E-01+
*       1.2951675313E+00               0
GRID*               5753               05.6612946777E-01-9.270126909E-02+
*       1.3215642559E+00               0
GRID*               5754               05.7674257535E-01-1.804801633E-01+
*       1.3731801797E+00               0
GRID*               5755               05.3253951977E-01-3.030520559E-01+
*       1.5866181177E+00               0
GRID*               5756               05.6031322708E-01-2.963499309E-01+
*       1.5512048265E+00               0
GRID*               5757               05.3253951977E-01-3.056028885E-01+
*       1.6637564603E+00               0
GRID*               5758               0-6.902302658E-017.4880282605E-01+
*       7.6182943327E-01               0
GRID*               5759               05.3262649632E-01-4.479319701E-01+
*       1.6033307059E+00               0
GRID*               5760               05.5573058555E-01-3.246314537E-01+
*       1.4451013861E+00               0
GRID*               5761               06.1805283694E-01-3.319973581E-01+
*       1.4758873372E+00               0
GRID*               5762               0-6.976538539E-017.8842636608E-01+
*       8.6630350564E-01               0
GRID*               5763               0-6.902302658E-017.5358122843E-01+
*       8.2402136521E-01               0
GRID*               5764               0-6.709094442E-01-6.875837969E-01+
*       -1.984445248E-01               0
GRID*               5765               0-7.343502852E-01-5.775538826E-01+
*       -1.911142984E-01               0
GRID*               5766               0-8.337584898E-01-3.906398422E-01+
*       -5.675270802E-02               0
GRID*               5767               0-6.293292662E-01-8.952567801E-01+
*       6.8222620229E-01               0
GRID*               5768               0-5.681079222E-01-8.900179851E-01+
*       7.1675782600E-01               0
GRID*               5769               0-7.275727329E-01-4.525491458E-01+
*       -1.911142984E-01               0
GRID*               5770               06.1852528819E-018.8774707789E-01+
*       9.5275044629E-01               0
GRID*               5771               06.5641239640E-019.4745489659E-01+
*       9.3611380907E-01               0
GRID*               5772               06.4993731339E-018.6167548536E-01+
*       9.1029042491E-01               0
GRID*               5773               06.5641312085E-019.5863622627E-01+
*       8.6711438222E-01               0
GRID*               5774               05.5464357190E-016.3064740769E-01+
*       8.9398174505E-01               0
GRID*               5775               05.3130313910E-019.5078067028E-01+
*       9.2620846170E-01               0
GRID*               5776               05.3066699579E-019.5502745631E-01+
*       8.9271215569E-01               0
GRID*               5777               0-1.233540153E+008.1878278716E-01+
*       -2.189349814E-01               0
GRID*               5778               0-1.200755773E+007.4661095581E-01+
*       -2.189349814E-01               0
GRID*               5779               0-1.200761408E+008.0439881452E-01+
*       -2.189349814E-01               0
GRID*               5780               05.6254316389E-019.3710867215E-01+
*       7.3882662230E-01               0
GRID*               5781               06.2504316389E-019.3710867215E-01+
*       7.3882662230E-01               0
GRID*               5782               0-5.741198850E-01-7.742412131E-01+
*       3.3523576600E-01               0
GRID*               5783               0-6.351467040E-01-7.355414211E-01+
*       3.6276880273E-01               0
GRID*               5784               0-6.331639419E-01-7.278892386E-01+
*       2.9592605887E-01               0
GRID*               5785               06.8980044450E-013.8238030853E-01+
*       9.1658522981E-02               0
GRID*               5786               06.8980044450E-013.3619627708E-01+
*       1.7697623171E-01               0
GRID*               5787               06.8980044450E-014.2364348452E-01+
*       1.6096626111E-01               0
GRID*               5788               05.5954232253E-011.8382128907E-01+
*       2.5728596996E-01               0
GRID*               5789               05.5954232253E-012.2530913770E-01+
*       1.8794211603E-01               0
GRID*               5790               06.2434276704E-012.6491082373E-01+
*       2.0431243912E-01               0
GRID*               5791               05.6480044450E-014.2409076277E-01+
*       1.7391198567E-01               0
GRID*               5792               05.6085466087E-015.3089895617E-01+
*       2.8630185580E-01               0
GRID*               5793               0-5.741198850E-01-7.469040103E-01+
*       2.7557461154E-01               0
GRID*               5794               0-6.219097810E-01-6.657573432E-01+
*       1.7714051148E-01               0
GRID*               5795               05.6920996494E-014.0074500707E-01+
*       3.5473736436E-01               0
GRID*               5796               0-5.302496657E-018.9448971148E-01+
*       1.2497041227E-01               0
GRID*               5797               0-5.302496657E-019.5923902600E-01+
*       1.9593924746E-02               0
GRID*               5798               0-6.840440568E-01-6.606270217E-01+
*       2.5422634919E-01               0
GRID*               5799               0-6.840440568E-01-6.994971416E-01+
*       2.1079021099E-01               0
GRID*               5800               0-5.610268190E-01-6.492857751E-01+
*       3.7966611725E-01               0
GRID*               5801               0-8.115538295E-025.5876859003E-03+
*       -5.350092964E-02               0
GRID*               5802               0-1.520522077E-01-1.538654802E-02+
*       -6.782855200E-02               0
GRID*               5803               0-6.840440568E-01-7.094569624E-01+
*       2.8182248988E-01               0
GRID*               5804               0-6.991198850E-01-7.769840641E-01+
*       2.9972261923E-01               0
GRID*               5805               0-6.991198850E-01-7.205764010E-01+
*       3.2811539271E-01               0
GRID*               5806               0-8.544552734E-031.8282963334E-01+
*       -1.953619272E-01               0
GRID*               5807               0-8.323744382E-021.8878583760E-01+
*       -1.953619272E-01               0
GRID*               5808               0-4.938832394E-021.1904646695E-01+
*       -1.953619272E-01               0
GRID*               5809               07.0028895605E-01-9.410439897E-01+
*       -1.064898456E-01               0
GRID*               5810               07.0288545346E-01-9.096296439E-01+
*       -1.314345528E-01               0
GRID*               5811               08.8446124853E-01-8.161455252E-01+
*       -2.296690151E-01               0
GRID*               5812               09.0716570771E-01-8.473723302E-01+
*       -2.296690151E-01               0
GRID*               5813               09.0716489768E-01-8.473716682E-01+
*       -1.880024556E-01               0
GRID*               5814               09.1474547839E-01-8.650154820E-01+
*       -1.874201082E-01               0
GRID*               5815               08.6341495583E-01-8.735645092E-01+
*       -1.893362717E-01               0
GRID*               5816               08.9536557530E-01-8.612475207E-01+
*       -2.087556828E-01               0
GRID*               5817               08.5583437513E-01-8.559206954E-01+
*       -1.899186190E-01               0
GRID*               5818               0-7.677922299E-017.4836910894E-01+
*       -1.949822347E-01               0
GRID*               5819               0-5.525338497E-015.6709270391E-01+
*       1.6773974587E-01               0
GRID*               5820               0-5.620304199E-014.7864344312E-01+
*       1.7870750258E-01               0
GRID*               5821               0-5.627659688E-015.3084877164E-01+
*       2.3119136287E-01               0
GRID*               5822               0-6.152998185E-015.4546238784E-01+
*       1.4703257127E-01               0
GRID*               5823               0-6.247963887E-014.5701312705E-01+
*       1.5800032798E-01               0
GRID*               5824               0-4.299528590E-01-8.724498844E-02+
*       -1.799915545E-01               0
GRID*               5825               0-6.254284108E-015.4825781844E-01+
*       -3.556202884E-02               0
GRID*               5826               0-5.728945611E-015.2663542761E-01+
*       -7.735250597E-02               0
GRID*               5827               0-3.373538432E-01-1.482969207E-01+
*       -5.966326884E-02               0
GRID*               5828               0-3.371953506E-01-2.249865309E-01+
*       -5.966326884E-02               0
GRID*               5829               0-4.027843472E-01-2.214007944E-01+
*       -5.499155446E-02               0
GRID*               5830               0-5.565133211E-01-8.063124656E-01+
*       3.8540144209E-01               0
GRID*               5831               0-6.796854036E-01-6.901899894E-01+
*       5.5125393884E-01               0
GRID*               5832               0-5.546854036E-01-5.870681875E-01+
*       4.9560289492E-01               0
GRID*               5833               0-5.546854036E-01-6.577238308E-01+
*       4.9932960083E-01               0
GRID*               5834               05.6991730182E-01-6.822779629E-01+
*       6.2656102828E-01               0
GRID*               5835               0-1.094565320E+002.7824162436E-01+
*       -1.834403166E-01               0
GRID*               5836               06.1501489866E-013.1058656331E-01+
*       1.3370002034E-01               0
GRID*               5837               05.5021445416E-013.1282163939E-01+
*       4.2041497362E-02               0
GRID*               5838               06.1181435740E-013.1293819474E-01+
*       4.2702945573E-02               0
GRID*               5839               0-8.546836914E-014.1825660396E-01+
*       -5.262701987E-02               0
GRID*               5840               0-1.217709246E+001.1604875505E-01+
*       -3.107630125E-02               0
GRID*               5841               0-1.150406482E+001.2681081902E-01+
*       -9.555954357E-02               0
GRID*               5842               0-9.682439477E-012.9091985721E-01+
*       -5.844031660E-02               0
GRID*               5843               0-1.031002824E+002.5276010213E-01+
*       -5.844031660E-02               0
GRID*               5844               0-1.059333653E+005.1689994509E-01+
*       -1.830916379E-01               0
GRID*               5845               0-1.120391195E+003.1906687194E-01+
*       -1.524693303E-01               0
GRID*               5846               0-1.112827367E+004.2154721870E-01+
*       -1.521206515E-01               0
GRID*               5847               0-1.214673144E+004.9095928566E-01+
*       -2.191692168E-01               0
GRID*               5848               0-1.123650185E+004.9955107077E-01+
*       -2.191692168E-01               0
GRID*               5849               0-1.149115636E+003.2411440834E-01+
*       -2.190290137E-01               0
GRID*               5850               09.5859716246E-019.7878728504E-01+
*       -2.191780233E-01               0
GRID*               5851               09.3515550130E-019.3649348180E-01+
*       -2.191780233E-01               0
GRID*               5852               01.0097368497E+009.3961453188E-01+
*       -2.191780233E-01               0
GRID*               5853               01.1262376412E+009.7470863058E-01+
*       -2.195268141E-01               0
GRID*               5854               01.1038479166E+009.3553587742E-01+
*       -2.195268141E-01               0
GRID*               5855               01.1450261762E+009.2475371650E-01+
*       -2.195268141E-01               0
GRID*               5856               01.0020415290E+009.0598234614E-01+
*       -1.565206557E-01               0
GRID*               5857               01.0387593384E+008.9405903924E-01+
*       -1.565209519E-01               0
GRID*               5858               01.0347636001E+009.1408192889E-01+
*       -1.754447833E-01               0
GRID*               5859               0-6.564073862E-013.2287779037E-01+
*       4.9967283282E-01               0
GRID*               5860               0-6.519677221E-013.8145048227E-01+
*       4.2087789895E-01               0
GRID*               5861               0-5.961664067E-012.5516051498E-01+
*       4.3202706311E-01               0
GRID*               5862               0-5.917284421E-013.4915306118E-01+
*       3.9410680142E-01               0
GRID*               5863               0-5.643228328E-012.8665124236E-01+
*       4.2339598558E-01               0
GRID*               5864               01.1997670529E+009.7470863058E-01+
*       -2.195268141E-01               0
GRID*               5865               01.2232218057E+009.5182455908E-01+
*       -2.194369578E-01               0
GRID*               5866               01.1729888586E+009.2653318967E-01+
*       -1.889637719E-01               0
GRID*               5867               01.1684809290E+009.0186964501E-01+
*       -2.194369578E-01               0
GRID*               5868               0-5.580605738E-014.7577050383E-01+
*       3.8718003370E-01               0
GRID*               5869               0-5.580605738E-014.2513065793E-01+
*       3.3651116762E-01               0
GRID*               5870               0-5.580605738E-014.9465077305E-01+
*       3.1943342683E-01               0
GRID*               5871               0-5.627659688E-014.6132865651E-01+
*       2.4826910366E-01               0
GRID*               5872               0-6.208265426E-014.7302045698E-01+
*       2.9872625223E-01               0
GRID*               5873               01.1133431392E+00-5.631576952E-01+
*       -1.850285010E-01               0
GRID*               5874               01.1376028448E+00-5.661973810E-01+
*       -1.532199508E-01               0
GRID*               5875               01.1742066704E+00-6.023983580E-01+
*       -2.181914497E-01               0
GRID*               5876               01.1737737997E+00-5.646840802E-01+
*       -2.192572701E-01               0
GRID*               5877               01.1371699741E+00-5.284831032E-01+
*       -1.542857711E-01               0
GRID*               5878               01.1980335054E+00-5.677237660E-01+
*       -1.874487198E-01               0
GRID*               5879               09.3667666081E-01-3.141533308E-01+
*       -1.922585323E-01               0
GRID*               5880               0-5.528984316E-015.9294310573E-01+
*       3.3931783053E-01               0
GRID*               5881               0-5.528984316E-016.1182337495E-01+
*       2.7157122366E-01               0
GRID*               5882               0-6.109590054E-015.5399506029E-01+
*       3.3910611302E-01               0
GRID*               5883               0-5.580605738E-013.5454639109E-01+
*       3.6412847479E-01               0
GRID*               5884               0-5.616552992E-013.6382467433E-01+
*       3.0379712141E-01               0
GRID*               5885               0-5.616552992E-012.9324040750E-01+
*       3.3141442858E-01               0
GRID*               5886               0-6.197158730E-013.7551647480E-01+
*       3.5425426998E-01               0
GRID*               5887               0-6.248580265E-013.8989131607E-01+
*       5.4999521202E-01               0
GRID*               5888               0-5.939594959E-013.6952973813E-01+
*       5.7001983156E-01               0
GRID*               5889               0-6.213009080E-014.3808835228E-01+
*       3.0699446912E-01               0
GRID*               5890               0-5.632403342E-014.2639655182E-01+
*       2.5653732055E-01               0
GRID*               5891               0-5.612656375E-013.9839766539E-01+
*       2.8900525142E-01               0
GRID*               5892               0-6.193262113E-014.1008946586E-01+
*       3.3946239999E-01               0
GRID*               5893               0-6.245059718E-014.1135535975E-01+
*       2.5948855293E-01               0
GRID*               5894               06.9330321968E-015.0431400785E-01+
*       -7.293361891E-02               0
GRID*               5895               06.9344991718E-015.5611844713E-01+
*       4.0385185885E-02               0
GRID*               5896               0-6.240634682E-01-5.734157789E-02+
*       1.1973584208E+00               0
GRID*               5897               0-6.561632174E-01-1.207527072E-02+
*       1.1524787974E+00               0
GRID*               5898               06.2204361748E-011.0187291066E-01+
*       2.9958781353E-01               0
GRID*               5899               06.5319621395E-019.4787117415E-02+
*       2.7145530410E-01               0
GRID*               5900               06.2204155324E-011.5376959226E-01+
*       3.1482549171E-01               0
GRID*               5901               06.5673994114E-011.5596895860E-01+
*       3.7419522267E-01               0
GRID*               5902               06.5674200538E-011.0407227700E-01+
*       3.5895754450E-01               0
GRID*               5903               06.5378303296E-011.5187578134E-01+
*       2.8467756325E-01               0
GRID*               5904               06.4325929284E-013.0519732541E-01+
*       -5.540249660E-02               0
GRID*               5905               05.8656251252E-013.4797287172E-01+
*       -1.283361155E-01               0
GRID*               5906               06.9330321968E-014.2739093092E-01+
*       -7.293361891E-02               0
GRID*               5907               07.6935072364E-013.2564238677E-01+
*       -6.828175138E-02               0
GRID*               5908               06.6261001648E-012.4622432757E-01+
*       -1.236842480E-01               0
GRID*               5909               07.1265394332E-013.6841793308E-01+
*       -1.412153703E-01               0
GRID*               5910               0-5.317207046E-012.2658312664E-01+
*       1.0833684814E+00               0
GRID*               5911               0-7.194191643E-012.9720072256E-01+
*       1.0317133688E+00               0
GRID*               5912               0-6.938604811E-014.5752531690E-01+
*       1.1364908737E+00               0
GRID*               5913               0-6.203495099E-014.8312057788E-01+
*       1.2118231584E+00               0
GRID*               5914               0-5.514890288E-014.4958749935E-01+
*       1.1990240351E+00               0
GRID*               5915               0-5.288011704E-01-9.721040967E-01+
*       4.3473460531E-02               0
GRID*               5916               0-5.288011704E-01-8.951810198E-01+
*       4.3473460531E-02               0
GRID*               5917               0-7.186367710E-013.9268996471E-01+
*       8.5189028389E-01               0
GRID*               5918               0-7.177949815E-013.8320912186E-01+
*       8.8441879869E-01               0
GRID*               5919               0-1.012309286E+004.0731993655E-02+
*       -5.689655849E-02               0
GRID*               5920               0-6.576009072E-012.4791107481E-01+
*       1.0707583669E+00               0
GRID*               5921               0-6.601865649E-012.5719986332E-01+
*       1.1606331759E+00               0
GRID*               5922               0-6.555178224E-012.7987379615E-01+
*       1.0540702324E+00               0
GRID*               5923               0-6.881158064E-012.7894749051E-01+
*       1.0876374262E+00               0
GRID*               5924               0-6.581034801E-012.8916258466E-01+
*       1.1439450415E+00               0
GRID*               5925               0-6.569206259E-012.9719626901E-01+
*       1.0317170159E+00               0
GRID*               5926               0-1.057296376E+008.7899373885E-02+
*       -6.448324232E-02               0
GRID*               5927               0-1.030698366E+001.5204997490E-01+
*       -1.342684355E-01               0
GRID*               5928               0-9.662318978E-01-6.205989724E-01+
*       -6.353310252E-02               0
GRID*               5929               0-9.295162978E-01-6.325206490E-01+
*       -2.186643585E-02               0
GRID*               5930               0-1.062084228E+005.6350758311E-01+
*       -1.414250784E-01               0
GRID*               5931               0-1.037524304E+006.1323205308E-01+
*       -1.861950114E-01               0
GRID*               5932               0-1.062917376E+005.3980943318E-01+
*       -1.609533160E-01               0
GRID*               5933               0-1.074288381E+006.2516223480E-01+
*       -1.861951186E-01               0
GRID*               5934               0-1.114730410E+005.3280441928E-01+
*       -2.182733161E-01               0
GRID*               5935               0-1.106109980E+004.9405925567E-01+
*       -1.513649540E-01               0
GRID*               5936               0-1.113183633E+005.6908951250E-01+
*       -2.196874302E-01               0
GRID*               5937               0-1.159959960E+005.4624882309E-01+
*       -1.879607463E-01               0
GRID*               5938               0-1.104563203E+005.3034434890E-01+
*       -1.527790680E-01               0
GRID*               5939               0-8.577354753E-013.4199777660E-01+
*       -5.262701987E-02               0
GRID*               5940               0-9.083246376E-012.5714918569E-01+
*       -6.978519317E-02               0
GRID*               5941               0-1.217158809E+002.7240295244E-01+
*       -3.184981310E-02               0
GRID*               5942               0-1.152791555E+003.1231317569E-01+
*       -3.184981310E-02               0
GRID*               5943               0-1.125079249E+002.9361538104E-01+
*       -9.029012970E-02               0
GRID*               5944               08.3249481329E-012.1049274104E-01+
*       -6.828175138E-02               0
GRID*               5945               07.2015374792E-014.1786028587E-01+
*       -1.979336189E-01               0
GRID*               5946               06.4820813745E-014.3083076161E-01+
*       -1.979336189E-01               0
GRID*               5947               07.2425564141E-013.2908221746E-01+
*       -1.932817514E-01               0
GRID*               5948               07.9620125188E-013.1611174172E-01+
*       -1.932817514E-01               0
GRID*               5949               07.3903413375E-012.2163105470E-01+
*       -1.299181738E-01               0
GRID*               5950               07.2568127393E-011.7078884139E-01+
*       -1.252912234E-01               0
GRID*               5951               0-7.188585842E-01-3.806499096E-01+
*       1.6346358162E+00               0
GRID*               5952               08.6037930997E-013.0792258391E-01+
*       -1.932817514E-01               0
GRID*               5953               07.8277824807E-013.2155343662E-01+
*       -1.307936940E-01               0
GRID*               5954               05.6701618188E-017.0970800666E-01+
*       3.8277392327E-01               0
GRID*               5955               05.7705803673E-017.7630488894E-01+
*       3.3937776257E-01               0
GRID*               5956               06.4891986851E-017.3781930018E-01+
*       3.0405903817E-01               0
GRID*               5957               0-9.991332755E-01-5.590707917E-01+
*       -7.801353162E-02               0
GRID*               5958               0-9.780060914E-01-5.700738490E-01+
*       -7.842152076E-02               0
GRID*               5959               0-9.069053998E-01-6.443639405E-01+
*       -2.222528219E-02               0
GRID*               5960               05.6701618188E-016.4462748764E-01+
*       3.7826165945E-01               0
GRID*               5961               0-1.031884398E+00-6.148758105E-01+
*       -2.292457855E-01               0
GRID*               5962               0-1.068640740E+00-6.268268085E-01+
*       -2.292457855E-01               0
GRID*               5963               0-1.068641834E+00-6.268277000E-01+
*       -1.875789748E-01               0
GRID*               5964               0-1.127427681E+00-8.141410475E-01+
*       -2.158253843E-02               0
GRID*               5965               0-1.145141286E+00-7.943753969E-01+
*       -4.268366886E-02               0
GRID*               5966               0-1.127427693E+00-8.141410116E-01+
*       -6.324920374E-02               0
GRID*               5967               0-1.094883146E+00-5.580763221E-01+
*       -7.759874766E-02               0
GRID*               5968               0-1.133601727E+00-6.266505223E-01+
*       -7.300757352E-02               0
GRID*               5969               0-1.072644877E+00-5.486779525E-01+
*       -1.603739819E-01               0
GRID*               5970               0-1.090687449E+00-6.085636395E-01+
*       -1.863060445E-01               0
GRID*               5971               0-1.094690492E+00-5.304138920E-01+
*       -1.591010516E-01               0
GRID*               5972               0-1.085814411E+00-5.864875606E-01+
*       -2.072186406E-01               0
GRID*               5973               0-1.105387468E+00-6.585425581E-01+
*       -2.293525812E-01               0
GRID*               5974               0-1.128073638E+00-6.897825679E-01+
*       -2.293525812E-01               0
GRID*               5975               0-1.128073651E+00-6.897826058E-01+
*       -1.876859160E-01               0
GRID*               5976               0-1.093059138E+00-6.428961695E-01+
*       -2.284877318E-01               0
GRID*               5977               0-1.115745321E+00-6.741362172E-01+
*       -1.868210665E-01               0
GRID*               5978               0-1.093060233E+00-6.428970610E-01+
*       -1.868209211E-01               0
GRID*               5979               07.7185190833E-019.6949867219E-01+
*       -2.246187766E-01               0
GRID*               5980               06.9832249656E-019.6949867219E-01+
*       -2.246187766E-01               0
GRID*               5981               07.3175702331E-019.0866761967E-01+
*       -2.246187766E-01               0
GRID*               5982               06.8423622168E-018.0599417752E-01+
*       4.2166798485E-01               0
GRID*               5983               06.8423622168E-018.6687616705E-01+
*       3.9071879532E-01               0
GRID*               5984               06.3629425841E-018.2843929288E-01+
*       3.6989949928E-01               0
GRID*               5985               0-1.116702628E+00-6.388792296E-01+
*       -1.576762696E-01               0
GRID*               5986               0-1.133875204E+00-5.985390902E-01+
*       -1.773159353E-01               0
GRID*               5987               0-1.136247987E+00-6.328725117E-01+
*       -1.778308120E-01               0
GRID*               5988               0-1.110232809E+00-6.025569216E-01+
*       -2.064605869E-01               0
GRID*               5989               06.9686183179E-017.1732334742E-01+
*       2.8581347062E-01               0
GRID*               5990               0-1.088187194E+00-6.208209821E-01+
*       -2.077335172E-01               0
GRID*               5991               01.1352537613E+001.1522618436E-01+
*       -6.338361052E-02               0
GRID*               5992               01.2189361928E+001.1508200080E-01+
*       -3.129525203E-02               0
GRID*               5993               01.1660262452E+001.1489147066E-01+
*       -9.467886255E-02               0
GRID*               5994               01.1570999018E+001.5357563838E-01+
*       -3.129525203E-02               0
GRID*               5995               01.1743052227E+002.2782700407E-01+
*       -6.745055242E-02               0
GRID*               5996               01.2198524692E+002.6943387519E-01+
*       -3.110036118E-02               0
GRID*               5997               01.1441576919E+002.6649164849E-01+
*       -9.855091360E-02               0
GRID*               5998               01.1635808711E+002.9967921531E-01+
*       -2.186717700E-01               0
GRID*               5999               01.1777250962E+003.4269453901E-01+
*       -1.444921892E-01               0
GRID*               6000               01.1454463279E+002.6375767609E-01+
*       -1.611223224E-01               0
GRID*               6001               06.3920933818E-018.9977184636E-01+
*       2.7332971597E-01               0
GRID*               6002               06.2138752314E-019.2866744652E-01+
*       3.2111903165E-01               0
GRID*               6003               06.0951934156E-018.6150129154E-01+
*       2.7707780628E-01               0
GRID*               6004               05.9169752651E-018.9039689169E-01+
*       3.2486712195E-01               0
GRID*               6005               05.6234466179E-018.5739343937E-01+
*       2.2940967912E-01               0
GRID*               6006               06.3940269852E-018.2973039200E-01+
*       2.7267541491E-01               0
GRID*               6007               06.2378549498E-018.3363714961E-01+
*       1.7479385507E-01               0
GRID*               6008               01.2211411051E+002.6669990279E-01+
*       -2.186717700E-01               0
GRID*               6009               05.5923622168E-018.5610234025E-01+
*       3.2663376349E-01               0
GRID*               6010               05.5923622168E-018.0520048909E-01+
*       3.8716707825E-01               0
GRID*               6011               01.1785128804E+00-2.222547265E-01+
*       -5.687137771E-02               0
GRID*               6012               06.7801613364E-012.6699904651E-01+
*       -1.932817514E-01               0
GRID*               6013               07.5194374726E-012.5589853491E-01+
*       -1.932817514E-01               0
GRID*               6014               01.0516834119E+00-2.231332685E-01+
*       -5.687137771E-02               0
GRID*               6015               0-6.280355776E-01-1.483988607E-01+
*       3.1613271345E-01               0
GRID*               6016               0-6.562093041E-01-1.303953958E-01+
*       3.6637490673E-01               0
GRID*               6017               0-6.562113684E-01-7.849871466E-02+
*       3.5113722698E-01               0
GRID*               6018               0-6.592464203E-01-1.209314766E-01+
*       2.7816446427E-01               0
GRID*               6019               0-6.607154414E-01-1.470057375E-01+
*       2.8601293659E-01               0
GRID*               6020               0-6.533736225E-01-1.859925616E-01+
*       3.8717805402E-01               0
GRID*               6021               0-6.860534863E-01-1.845994384E-01+
*       3.5705827717E-01               0
GRID*               6022               0-6.564107387E-01-1.765286424E-01+
*       2.9896761156E-01               0
GRID*               6023               08.9448448161E-018.4546973048E-01+
*       -2.036893714E-02               0
GRID*               6024               08.9448365614E-018.4546905590E-01+
*       -6.203549461E-02               0
GRID*               6025               08.7179828247E-018.1422966560E-01+
*       -6.203560562E-02               0
GRID*               6026               08.6638214259E-017.1527157460E-01+
*       -2.170887997E-02               0
GRID*               6027               08.6638213166E-017.1527161033E-01+
*       -6.337554529E-02               0
GRID*               6028               08.7323134895E-016.9051319906E-01+
*       -2.117018415E-02               0
GRID*               6029               08.5847595598E-016.9447211337E-01+
*       -4.287906412E-02               0
GRID*               6030               08.7323133802E-016.9051323479E-01+
*       -6.283684947E-02               0
GRID*               6031               0-5.619334161E-01-2.328755472E-01+
*       3.0205475279E-01               0
GRID*               6032               0-6.274697629E-01-1.933599334E-01+
*       2.7138383271E-01               0
GRID*               6033               0-6.268880201E-01-3.090453242E-01+
*       2.4076597203E-01               0
GRID*               6034               0-6.872004124E-01-2.048033813E-01+
*       1.2077876815E-01               0
GRID*               6035               0-6.905363469E-01-2.155911333E-01+
*       1.9927884515E-01               0
GRID*               6036               08.1766406067E-017.6143786826E-01+
*       -1.129513862E-01               0
GRID*               6037               08.1766406418E-017.6143788078E-01+
*       -1.546180525E-01               0
GRID*               6038               08.1767535485E-017.2278531688E-01+
*       -1.546180492E-01               0
GRID*               6039               08.1767535949E-017.2278530169E-01+
*       -1.129513830E-01               0
GRID*               6040               0-5.622004124E-01-2.091506502E-01+
*       1.1074925940E-01               0
GRID*               6041               0-7.034982103E-015.0434971144E-02+
*       -6.548906291E-02               0
GRID*               6042               0-7.544124490E-017.3735217138E-02+
*       -1.451884818E-01               0
GRID*               6043               0-7.162398092E-016.8873057947E-02+
*       -1.904890629E-01               0
GRID*               6044               0-6.471785416E-016.5160047000E-02+
*       -1.904890629E-01               0
GRID*               6045               0-6.800724472E-011.3116432843E-01+
*       -1.943917131E-01               0
GRID*               6046               0-6.576944398E-01-4.804872142E-01+
*       8.8358759779E-01               0
GRID*               6047               0-6.560651070E-01-3.894653643E-01+
*       8.8713737992E-01               0
GRID*               6048               0-6.561672289E-01-3.940647517E-01+
*       8.4938133654E-01               0
GRID*               6049               0-6.577965617E-01-4.850866017E-01+
*       8.4583155441E-01               0
GRID*               6050               0-6.872339701E-01-4.189260515E-01+
*       8.7945459019E-01               0
GRID*               6051               09.2983477355E-016.3321386165E-01+
*       -2.151226760E-02               0
GRID*               6052               09.1076404605E-016.2789588694E-01+
*       -4.323927371E-02               0
GRID*               6053               09.2983367265E-016.3321475835E-01+
*       -6.317907907E-02               0
GRID*               6054               0-1.465679445E-01-1.512521611E-01+
*       -1.870985343E-01               0
GRID*               6055               05.6830321968E-015.0431400785E-01+
*       -7.293361891E-02               0
GRID*               6056               0-3.316218805E-01-1.594032263E-01+
*       -1.846632688E-01               0
GRID*               6057               08.0767687823E-02-2.290260993E-01+
*       -4.905797893E-02               0
GRID*               6058               08.2853254612E-01-9.727525176E-01+
*       -1.025166118E-01               0
GRID*               6059               07.6586008548E-01-9.727525176E-01+
*       -1.108626233E-01               0
GRID*               6060               07.0303098664E-01-9.025659096E-01+
*       -6.982256770E-02               0
GRID*               6061               0-3.276042102E-02-3.001442108E-01+
*       -6.823584205E-02               0
GRID*               6062               0-7.179385195E-02-9.121551285E-02+
*       -1.168865309E-01               0
GRID*               6063               07.0070093092E-014.9484342029E-01+
*       -1.979336189E-01               0
GRID*               6064               0-1.240073509E-011.2446095514E-01+
*       -1.953619272E-01               0
GRID*               6065               0-1.797343278E-019.7812221681E-02+
*       -1.890368383E-01               0
GRID*               6066               0-1.706042042E-014.2813954637E-02+
*       -1.318653903E-01               0
GRID*               6067               0-1.060675795E-011.4319961741E-01+
*       -1.343987655E-01               0
GRID*               6068               07.1820268070E-01-1.253940803E-01+
*       1.1326584255E+00               0
GRID*               6069               06.5570191140E-01-1.253967354E-01+
*       1.1326570025E+00               0
GRID*               6070               07.1738363468E-01-3.835945389E-01+
*       8.8421549703E-01               0
GRID*               6071               05.9408638605E-01-1.256257557E-01+
*       1.1374195622E+00               0
GRID*               6072               0-2.105248363E-017.9921924145E-02+
*       -1.876389020E-01               0
GRID*               6073               0-2.013947127E-012.4923657102E-02+
*       -1.304674540E-01               0
GRID*               6074               0-1.925850649E-019.8660586414E-02+
*       -1.266757403E-01               0
GRID*               6075               07.5627555977E-01-5.771497874E-02+
*       -1.265586323E-01               0
GRID*               6076               07.6995635320E-01-9.467561354E-02+
*       -1.263047982E-01               0
GRID*               6077               05.9533169731E-01-3.762643801E-01+
*       1.0565849026E+00               0
GRID*               6078               05.9714578168E-01-2.689631280E-01+
*       1.1476579827E+00               0
GRID*               6079               06.2838146605E-01-1.976496399E-01+
*       1.1633283011E+00               0
GRID*               6080               0-1.182697236E+004.9223602436E-02+
*       -1.269832423E-01               0
GRID*               6081               0-1.182697236E+001.2614667936E-01+
*       -1.269832423E-01               0
GRID*               6082               0-1.061663628E+001.4452010994E-01+
*       -1.894832423E-01               0
GRID*               6083               06.5747060004E-01-1.789031263E-01+
*       1.1146217710E+00               0
GRID*               6084               07.1997136933E-01-1.789004712E-01+
*       1.1146231940E+00               0
GRID*               6085               07.1892904367E-01-1.511572585E-01+
*       1.1247375859E+00               0
GRID*               6086               06.5642827438E-01-1.511599136E-01+
*       1.1247361630E+00               0
GRID*               6087               06.8890041301E-01-1.722002737E-01+
*       1.1437010809E+00               0
GRID*               6088               05.7674257535E-01-2.291384215E-01+
*       1.3439950505E+00               0
GRID*               6089               05.7674257535E-01-2.864968564E-01+
*       1.3809159188E+00               0
GRID*               6090               0-6.556416991E-01-9.271728521E-01+
*       1.0316227996E+00               0
GRID*               6091               05.3044890048E-01-1.556914474E-01+
*       3.7453695219E-01               0
GRID*               6092               05.3409777606E-01-1.854381794E-01+
*       3.8736730336E-01               0
GRID*               6093               05.6163737669E-01-3.034538675E-01+
*       2.4602650080E-01               0
GRID*               6094               06.2237851049E-01-2.798827608E-01+
*       3.1665209846E-01               0
GRID*               6095               05.6165494151E-01-3.377684575E-01+
*       2.3177098821E-01               0
GRID*               6096               0-5.942415801E-01-9.210442182E-01+
*       1.0318160558E+00               0
GRID*               6097               0-5.924421332E-01-8.293029026E-01+
*       1.0185994931E+00               0
GRID*               6098               0-6.321051061E-018.9655520385E-01+
*       1.1104548257E-01               0
GRID*               6099               0-6.335003544E-018.9655520385E-01+
*       1.8716003233E-01               0
GRID*               6100               0-6.541346482E-019.7284964083E-01+
*       1.1682793035E-01               0
GRID*               6101               0-6.646331273E-018.6940484468E-01+
*       1.5564358652E-01               0
GRID*               6102               0-7.195153509E-018.9504887663E-01+
*       4.3407886017E-02               0
GRID*               6103               0-6.658171435E-018.6852715740E-01+
*       1.1833845539E-01               0
GRID*               6104               0-6.872601970E-019.3166676298E-01+
*       6.1374047016E-02               0
GRID*               6105               0-6.640466386E-018.5625001328E-01+
*       9.2896730367E-02               0
GRID*               6106               0-6.926096001E-018.0268536247E-01+
*       1.1925280816E-02               0
GRID*               6107               0-6.557335102E-018.4030852677E-01+
*       -1.247235120E-02               0
GRID*               6108               0-6.603544461E-018.3930324882E-01+
*       2.9891441815E-02               0
GRID*               6109               0-5.310998874E-019.6822321300E-01+
*       1.4516638002E-01               0
GRID*               6110               0-5.310998874E-019.0347389847E-01+
*       1.7554286754E-01               0
GRID*               6111               0-5.302251137E-019.6557248954E-01+
*       1.8467626698E-01               0
GRID*               6112               0-5.613250011E-019.3379570254E-01+
*       1.7984264700E-01               0
GRID*               6113               0-5.302251137E-019.0082317501E-01+
*       2.1505275450E-01               0
GRID*               6114               0-5.656818454E-01-7.131821778E-01+
*       1.0824796918E+00               0
GRID*               6115               0-6.883458737E-01-6.949270867E-01+
*       9.0732769333E-01               0
GRID*               6116               0-1.200852233E+007.1671461826E-01+
*       -2.186761686E-01               0
GRID*               6117               0-1.233636613E+007.1196337268E-01+
*       -2.186761686E-01               0
GRID*               6118               0-1.233414757E+006.7569884994E-01+
*       -2.198504796E-01               0
GRID*               6119               0-1.200630378E+006.8045009552E-01+
*       -2.198504796E-01               0
GRID*               6120               0-1.217051370E+006.9535453032E-01+
*       -1.885266482E-01               0
GRID*               6121               0-1.183100187E+006.4546316542E-01+
*       -2.198504796E-01               0
GRID*               6122               0-5.912655561E-01-8.389257011E-01+
*       9.8477478243E-01               0
GRID*               6123               0-5.930650030E-01-9.306670168E-01+
*       9.9799134512E-01               0
GRID*               6124               0-5.929893718E-01-9.421657308E-01+
*       9.6658886531E-01               0
GRID*               6125               0-5.911899249E-01-8.504244152E-01+
*       9.5337230261E-01               0
GRID*               6126               0-5.610540035E-01-8.993062585E-01+
*       9.8600637998E-01               0
GRID*               6127               0-5.305648174E-01-9.216899227E-01+
*       1.0310819377E+00               0
GRID*               6128               0-5.304891862E-01-9.331886367E-01+
*       9.9967945789E-01               0
GRID*               6129               05.6021316061E-01-1.147181484E-01+
*       1.3866663526E+00               0
GRID*               6130               06.5663999011E-01-3.166330639E-02+
*       1.7104078175E+00               0
GRID*               6131               06.6217556805E-01-7.928142670E-02+
*       1.6123101665E+00               0
GRID*               6132               06.3053557793E-01-4.761812031E-02+
*       1.6519023490E+00               0
GRID*               6133               06.5571319727E-016.5245803403E-03+
*       1.7128714143E+00               0
GRID*               6134               06.8735318739E-01-2.513872605E-02+
*       1.6732792319E+00               0
GRID*               6135               06.6124877521E-01-4.109353997E-02+
*       1.6147737633E+00               0
GRID*               6136               0-6.821265876E-01-4.459526685E-01+
*       1.4536517468E+00               0
GRID*               6137               0-6.821265876E-01-3.805289234E-01+
*       1.4905183353E+00               0
GRID*               6138               0-4.880633846E-01-3.638006349E-01+
*       -6.384666232E-02               0
GRID*               6139               0-4.977396086E-01-3.750973495E-01+
*       -1.279739356E-01               0
GRID*               6140               0-5.276914946E-01-3.602077105E-01+
*       -6.257841484E-02               0
GRID*               6141               0-5.157548792E-01-3.393929608E-01+
*       -1.264250772E-01               0
GRID*               6142               0-5.373677186E-01-3.715044251E-01+
*       -1.267056882E-01               0
GRID*               6143               0-6.819509459E-016.6740623204E-02+
*       1.4299011011E+00               0
GRID*               6144               0-6.201700728E-01-1.445395253E-01+
*       1.1781411286E+00               0
GRID*               6145               0-5.934062266E-01-7.318367288E-02+
*       1.1477688140E+00               0
GRID*               6146               0-5.924722847E-01-7.645584065E-02+
*       1.2189950081E+00               0
GRID*               6147               0-5.885788893E-01-1.636537880E-01+
*       1.1997777159E+00               0
GRID*               6148               0-9.697533472E-018.8312722133E-01+
*       -1.874462022E-01               0
GRID*               6149               0-9.330355408E-018.7120390778E-01+
*       -1.874464984E-01               0
GRID*               6150               0-9.697533472E-018.8312722133E-01+
*       -2.291128689E-01               0
GRID*               6151               0-9.023945921E-018.4943538394E-01+
*       -2.284540960E-01               0
GRID*               6152               0-8.906871972E-018.2308628978E-01+
*       -2.280449169E-01               0
GRID*               6153               0-6.210855180E-01-3.574199859E-01+
*       1.4993980425E+00               0
GRID*               6154               0-6.264578879E-01-3.739496350E-01+
*       1.5976637714E+00               0
GRID*               6155               0-5.940674969E-01-3.925787373E-01+
*       1.6278337310E+00               0
GRID*               6156               0-5.886951269E-01-3.760490883E-01+
*       1.5295680022E+00               0
GRID*               6157               0-5.955274696E-01-3.326505655E-01+
*       1.5745263984E+00               0
GRID*               6158               05.3004204216E-01-9.671060141E-01+
*       2.9771941381E-01               0
GRID*               6159               05.6061256599E-01-9.331034959E-01+
*       2.5651018016E-01               0
GRID*               6160               0-5.539780111E-016.3810388065E-01+
*       8.4716899575E-01               0
GRID*               6161               0-6.525133173E-014.5770672590E-02+
*       1.6058802189E+00               0
GRID*               6162               0-6.668925150E-01-4.679291528E-02+
*       1.5971773361E+00               0
GRID*               6163               0-5.726538539E-018.3801884563E-01+
*       8.5030118815E-01               0
GRID*               6164               06.5570829930E-01-8.888648987E-01+
*       3.2627616291E-01               0
GRID*               6165               0-6.891798425E-01-5.765050794E-01+
*       1.4547269254E+00               0
GRID*               6166               0-6.266804793E-01-6.048479999E-01+
*       1.4303358922E+00               0
GRID*               6167               05.6649883701E-01-6.411644638E-01+
*       2.0928410526E-01               0
GRID*               6168               05.6649883701E-01-7.061206375E-01+
*       2.1720765319E-01               0
GRID*               6169               06.3914724169E-01-6.239844702E-01+
*       1.8676194329E-01               0
GRID*               6170               05.6649883701E-01-7.160804583E-01+
*       2.8823993208E-01               0
GRID*               6171               05.4808307664E-01-7.678466551E-01+
*       3.0083567135E-01               0
GRID*               6172               09.5678493714E-01-8.843955296E-02+
*       -1.881637711E-01               0
GRID*               6173               01.0515880626E+00-1.430189738E-01+
*       -1.818713777E-01               0
GRID*               6174               01.0122226354E+00-1.591608015E-01+
*       -1.200351488E-01               0
GRID*               6175               05.3137502121E-01-3.998257927E-01+
*       6.8331737459E-01               0
GRID*               6176               05.9387420411E-01-3.998248507E-01+
*       6.8331429429E-01               0
GRID*               6177               0-1.281207496E-01-5.583330404E-01+
*       -1.814331079E-01               0
GRID*               6178               0-2.057040404E-01-5.552228700E-01+
*       -1.814331079E-01               0
GRID*               6179               0-7.200994456E-012.4791552835E-01+
*       1.0707547198E+00               0
GRID*               6180               0-7.180163608E-012.7987824969E-01+
*       1.0540665854E+00               0
GRID*               6181               0-5.600903932E-01-4.443283487E-01+
*       1.0053023752E+00               0
GRID*               6182               0-5.959781535E-01-7.847557216E-01+
*       1.1555439248E+00               0
GRID*               6183               0-5.872102657E-01-7.413579667E-01+
*       1.1945761693E+00               0
GRID*               6184               0-1.122748356E-01-5.664198569E-01+
*       -5.643310787E-02               0
GRID*               6185               0-1.408646856E-01-6.399803950E-01+
*       -5.190440938E-02               0
GRID*               6186               03.5523461136E-01-7.402177230E-01+
*       -1.178431929E-01               0
GRID*               6187               03.5207822977E-01-6.505734987E-01+
*       -1.846142658E-01               0
GRID*               6188               02.9009934613E-01-7.206248287E-01+
*       -1.206728158E-01               0
GRID*               6189               03.4101176137E-01-6.687475964E-01+
*       -1.220581545E-01               0
GRID*               6190               0-6.573792967E-01-9.416259296E-01+
*       9.7037701262E-01               0
GRID*               6191               0-7.198791111E-01-9.326488355E-01+
*       1.0034676052E+00               0
GRID*               6192               0-7.186100759E-01-9.282566516E-01+
*       1.0315341880E+00               0
GRID*               6193               0-6.561102615E-01-9.372337457E-01+
*       9.9844359543E-01               0
GRID*               6194               0-6.884891871E-01-9.053331862E-01+
*       9.9024677761E-01               0
GRID*               6195               0-7.190856402E-01-8.485044099E-01+
*       1.1870751969E+00               0
GRID*               6196               0-7.188399559E-01-8.493303744E-01+
*       1.2222594306E+00               0
GRID*               6197               0-6.563388189E-01-8.318134102E-01+
*       1.2553956878E+00               0
GRID*               6198               0-6.879255961E-01-7.968662703E-01+
*       1.2254510521E+00               0
GRID*               6199               03.2948221936E-01-6.857096610E-01+
*       -5.961426581E-02               0
GRID*               6200               03.8996811600E-01-7.245059062E-01+
*       -5.961426581E-02               0
GRID*               6201               02.7856980412E-01-7.375868933E-01+
*       -5.822892708E-02               0
GRID*               6202               03.3905570076E-01-7.763831385E-01+
*       -5.822892708E-02               0
GRID*               6203               01.2827519896E-01-7.171773883E-01+
*       -5.844746708E-02               0
GRID*               6204               02.1959443959E-01-7.721598817E-01+
*       -5.822892708E-02               0
GRID*               6205               03.8774682502E-01-7.161667201E-01+
*       -1.846142658E-01               0
GRID*               6206               03.7317685265E-01-8.323208991E-01+
*       -1.832289271E-01               0
GRID*               6207               03.3683440978E-01-7.680439524E-01+
*       -1.832289271E-01               0
GRID*               6208               0-8.734808191E-016.8319907058E-01+
*       -2.096565294E-02               0
GRID*               6209               0-8.734815950E-016.8319713109E-01+
*       -6.263256007E-02               0
GRID*               6210               0-8.646372231E-017.0976697614E-01+
*       -2.025479913E-02               0
GRID*               6211               0-8.570185779E-016.8153473781E-01+
*       -4.122045207E-02               0
GRID*               6212               0-8.646379990E-017.0976503665E-01+
*       -6.192170626E-02               0
GRID*               6213               0-6.198891266E-01-5.433434472E-01+
*       7.2749729755E-02               0
GRID*               6214               0-9.249793917E-015.7017600563E-01+
*       -8.402436991E-02               0
GRID*               6215               0-8.978938956E-015.8442836602E-01+
*       -8.480464884E-02               0
GRID*               6216               0-4.933541415E-01-5.490676360E-01+
*       -6.322956373E-02               0
GRID*               6217               0-5.565983750E-01-6.309427438E-01+
*       -1.366740885E-01               0
GRID*               6218               0-5.460175064E-01-5.131785364E-01+
*       -1.397866961E-01               0
GRID*               6219               06.5225342754E-01-5.660696736E-01+
*       -6.835204293E-02               0
GRID*               6220               0-7.193878275E-013.2110315388E-01+
*       1.6557596329E+00               0
GRID*               6221               0-1.134170533E+007.1696436758E-01+
*       -6.405439687E-02               0
GRID*               6222               0-1.134181808E+007.5561692049E-01+
*       -6.405440003E-02               0
GRID*               6223               0-1.151536987E+007.2299654365E-01+
*       -9.409316832E-02               0
GRID*               6224               0-1.166845018E+007.2864816359E-01+
*       -7.481423455E-02               0
GRID*               6225               0-1.151548263E+007.6164909656E-01+
*       -9.409317148E-02               0
GRID*               6226               0-1.156743845E+007.8454338335E-01+
*       -2.066514882E-02               0
GRID*               6227               0-1.180249968E+007.7270677876E-01+
*       -2.182275011E-02               0
GRID*               6228               0-1.216617954E+008.0491794376E-01+
*       -1.135527995E-01               0
GRID*               6229               0-1.217616003E+007.8908223621E-01+
*       -8.432275011E-02               0
GRID*               6230               04.5307351330E-01-7.672471684E-01+
*       -5.961426581E-02               0
GRID*               6231               0-1.127807213E+006.9060351360E-01+
*       -1.866046494E-01               0
GRID*               6232               0-1.176790714E+006.6449212854E-01+
*       -1.981217975E-01               0
GRID*               6233               0-1.167846014E+006.8520139263E-01+
*       -1.781838111E-01               0
GRID*               6234               0-1.135950774E+007.0908930878E-01+
*       -1.868209468E-01               0
GRID*               6235               0-1.144895475E+006.8838004468E-01+
*       -2.067589332E-01               0
GRID*               6236               0-1.184934275E+006.8297792372E-01+
*       -1.983380948E-01               0
GRID*               6237               04.2433271264E-01-6.546135012E-01+
*       -1.846142658E-01               0
GRID*               6238               03.6369087200E-01-5.596761459E-01+
*       -1.884131336E-01               0
GRID*               6239               0-1.133274234E+00-4.108655512E-01+
*       -1.492532879E-01               0
GRID*               6240               0-1.120717690E+00-3.047739747E-01+
*       -1.583444785E-01               0
GRID*               6241               01.0750831329E+00-5.878984796E-01+
*       -1.016948856E-01               0
GRID*               6242               01.0383696568E+00-5.759783591E-01+
*       -1.016951677E-01               0
GRID*               6243               01.0335435157E+00-6.212126385E-01+
*       -6.287886026E-02               0
GRID*               6244               01.0702569918E+00-6.331327591E-01+
*       -6.287857814E-02               0
GRID*               6245               01.0719131724E+00-5.721909976E-01+
*       -8.124069463E-02               0
GRID*               6246               01.0939609031E+00-6.435657315E-01+
*       -6.427423644E-02               0
GRID*               6247               01.0956170838E+00-5.826239700E-01+
*       -8.263635294E-02               0
GRID*               6248               01.0907909427E+00-6.278582495E-01+
*       -4.382004549E-02               0
GRID*               6249               09.1275110351E-016.2808658396E-01+
*       -1.869970856E-01               0
GRID*               6250               08.4933560657E-016.1004973821E-01+
*       -1.589298697E-01               0
GRID*               6251               08.6312929638E-016.3082351957E-01+
*       -1.385996651E-01               0
GRID*               6252               09.0079144335E-016.4821927083E-01+
*       -1.868426474E-01               0
GRID*               6253               08.8699775354E-016.2744548947E-01+
*       -2.071728520E-01               0
GRID*               6254               08.3737594641E-016.3018242507E-01+
*       -1.587754315E-01               0
GRID*               6255               08.6637084692E-017.5392422716E-01+
*       -2.170887997E-02               0
GRID*               6256               08.6637083284E-017.5392417691E-01+
*       -6.337554845E-02               0
GRID*               6257               08.4042565193E-016.6204971796E-01+
*       -1.385995561E-01               0
GRID*               6258               08.4042565657E-016.6204970278E-01+
*       -9.693288995E-02               0
GRID*               6259               07.7696350237E-016.7352227272E-01+
*       -1.265509424E-01               0
GRID*               6260               01.1407615747E+001.1259875781E-01+
*       -1.883836105E-01               0
GRID*               6261               01.1213952751E+001.5071339701E-01+
*       -1.308341629E-01               0
GRID*               6262               08.3685795724E-015.9039247105E-01+
*       -1.802662246E-01               0
GRID*               6263               07.8225461096E-015.6615351858E-01+
*       -1.802662246E-01               0
GRID*               6264               09.8475855814E-016.1520760709E-01+
*       -2.100907807E-02               0
GRID*               6265               01.0035147775E+00-9.062464271E-01+
*       -1.366917576E-01               0
GRID*               6266               09.7087206501E-01-9.376069868E-01+
*       -1.282672330E-01               0
GRID*               6267               0-5.539780111E-015.1396776899E-01+
*       8.3148113237E-01               0
GRID*               6268               0-6.192082769E-016.4439029456E-01+
*       8.2299027589E-01               0
GRID*               6269               0-5.941592417E-014.0830507379E-01+
*       7.3701574212E-01               0
GRID*               6270               0-5.843828434E-014.9530209554E-01+
*       7.0133889554E-01               0
GRID*               6271               0-5.856372528E-014.9094888914E-01+
*       7.7942364130E-01               0
GRID*               6272               06.9112946777E-014.7833639363E-02+
*       1.2585633095E+00               0
GRID*               6273               06.9112946777E-01-2.015447420E-02+
*       1.2573049066E+00               0
GRID*               6274               0-6.561367710E-014.0038698644E-01+
*       7.9836130654E-01               0
GRID*               6275               05.9753746123E-01-2.876978518E-02+
*       1.2316910346E+00               0
GRID*               6276               05.9771662311E-01-6.313535365E-02+
*       1.2314877348E+00               0
GRID*               6277               05.6299514880E-01-5.902317672E-02+
*       1.1793855711E+00               0
GRID*               6278               06.2543690544E-01-6.478682684E-01+
*       8.2371570859E-01               0
GRID*               6279               06.7910073337E-01-5.852468392E-01+
*       8.1951786216E-01               0
GRID*               6280               06.1676223191E-01-5.533766722E-01+
*       7.6430709004E-01               0
GRID*               6281               05.5410073337E-01-5.166099299E-01+
*       7.6781077043E-01               0
GRID*               6282               05.6266149854E-01-5.846360495E-01+
*       7.3186894940E-01               0
GRID*               6283               05.6266149854E-01-5.233875254E-01+
*       6.9224531147E-01               0
GRID*               6284               06.5410975712E-013.5766299052E-01+
*       5.4369314152E-01               0
GRID*               6285               07.1660999502E-013.5766255891E-01+
*       5.4369232890E-01               0
GRID*               6286               07.1977178730E-013.3339207062E-01+
*       5.1524368108E-01               0
GRID*               6287               06.5727154940E-013.3339250224E-01+
*       5.1524449369E-01               0
GRID*               6288               06.8638178233E-013.7137841817E-01+
*       5.1437945128E-01               0
GRID*               6289               06.7910073337E-01-5.143763244E-01+
*       7.7017918993E-01               0
GRID*               6290               06.8766149854E-01-5.211539199E-01+
*       6.9461373098E-01               0
GRID*               6291               0-5.944613843E-01-3.963260912E-01+
*       8.2554039512E-01               0
GRID*               6292               0-5.960907171E-01-4.873479412E-01+
*       8.2199061299E-01               0
GRID*               6293               0-5.944622014E-01-4.040240566E-01+
*       7.7200833772E-01               0
GRID*               6294               06.8777956934E-01-7.285737441E-01+
*       4.3547325690E-01               0
GRID*               6295               06.4048440685E-01-6.840262845E-01+
*       1.1972310947E-01               0
GRID*               6296               0-6.576218425E-01-4.908836952E-01+
*       7.8693245051E-01               0
GRID*               6297               0-6.564880281E-01-4.062490951E-01+
*       7.6985414516E-01               0
GRID*               6298               0-6.874813548E-01-4.338089105E-01+
*       7.5680430892E-01               0
GRID*               6299               0-6.581165438E-01-4.895729797E-01+
*       8.1983642043E-01               0
GRID*               6300               0-5.318379783E-016.4148592004E-01+
*       -1.963506989E-01               0
GRID*               6301               0-5.455125161E-017.1627903433E-01+
*       -1.466615320E-01               0
GRID*               6302               0-5.745697616E-016.2990737794E-01+
*       -1.473700002E-01               0
GRID*               6303               06.5543394158E-01-9.728337750E-01+
*       1.9305183202E-01               0
GRID*               6304               06.6107163210E-01-8.696801537E-01+
*       1.5921493841E-01               0
GRID*               6305               06.8720280898E-01-9.346136560E-01+
*       1.9720947492E-01               0
GRID*               6306               07.1896717905E-01-9.617798809E-01+
*       1.9138610966E-01               0
GRID*               6307               07.1896717905E-01-9.617798809E-01+
*       2.6638610966E-01               0
GRID*               6308               0-5.957017223E-016.1764676109E-01+
*       -2.010193014E-01               0
GRID*               6309               0-5.105643159E-015.9456266250E-01+
*       -1.963506989E-01               0
GRID*               6310               0-6.389113927E-017.7616364324E-01+
*       8.6855850185E-02               0
GRID*               6311               06.2291830353E-01-5.873956202E-01+
*       1.3459378946E+00               0
GRID*               6312               06.2028529213E-01-6.022209395E-01+
*       1.4333083492E+00               0
GRID*               6313               06.5155150212E-01-5.779275223E-01+
*       1.3941906672E+00               0
GRID*               6314               07.1935068308E-01-7.838692696E-01+
*       1.3217426636E+00               0
GRID*               6315               06.5684982079E-01-7.616670242E-01+
*       1.3518253049E+00               0
GRID*               6316               07.1935068308E-01-7.372757312E-01+
*       1.3801689184E+00               0
GRID*               6317               0-6.926096001E-017.6344635078E-01+
*       6.9964971020E-02               0
GRID*               6318               07.1891221080E-019.5510691833E-01+
*       8.9634800137E-01               0
GRID*               6319               07.1827013136E-019.5834106131E-01+
*       8.6075933434E-01               0
GRID*               6320               06.8718234216E-019.2461744705E-01+
*       8.5806512065E-01               0
GRID*               6321               0-6.963017926E-017.0927933080E-01+
*       1.3827460278E-01               0
GRID*               6322               0-6.926096001E-016.9233256635E-01+
*       7.5269314230E-02               0
GRID*               6323               0-8.427188486E-016.4989208756E-01+
*       -1.116063390E-01               0
GRID*               6324               0-8.427185730E-016.4989278070E-01+
*       -1.532729207E-01               0
GRID*               6325               0-8.143936964E-017.5645795949E-01+
*       -1.116491419E-01               0
GRID*               6326               0-7.760115288E-016.9492261711E-01+
*       -1.399216665E-01               0
GRID*               6327               0-8.143934209E-017.5645865263E-01+
*       -1.533157236E-01               0
GRID*               6328               0-7.415404589E-018.6798316742E-01+
*       -1.693285009E-01               0
GRID*               6329               0-6.684936090E-018.8010631754E-01+
*       -1.746570994E-01               0
GRID*               6330               0-4.947161776E-016.4956548583E-01+
*       -7.135069885E-02               0
GRID*               6331               06.9190337507E-01-9.381204541E-01+
*       7.3826266598E-01               0
GRID*               6332               06.2940246503E-01-9.360650283E-01+
*       7.8355015435E-01               0
GRID*               6333               05.9308460306E-01-9.650990027E-01+
*       8.0917627106E-01               0
GRID*               6334               0-5.713017926E-018.1963212692E-01+
*       7.4930569368E-02               0
GRID*               6335               0-5.676096001E-017.4892451226E-01+
*       8.3702526582E-02               0
GRID*               6336               05.8902191416E-01-5.847074240E-01+
*       1.4038784746E+00               0
GRID*               6337               05.3123598527E-01-6.343188891E-01+
*       1.4780101663E+00               0
GRID*               6338               06.8408887156E-01-4.303197857E-01+
*       1.3201354965E+00               0
GRID*               6339               05.5908887156E-01-4.510211091E-01+
*       1.2849500537E+00               0
GRID*               6340               08.6529154532E-016.9555912887E-01+
*       -1.868667782E-01               0
GRID*               6341               08.2457969283E-016.4629608472E-01+
*       -1.587996713E-01               0
GRID*               6342               08.0182939575E-017.0703168363E-01+
*       -1.748181644E-01               0
GRID*               6343               05.3198086721E-01-3.908862190E-01+
*       6.1910968581E-01               0
GRID*               6344               05.3198086721E-01-3.684213503E-01+
*       5.6991694183E-01               0
GRID*               6345               05.9448005012E-01-3.908852770E-01+
*       6.1910660552E-01               0
GRID*               6346               05.9265703630E-01-3.963227427E-01+
*       6.5541535930E-01               0
GRID*               6347               05.3015785340E-01-3.963236847E-01+
*       6.5541843959E-01               0
GRID*               6348               05.6213872061E-01-4.226039487E-01+
*       6.3158606909E-01               0
GRID*               6349               07.1969065242E-01-3.950254244E-01+
*       6.5690495804E-01               0
GRID*               6350               06.5718983532E-01-3.950244823E-01+
*       6.5690187774E-01               0
GRID*               6351               07.1714179634E-01-3.877906880E-01+
*       6.2395797446E-01               0
GRID*               6352               06.8683244876E-01-4.182101574E-01+
*       6.3792087618E-01               0
GRID*               6353               06.5464097924E-01-3.877897460E-01+
*       6.2395489417E-01               0
GRID*               6354               08.0291997746E-017.2674418028E-01+
*       -9.299359770E-02               0
GRID*               6355               08.2567027453E-016.6600858136E-01+
*       -7.697510460E-02               0
GRID*               6356               07.5106261898E-016.3680349720E-01+
*       -1.802662246E-01               0
GRID*               6357               08.1192247267E-016.2907412828E-01+
*       -1.802662246E-01               0
GRID*               6358               07.8917217559E-016.8980972719E-01+
*       -1.962847177E-01               0
GRID*               6359               06.5401924267E-01-3.757297891E-01+
*       5.9777189217E-01               0
GRID*               6360               0-6.876533327E-011.0145218856E-02+
*       -1.904890629E-01               0
GRID*               6361               0-7.521754556E-01-6.070710805E-03+
*       -2.007967687E-01               0
GRID*               6362               0-6.654846703E-018.5854224628E-01+
*       1.9132329680E-01               0
GRID*               6363               02.5329691807E-027.6056911072E-01+
*       -7.126533879E-02               0
GRID*               6364               07.1638938960E-015.7084872849E-02+
*       -1.815489196E-01               0
GRID*               6365               07.7370679233E-011.7905850716E-02+
*       -1.755806612E-01               0
GRID*               6366               0-5.363698704E-027.0491090758E-01+
*       -1.208949958E-01               0
GRID*               6367               04.4499760771E-012.9377975552E-02+
*       -1.802232805E-01               0
GRID*               6368               0-7.254178126E-026.9156120011E-01+
*       -5.878256863E-02               0
GRID*               6369               0-4.040103127E-011.0463608111E-01+
*       -5.531224116E-02               0
GRID*               6370               0-4.666101055E-011.4311573406E-01+
*       -5.531224116E-02               0
GRID*               6371               0-5.439005767E-012.0060938472E-01+
*       -7.108930897E-02               0
GRID*               6372               0-4.673362288E-011.7504456494E-01+
*       -1.195288300E-01               0
GRID*               6373               0-2.812227961E-011.5037186358E-01+
*       -1.889999886E-01               0
GRID*               6374               08.1988240178E-02-5.777331585E-02+
*       -1.883150109E-01               0
GRID*               6375               0-2.145630181E-012.3019196919E-02+
*       -6.782855200E-02               0
GRID*               6376               0-8.319917027E-019.8110212591E-01+
*       -2.289174533E-01               0
GRID*               6377               0-8.596351022E-019.8110212591E-01+
*       -1.694143401E-01               0
GRID*               6378               0-9.055211145E-019.8110212591E-01+
*       -2.289174533E-01               0
GRID*               6379               0-5.318123754E-01-6.438958400E-02+
*       3.4680153937E-01               0
GRID*               6380               0-5.943116061E-01-1.162811995E-01+
*       3.6203872567E-01               0
GRID*               6381               05.5464357190E-015.8070134466E-01+
*       1.0369695367E+00               0
GRID*               6382               05.6298534288E-015.3287597915E-01+
*       1.1455436011E+00               0
GRID*               6383               05.6376811277E-014.8600889054E-01+
*       1.0685480061E+00               0
GRID*               6384               06.1841168468E-015.4270775904E-01+
*       1.0203787894E+00               0
GRID*               6385               06.2675345565E-014.9488239353E-01+
*       1.1289528538E+00               0
GRID*               6386               05.5464357190E-016.0439853200E-01+
*       9.6973142023E-01               0
GRID*               6387               05.6376811277E-015.0970607787E-01+
*       1.0013098896E+00               0
GRID*               6388               05.6763047102E-015.5700975604E-01+
*       8.9370588951E-01               0
GRID*               6389               0-2.828773243E-02-9.147335820E-01+
*       -1.363955508E-01               0
GRID*               6390               0-1.007612793E-01-9.147335820E-01+
*       -1.364014107E-01               0
GRID*               6391               0-5.916012544E-02-9.762217211E-01+
*       -9.440363525E-02               0
GRID*               6392               0-8.744785660E-02-8.909553031E-01+
*       -1.058633172E-01               0
GRID*               6393               06.7964357190E-016.1921655532E-01+
*       9.5293136821E-01               0
GRID*               6394               06.9263047102E-015.7182777937E-01+
*       8.7690583749E-01               0
GRID*               6395               06.8876811277E-015.2452410119E-01+
*       9.8450983759E-01               0
GRID*               6396               06.3139858379E-014.9531898309E-01+
*       9.4435325863E-01               0
GRID*               6397               0-6.568366578E-014.2707390648E-01+
*       9.8001097999E-01               0
GRID*               6398               0-6.570580371E-013.8162286643E-01+
*       1.0595958046E+00               0
GRID*               6399               0-2.138584180E-011.6717852051E-01+
*       -1.890368383E-01               0
GRID*               6400               0-5.640416763E-014.0214975142E-01+
*       1.0669789666E+00               0
GRID*               6401               0-5.514890288E-013.8695061275E-01+
*       1.1682990224E+00               0
GRID*               6402               0-5.584933971E-016.2658080100E-02+
*       1.5706796630E+00               0
GRID*               6403               0-5.584933971E-011.5006907091E-01+
*       1.5672812564E+00               0
GRID*               6404               0-5.940426188E-011.9675765376E-01+
*       1.6940363774E+00               0
GRID*               6405               0-5.900368779E-011.7342129570E-01+
*       1.5938513579E+00               0
GRID*               6406               0-5.984043623E-012.9410146688E-01+
*       1.5506067572E+00               0
GRID*               6407               0-5.934514941E-013.8003877475E-01+
*       1.6330813366E+00               0
GRID*               6408               03.9082240200E-022.4553101825E-01+
*       -1.831349247E-01               0
GRID*               6409               0-2.713809598E-032.3254973577E-01+
*       -1.284968519E-01               0
GRID*               6410               06.2383089977E-022.3514244476E-01+
*       -1.215445887E-01               0
GRID*               6411               01.4756297043E-021.7244105985E-01+
*       -1.337715911E-01               0
GRID*               6412               0-4.198072664E-022.5286944164E-01+
*       -1.953619272E-01               0
GRID*               6413               0-2.305242749E-012.0116182914E-01+
*       -1.865519743E-01               0
GRID*               6414               0-1.227334363E-011.7718292604E-01+
*       -1.319139015E-01               0
GRID*               6415               0-2.231465229E-012.4264059286E-01+
*       -1.214661767E-01               0
GRID*               6416               0-5.315685393E-01-3.583103355E-01+
*       1.6427850337E+00               0
GRID*               6417               0-5.314675290E-01-3.934565634E-01+
*       1.6326872334E+00               0
GRID*               6418               0-5.630360682E-01-3.864258957E-01+
*       1.5945985577E+00               0
GRID*               6419               06.8922677026E-01-6.520118672E-01+
*       1.0286074350E+00               0
GRID*               6420               06.8922677026E-01-6.320326709E-01+
*       8.9272615521E-01               0
GRID*               6421               06.3556294232E-01-6.946541001E-01+
*       8.9692400163E-01               0
GRID*               6422               0-7.210350252E-01-7.013453181E-01+
*       1.4254177954E+00               0
GRID*               6423               0-7.210350252E-01-6.406556286E-01+
*       1.3938395348E+00               0
GRID*               6424               0-7.210350252E-01-6.465642065E-01+
*       1.4762470449E+00               0
GRID*               6425               06.9064033523E-01-7.145615388E-01+
*       1.0765251021E+00               0
GRID*               6426               06.2516149854E-01-4.700771315E-01+
*       7.1937082128E-01               0
GRID*               6427               06.4687949032E-01-4.894833137E-01+
*       7.8243395907E-01               0
GRID*               6428               06.5544025549E-01-4.962609092E-01+
*       7.0686850011E-01               0
GRID*               6429               07.0219641541E-01-8.102393112E-01+
*       9.7547315046E-01               0
GRID*               6430               06.9064033523E-01-7.850611301E-01+
*       1.0709471071E+00               0
GRID*               6431               05.7719641541E-01-7.732732902E-01+
*       8.7534937627E-01               0
GRID*               6432               05.6422677026E-01-6.855454375E-01+
*       9.2290566584E-01               0
GRID*               6433               0-6.134279858E-01-7.363827254E-01+
*       2.1272663133E-01               0
GRID*               6434               0-6.256234965E-019.2043797024E-01+
*       7.8387561629E-01               0
GRID*               6435               0-6.357782604E-018.2908501525E-01+
*       8.1145264506E-01               0
GRID*               6436               0-6.566224542E-018.8897663137E-01+
*       7.7261055151E-01               0
GRID*               6437               0-6.661519015E-018.7307485462E-01+
*       8.5688694074E-01               0
GRID*               6438               0-5.528984316E-016.3994373015E-01+
*       2.0947565260E-01               0
GRID*               6439               0-5.525338497E-015.9521305911E-01+
*       1.0564417481E-01               0
GRID*               6440               0-6.891285157E-01-6.387839496E-01+
*       8.5474337930E-01               0
GRID*               6441               0-5.641285157E-01-5.590223067E-01+
*       9.0031354393E-01               0
GRID*               6442               0-5.641285157E-01-4.918796091E-01+
*       9.0659980789E-01               0
GRID*               6443               0-5.641285157E-01-5.108503424E-01+
*       8.4325032411E-01               0
GRID*               6444               0-6.819509459E-019.1594546093E-02+
*       1.3642426658E+00               0
GRID*               6445               0-5.633458737E-01-6.414143201E-01+
*       8.7714818270E-01               0
GRID*               6446               0-5.633458737E-01-7.113017659E-01+
*       8.9600558498E-01               0
GRID*               6447               0-1.127807195E+006.9060346270E-01+
*       -2.282713179E-01               0
GRID*               6448               0-1.135950757E+007.0908925788E-01+
*       -2.284876153E-01               0
GRID*               6449               0-6.891285157E-01-5.016085765E-01+
*       9.1450166701E-01               0
GRID*               6450               0-6.850903932E-01-4.540573161E-01+
*       1.0132042343E+00               0
GRID*               6451               0-7.200994456E-012.0242111781E-01+
*       1.0999926274E+00               0
GRID*               6452               0-5.650871193E-013.0968946965E-01+
*       1.1513282035E+00               0
GRID*               6453               0-6.584608406E-013.9894533930E-01+
*       1.0372425880E+00               0
GRID*               6454               06.6178860544E-01-9.410439897E-01+
*       -1.576469474E-01               0
GRID*               6455               06.3257667768E-01-9.410439897E-01+
*       -8.259587137E-02               0
GRID*               6456               0-5.303001936E-01-1.429154563E-01+
*       3.6984765524E-01               0
GRID*               6457               0-5.927994243E-01-1.429181108E-01+
*       3.6984907838E-01               0
GRID*               6458               0-5.303001936E-01-9.102649531E-02+
*       3.5461189209E-01               0
GRID*               6459               0-8.646485088E-017.4837040631E-01+
*       -2.025479913E-02               0
GRID*               6460               08.3724774988E-01-8.516407874E-01+
*       -2.102496039E-01               0
GRID*               6461               08.1000107196E-01-8.081590844E-01+
*       -2.102496039E-01               0
GRID*               6462               05.6783600216E-01-8.320970642E-01+
*       1.8376806101E-01               0
GRID*               6463               05.3085177160E-01-8.950350195E-01+
*       1.2367017242E-01               0
GRID*               6464               06.1175802410E-01-9.008283236E-01+
*       -1.435326280E-02               0
GRID*               6465               05.2531928754E-01-8.851666966E-01+
*       -2.555639324E-02               0
GRID*               6466               06.0622554004E-01-9.031337632E-01+
*       -5.820334060E-02               0
GRID*               6467               05.5617105914E-01-9.218741074E-01+
*       -7.262708681E-03               0
GRID*               6468               0-8.942991336E-018.4489687691E-01+
*       -6.220892724E-02               0
GRID*               6469               0-1.199545414E+00-7.067654831E-01+
*       -2.295510285E-01               0
GRID*               6470               0-1.143176539E+00-6.947031971E-01+
*       -2.089036097E-01               0
GRID*               6471               0-1.193631126E+00-6.802454063E-01+
*       -2.293525812E-01               0
GRID*               6472               0-1.216951554E+00-6.963949469E-01+
*       -2.278105726E-01               0
GRID*               6473               0-1.166496968E+00-7.108527377E-01+
*       -2.073616012E-01               0
GRID*               6474               0-1.160582680E+00-6.843326609E-01+
*       -2.071631539E-01               0
GRID*               6475               06.0270928823E-01-8.728707494E-01+
*       -9.550075888E-02               0
GRID*               6476               05.4712232327E-01-8.939165332E-01+
*       -8.841020476E-02               0
GRID*               6477               05.9286153913E-011.6910020471E-01+
*       2.8632545664E-01               0
GRID*               6478               05.9581844731E-011.7319338196E-01+
*       3.7584311607E-01               0
GRID*               6479               06.5525604183E-011.8523673008E-01+
*       3.8769335005E-01               0
GRID*               6480               06.5229913366E-011.8114355283E-01+
*       2.9817569063E-01               0
GRID*               6481               06.2607602772E-012.0056734253E-01+
*       3.5919331499E-01               0
GRID*               6482               0-9.487212741E-01-6.273137275E-01+
*       -2.073629159E-02               0
GRID*               6483               06.9420996494E-014.0947218881E-01+
*       4.1519023168E-01               0
GRID*               6484               06.9633617206E-01-7.305955130E-01+
*       8.7527592425E-01               0
GRID*               6485               05.7133617206E-01-6.791276457E-01+
*       7.9127756794E-01               0
GRID*               6486               05.6991730182E-01-6.797383595E-01+
*       6.9870469273E-01               0
GRID*               6487               05.7133617206E-01-7.400287974E-01+
*       8.3354053237E-01               0
GRID*               6488               07.0219641541E-01-7.896479694E-01+
*       8.6402726792E-01               0
GRID*               6489               06.9633617206E-01-7.564034767E-01+
*       8.2221842403E-01               0
GRID*               6490               07.0219641541E-01-8.436500733E-01+
*       8.4436116630E-01               0
GRID*               6491               06.9633617206E-01-8.104055805E-01+
*       8.0255232241E-01               0
GRID*               6492               0-1.224657359E+00-9.754027291E-01+
*       -6.329104717E-02               0
GRID*               6493               0-1.224657359E+00-9.754027291E-01+
*       -1.257910472E-01               0
GRID*               6494               0-5.670880559E-018.8706804863E-01+
*       6.2424105033E-01               0
GRID*               6495               0-5.310306562E-019.6781725042E-01+
*       6.2901423779E-01               0
GRID*               6496               0-5.981187120E-019.1944763279E-01+
*       6.2398884763E-01               0
GRID*               6497               0-5.310306562E-019.0325491667E-01+
*       6.5828067828E-01               0
GRID*               6498               01.2158190302E+00-5.432656136E-01+
*       -3.044336000E-02               0
GRID*               6499               01.1657316906E+00-5.887429915E-01+
*       -3.044336000E-02               0
GRID*               6500               01.1483699535E+00-5.143814334E-01+
*       -3.044336000E-02               0
GRID*               6501               0-5.631244065E-018.5793106225E-01+
*       6.9285456841E-01               0
GRID*               6502               0-5.941550627E-018.9031064642E-01+
*       6.9260236571E-01               0
GRID*               6503               01.1254675009E+00-4.232500257E-01+
*       -1.936249878E-01               0
GRID*               6504               01.0887723001E+00-4.543969872E-01+
*       -1.286534888E-01               0
GRID*               6505               01.1134345144E+00-4.958097567E-01+
*       -1.850285010E-01               0
GRID*               6506               01.1740927764E+00-4.637314223E-01+
*       -2.188604258E-01               0
GRID*               6507               01.1494305621E+00-4.223186528E-01+
*       -1.624854136E-01               0
GRID*               6508               01.1373975755E+00-4.948783838E-01+
*       -1.538889268E-01               0
GRID*               6509               01.2238003174E+00-5.342355133E-01+
*       -2.192572701E-01               0
GRID*               6510               01.1738651750E+00-4.973361417E-01+
*       -2.192572701E-01               0
GRID*               6511               01.1754026433E+00-3.832263204E-01+
*       -1.936249878E-01               0
GRID*               6512               0-6.920880559E-018.3472415449E-01+
*       5.8035471879E-01               0
GRID*               6513               0-6.920880559E-018.9091149516E-01+
*       6.2415165715E-01               0
GRID*               6514               0-6.849066319E-018.1591933215E-01+
*       6.4697219354E-01               0
GRID*               6515               08.7945044839E-018.6371307483E-01+
*       -1.076205000E-01               0
GRID*               6516               08.6004184769E-018.7597439978E-01+
*       -8.770883469E-02               0
GRID*               6517               09.0707706268E-018.6335797046E-01+
*       -6.342144969E-02               0
GRID*               6518               09.1172109080E-018.8711454343E-01+
*       -9.383472366E-02               0
GRID*               6519               08.6468587580E-018.9973097275E-01+
*       -1.181221087E-01               0
GRID*               6520               08.9231249009E-018.9937586838E-01+
*       -7.392305840E-02               0
GRID*               6521               08.5676507824E-018.3247369704E-01+
*       -1.492872772E-01               0
GRID*               6522               08.5846378613E-017.8231675526E-01+
*       -1.866981951E-01               0
GRID*               6523               07.9501292724E-017.5513674612E-01+
*       -1.746495781E-01               0
GRID*               6524               08.3411394129E-018.2617256237E-01+
*       -1.693188029E-01               0
GRID*               6525               07.8052449638E-018.7733369955E-01+
*       -1.909539425E-01               0
GRID*               6526               07.2571985999E-018.6335439342E-01+
*       -2.048179690E-01               0
GRID*               6527               08.5847507680E-017.4366419136E-01+
*       -1.866981919E-01               0
GRID*               6528               0-6.870304199E-014.7163466850E-01+
*       5.2758233845E-02               0
GRID*               6529               09.3354646257E-01-8.725271811E-01+
*       -2.286301259E-01               0
GRID*               6530               07.1827013136E-019.6392579502E-01+
*       7.8623822681E-01               0
GRID*               6531               06.2795420627E-016.3179607125E-01+
*       7.2762096260E-01               0
GRID*               6532               06.9089199826E-016.6653512473E-01+
*       7.8665013773E-01               0
GRID*               6533               07.1852884020E-019.6852066419E-01+
*       5.5818198278E-01               0
GRID*               6534               0-6.200356487E-011.9201701178E-02+
*       2.9110743586E-01               0
GRID*               6535               0-5.949558632E-014.7112413449E-02+
*       3.4562493574E-01               0
GRID*               6536               0-5.899941018E-011.2244708314E-02+
*       2.6286457681E-01               0
GRID*               6537               0-6.002750850E-018.6931868224E-02+
*       2.6241751808E-01               0
GRID*               6538               06.9344991718E-015.2045854619E-01+
*       1.0969292402E-01               0
GRID*               6539               0-5.645993252E-012.9359987248E-01+
*       1.6665239303E-01               0
GRID*               6540               0-6.336740965E-012.7681996072E-01+
*       1.1893465265E-01               0
GRID*               6541               0-6.324172521E-012.1433036955E-01+
*       1.8506116404E-01               0
GRID*               6542               05.9200089078E-018.6465033725E-01+
*       8.1188939911E-02               0
GRID*               6543               05.3009526081E-014.0041543919E-01+
*       7.9851030200E-01               0
GRID*               6544               05.3009526081E-013.9271841746E-01+
*       8.5203927935E-01               0
GRID*               6545               05.9259444371E-013.9271747543E-01+
*       8.5204235963E-01               0
GRID*               6546               0-5.935480655E-014.0604286145E-01+
*       7.6949876402E-01               0
GRID*               6547               0-5.310480655E-014.0604286145E-01+
*       7.6949876402E-01               0
GRID*               6548               0-5.627073072E-014.3434794001E-01+
*       7.5651450614E-01               0
GRID*               6549               0-5.316592417E-014.0830507379E-01+
*       7.3701574212E-01               0
GRID*               6550               0-6.899546040E-01-3.005374770E-01+
*       8.3343274822E-02               0
GRID*               6551               0-6.563386127E-01-4.752399786E-02+
*       3.4578964955E-01               0
GRID*               6552               0-6.513742614E-01-2.832229100E-02+
*       2.6302928980E-01               0
GRID*               6553               0-6.593736646E-01-8.995675977E-02+
*       2.7281688683E-01               0
GRID*               6554               0-5.622004124E-01-9.714125724E-02+
*       3.5461058494E-02               0
GRID*               6555               0-6.406986227E-01-4.670628610E-02+
*       -3.002800442E-02               0
GRID*               6556               05.6513237464E-01-6.281994482E-01+
*       1.2612505175E+00               0
GRID*               6557               06.5167995512E-01-5.684053158E-01+
*       1.4282113735E+00               0
GRID*               6558               06.9587289178E-01-7.198813509E-01+
*       1.1921240799E+00               0
GRID*               6559               01.2185177129E+00-1.920931091E-01+
*       -3.100978280E-02               0
GRID*               6560               05.6279714885E-01-5.608887952E-01+
*       2.4837068021E-01               0
GRID*               6561               06.2586714220E-01-5.460509523E-01+
*       2.6671153141E-01               0
GRID*               6562               06.2929598586E-01-6.214538148E-01+
*       2.6785181710E-01               0
GRID*               6563               01.0724909129E+007.6946779910E-02+
*       -6.338361052E-02               0
GRID*               6564               01.1346591668E+003.8171492182E-02+
*       -6.338361052E-02               0
GRID*               6565               01.0479152022E+001.2367998995E-01+
*       -1.189328584E-01               0
GRID*               6566               06.9149883701E-01-6.495286916E-01+
*       2.0877444106E-01               0
GRID*               6567               06.9764840468E-01-5.789074601E-01+
*       1.6230671340E-01               0
GRID*               6568               06.9491730182E-01-7.582732162E-01+
*       5.9658666920E-01               0
GRID*               6569               0-5.887426994E-015.4855568121E-01+
*       -2.023525060E-01               0
GRID*               6570               0-5.676107388E-015.6081629806E-01+
*       -1.487032048E-01               0
GRID*               6571               05.6277956934E-01-6.454313924E-01+
*       4.4647302000E-01               0
GRID*               6572               05.7219114330E-01-6.377101870E-01+
*       5.0677440020E-01               0
GRID*               6573               0-4.548512965E-015.5768684115E-01+
*       -1.963506989E-01               0
GRID*               6574               0-5.286371496E-015.4259729624E-01+
*       -1.963506989E-01               0
GRID*               6575               06.0805161831E-01-8.678417969E-01+
*       8.9194497792E-01               0
GRID*               6576               05.6264315119E-01-9.144078447E-01+
*       9.2709584957E-01               0
GRID*               6577               08.4257651532E-023.0062223221E-01+
*       -5.813492475E-02               0
GRID*               6578               01.5403490430E-014.0560796798E-01+
*       -6.488803932E-02               0
GRID*               6579               01.5485450993E-013.2972292836E-01+
*       -6.488803932E-02               0
GRID*               6580               07.1865389141E-01-7.090864578E-03+
*       3.4573577962E-01               0
GRID*               6581               07.1865389141E-014.6988678720E-02+
*       3.4573577881E-01               0
GRID*               6582               05.3155752226E-01-8.665827351E-01+
*       1.0407034145E+00               0
GRID*               6583               05.9719785749E-01-8.335931539E-01+
*       1.0523713911E+00               0
GRID*               6584               05.6564033523E-01-7.982596646E-01+
*       1.0704564928E+00               0
GRID*               6585               05.3077483447E-01-8.562224121E-01+
*       1.0728370859E+00               0
GRID*               6586               05.6233235673E-01-8.915559014E-01+
*       1.0547519842E+00               0
GRID*               6587               05.9641516970E-01-8.232328310E-01+
*       1.0845050625E+00               0
GRID*               6588               07.1914878513E-01-9.553938541E-01+
*       8.9235747196E-01               0
GRID*               6589               06.5664787508E-01-9.589231621E-01+
*       8.6312385281E-01               0
GRID*               6590               06.5664859953E-01-9.477418324E-01+
*       9.3212327966E-01               0
GRID*               6591               07.1798353740E-01-9.660033653E-01+
*       7.8408771592E-01               0
GRID*               6592               06.5988691247E-01-9.041238194E-01+
*       7.7235038189E-01               0
GRID*               6593               06.5548262735E-01-9.639479395E-01+
*       8.2937520430E-01               0
GRID*               6594               06.9190337507E-01-8.739573046E-01+
*       7.6203555430E-01               0
GRID*               6595               05.3037832120E-01-9.682001276E-01+
*       6.5241842340E-01               0
GRID*               6596               05.3037832120E-01-9.036377939E-01+
*       6.8168486472E-01               0
GRID*               6597               08.0634435801E-023.0898014932E-01+
*       -1.831349247E-01               0
GRID*               6598               01.5123129420E-013.3808084547E-01+
*       -1.898880393E-01               0
GRID*               6599               0-9.361851976E-02-4.140736347E-01+
*       -6.823584205E-02               0
GRID*               6600               0-1.143768790E-01-4.907184289E-01+
*       -5.643310787E-02               0
GRID*               6601               0-1.779526867E-01-4.531978992E-01+
*       -5.643310787E-02               0
GRID*               6602               05.5908887156E-01-3.897983109E-01+
*       1.2506418924E+00               0
GRID*               6603               05.5908887156E-01-4.467605063E-01+
*       1.2090241564E+00               0
GRID*               6604               07.1997136933E-01-2.243948827E-01+
*       1.0853852877E+00               0
GRID*               6605               05.3066259256E-014.1663473141E-02+
*       1.1524310751E+00               0
GRID*               6606               05.3066259256E-01-1.241607252E-02+
*       1.1524310759E+00               0
GRID*               6607               05.9316129761E-014.1658408216E-02+
*       1.1524315672E+00               0
GRID*               6608               07.2015325991E-01-1.537899903E-02+
*       1.1528160491E+00               0
GRID*               6609               0-9.806661402E-02-6.891416865E-01+
*       -1.139453014E-01               0
GRID*               6610               0-6.129753479E-012.1456851844E-01+
*       -3.348934063E-02               0
GRID*               6611               0-5.580605738E-014.5383532201E-01+
*       4.6574476594E-01               0
GRID*               6612               05.3214927804E-01-3.569258441E-01+
*       5.4399283125E-01               0
GRID*               6613               05.9464951594E-01-3.569262757E-01+
*       5.4399364387E-01               0
GRID*               6614               05.9464846094E-01-3.793897708E-01+
*       5.9318249493E-01               0
GRID*               6615               0-6.888916769E-016.5734786247E-01+
*       4.9987696847E-01               0
GRID*               6616               05.7124825439E-01-5.159487087E-01+
*       1.2340558371E+00               0
GRID*               6617               06.9013237464E-01-6.181179463E-01+
*       1.3184650891E+00               0
GRID*               6618               07.1940615533E-01-4.048503825E-01+
*       7.7143752559E-01               0
GRID*               6619               06.5690615533E-01-4.048503825E-01+
*       7.7143752559E-01               0
GRID*               6620               07.1777875695E-01-4.061837730E-01+
*       7.3749769031E-01               0
GRID*               6621               06.8718491228E-01-4.310341602E-01+
*       7.5893520442E-01               0
GRID*               6622               05.6257905904E-011.8624367442E-01+
*       1.2229922831E+00               0
GRID*               6623               06.4812742288E-01-4.835484648E-01+
*       8.4289036940E-01               0
GRID*               6624               06.5780287004E-01-3.808274193E-01+
*       1.0590391730E+00               0
GRID*               6625               05.6298534288E-016.0280123892E-01+
*       1.1384370903E+00               0
GRID*               6626               06.8876811277E-015.2399544251E-01+
*       1.0586862204E+00               0
GRID*               6627               05.6298534288E-014.5624810193E-01+
*       1.1530831542E+00               0
GRID*               6628               05.6376811277E-014.0938101332E-01+
*       1.0760875592E+00               0
GRID*               6629               05.7196027031E-013.8070059289E-01+
*       1.1831423103E+00               0
GRID*               6630               02.9824827677E-012.7866813916E-01+
*       -1.856767155E-01               0
GRID*               6631               04.1956117522E-013.2968306187E-01+
*       -1.793296911E-01               0
GRID*               6632               03.4450649764E-013.3875939741E-01+
*       -1.793296911E-01               0
GRID*               6633               03.7632841025E-013.1002902771E-01+
*       -1.150064066E-01               0
GRID*               6634               03.4924711072E-014.9295815394E-01+
*       -5.443205703E-02               0
GRID*               6635               03.9834729652E-014.1511983204E-01+
*       -5.432969111E-02               0
GRID*               6636               03.8406452331E-015.4659412747E-01+
*       -1.794320570E-01               0
GRID*               6637               06.9344991718E-014.7919537021E-01+
*       4.0385185885E-02               0
GRID*               6638               07.5394988840E-014.9508235575E-01+
*       -6.247249407E-02               0
GRID*               6639               06.9725310808E-014.6093482513E-01+
*       -1.354061130E-01               0
GRID*               6640               06.9682491810E-014.9956122681E-01+
*       -1.356222094E-01               0
GRID*               6641               06.0196862968E-013.6874759066E-01+
*       -1.979336189E-01               0
GRID*               6642               05.7200847216E-014.4287541492E-01+
*       -1.979336189E-01               0
GRID*               6643               06.9088223534E-01-3.040916151E-01+
*       1.1656088073E+00               0
GRID*               6644               06.8408887156E-01-3.935149888E-01+
*       1.1855502664E+00               0
GRID*               6645               06.2366933780E-01-3.905154890E-01+
*       5.4801849137E-01               0
GRID*               6646               05.2990753971E-01-3.342247381E-01+
*       5.1523970125E-01               0
GRID*               6647               05.9240777761E-01-3.342251697E-01+
*       5.1524051387E-01               0
GRID*               6648               05.6205681774E-01-3.714743646E-01+
*       5.1467596414E-01               0
GRID*               6649               0-7.803369305E-019.0499473304E-01+
*       -1.612126748E-01               0
GRID*               6650               0-8.060126087E-018.4239393262E-01+
*       -2.054254269E-02               0
GRID*               6651               0-8.436522687E-018.5707281969E-01+
*       -8.240895125E-02               0
GRID*               6652               0-7.817421823E-018.3008537740E-01+
*       -2.133204198E-02               0
GRID*               6653               0-8.377547910E-018.2632546387E-01+
*       -4.187458467E-02               0
GRID*               6654               0-8.193818423E-018.4476426447E-01+
*       -8.319845053E-02               0
GRID*               6655               0-6.826713677E-01-2.934868082E-01+
*       1.1579328263E+00               0
GRID*               6656               0-6.530331770E-01-3.281573468E-01+
*       1.1696298666E+00               0
GRID*               6657               0-6.530331770E-01-3.224826545E-01+
*       1.0972871188E+00               0
GRID*               6658               0-5.857045448E-01-2.640054867E-01+
*       1.1695043231E+00               0
GRID*               6659               0-5.576713677E-01-3.028781785E-01+
*       1.1651839480E+00               0
GRID*               6660               0-5.591558635E-01-3.931214349E-01+
*       1.1847635745E+00               0
GRID*               6661               0-6.201721370E-01-1.964362033E-01+
*       1.1629034418E+00               0
GRID*               6662               0-6.514980953E-01-2.198280869E-01+
*       1.1802591029E+00               0
GRID*               6663               0-6.563274968E-01-1.812546498E-01+
*       1.1130125142E+00               0
GRID*               6664               0-6.061163555E-01-1.905232322E-01+
*       1.1005964940E+00               0
GRID*               6665               0-6.012869539E-01-2.290966693E-01+
*       1.1678430827E+00               0
GRID*               6666               0-6.374423137E-01-2.139151158E-01+
*       1.1179521551E+00               0
GRID*               6667               0-8.951323652E-019.0103278585E-01+
*       -7.584452231E-02               0
GRID*               6668               0-9.483948049E-018.8818799173E-01+
*       -9.273159578E-02               0
GRID*               6669               0-9.317065232E-019.0102788313E-01+
*       -7.278968956E-02               0
GRID*               6670               0-9.336424020E-019.2522115147E-01+
*       -1.051852552E-01               0
GRID*               6671               0-6.562562572E-01-1.516000943E-01+
*       1.1298910665E+00               0
GRID*               6672               0-6.875822154E-01-1.749919779E-01+
*       1.1472467276E+00               0
GRID*               6673               0-6.514268556E-01-1.901735314E-01+
*       1.1971376552E+00               0
GRID*               6674               0-9.585190117E-019.1393509481E-01+
*       -2.078105070E-01               0
GRID*               6675               0-9.887656645E-019.0580787348E-01+
*       -1.870309715E-01               0
GRID*               6676               0-9.660388633E-019.0576467672E-01+
*       -1.588530938E-01               0
GRID*               6677               0-9.357922106E-019.1389189805E-01+
*       -1.796326294E-01               0
GRID*               6678               0-9.548045278E-019.3657255020E-01+
*       -1.792173986E-01               0
GRID*               6679               0-9.907901646E-019.3681620110E-01+
*       -1.774070612E-01               0
GRID*               6680               0-9.680633634E-019.3677300433E-01+
*       -1.492291835E-01               0
GRID*               6681               0-8.592379032E-018.7617556890E-01+
*       -8.359088688E-02               0
GRID*               6682               06.8876811277E-014.5229234842E-01+
*       1.0154980119E+00               0
GRID*               6683               06.2626729568E-014.0630968631E-01+
*       9.5451068700E-01               0
GRID*               6684               06.2626835067E-013.8384618663E-01+
*       1.0036995357E+00               0
GRID*               6685               06.5650801135E-013.5309204829E-01+
*       9.6210716586E-01               0
GRID*               6686               06.5650695636E-013.7555554797E-01+
*       9.1291831720E-01               0
GRID*               6687               06.5777588623E-014.1726116658E-01+
*       1.0103648889E+00               0
GRID*               6688               01.1512233929E+00-8.176029268E-01+
*       -9.288121287E-02               0
GRID*               6689               01.1512236694E+00-8.176022339E-01+
*       -1.345477946E-01               0
GRID*               6690               01.1510617623E+00-7.827478822E-01+
*       -1.144378012E-01               0
GRID*               6691               01.1833861181E+00-8.117782712E-01+
*       -1.239851998E-01               0
GRID*               6692               01.1510620388E+00-7.827471894E-01+
*       -1.561043829E-01               0
GRID*               6693               01.2014790690E+00-7.173235111E-01+
*       -2.191554585E-01               0
GRID*               6694               01.2342595743E+00-7.125599834E-01+
*       -2.191554585E-01               0
GRID*               6695               01.2167426993E+00-6.962451339E-01+
*       -1.882305027E-01               0
GRID*               6696               06.3012965392E-014.5361336449E-01+
*       8.4690668690E-01               0
GRID*               6697               06.5657697909E-013.8884436737E-01+
*       8.8716968154E-01               0
GRID*               6698               06.6170826721E-014.7785366414E-01+
*       8.7701225317E-01               0
GRID*               6699               06.5784590896E-014.3054998597E-01+
*       9.8461625326E-01               0
GRID*               6700               01.1349166718E+00-7.378095457E-01+
*       -1.870321610E-01               0
GRID*               6701               01.1517982792E+00-7.358074957E-01+
*       -2.084331849E-01               0
GRID*               6702               01.1677771062E+00-7.501813605E-01+
*       -1.778062226E-01               0
GRID*               6703               0-6.505243768E-02-9.147335820E-01+
*       -1.989276164E-01               0
GRID*               6704               06.9263047102E-014.9959602660E-01+
*       9.0789401178E-01               0
GRID*               6705               01.2212039158E+004.9926642815E-01+
*       -3.111006486E-02               0
GRID*               6706               01.2212039158E+004.2234335123E-01+
*       -3.111006486E-02               0
GRID*               6707               01.1639321939E+004.6061730175E-01+
*       -3.111006486E-02               0
GRID*               6708               04.1681026163E-02-9.403432493E-01+
*       -1.363429909E-01               0
GRID*               6709               0-2.256502208E-02-9.757273967E-01+
*       -9.471557529E-02               0
GRID*               6710               01.9116005354E-02-9.160706460E-01+
*       -1.061226974E-01               0
GRID*               6711               0-5.085275324E-02-8.904609787E-01+
*       -1.061752572E-01               0
GRID*               6712               0-2.559117339E-01-9.668156254E-01+
*       -1.554542960E-01               0
GRID*               6713               0-2.578440864E-01-9.327982329E-01+
*       -1.883893831E-01               0
GRID*               6714               0-2.839870984E-01-9.022047025E-01+
*       -1.442677953E-01               0
GRID*               6715               01.6799064189E-015.2730173090E-01+
*       -5.696347214E-02               0
GRID*               6716               0-1.233414757E+005.9877577302E-01+
*       -2.198504796E-01               0
GRID*               6717               0-1.233414757E+006.3723731148E-01+
*       -1.573504796E-01               0
GRID*               6718               0-1.232771241E+005.6552411633E-01+
*       -2.280791738E-01               0
GRID*               6719               0-1.216185999E+006.2583835089E-01+
*       -1.979296534E-01               0
GRID*               6720               0-1.232771241E+006.0398565480E-01+
*       -1.655791738E-01               0
GRID*               6721               0-5.955182120E-012.5893322052E-01+
*       1.1595008982E+00               0
GRID*               6722               0-1.105102761E+006.5937665518E-01+
*       -2.282713179E-01               0
GRID*               6723               0-1.105103573E+006.5937731712E-01+
*       -1.866047584E-01               0
GRID*               6724               0-1.037524304E+006.1323205308E-01+
*       -2.278616781E-01               0
GRID*               6725               0-1.074287569E+006.2516157287E-01+
*       -2.278616781E-01               0
GRID*               6726               0-5.942221662E-012.2657867309E-01+
*       1.0833721285E+00               0
GRID*               6727               0-5.968078239E-012.3586746161E-01+
*       1.1732469375E+00               0
GRID*               6728               0-8.494148064E-01-7.394276626E-01+
*       -1.478053977E-01               0
GRID*               6729               0-8.597350655E-01-7.832155387E-01+
*       -1.868141183E-01               0
GRID*               6730               0-8.280494065E-01-7.340720331E-01+
*       -1.679525383E-01               0
GRID*               6731               0-8.080441538E-01-8.042207126E-01+
*       -1.777932252E-01               0
GRID*               6732               0-4.032982717E-018.3651015740E-01+
*       -7.392710582E-02               0
GRID*               6733               0-1.074348853E-019.7219637710E-01+
*       -3.107065768E-02               0
GRID*               6734               0-4.278606607E-01-5.446195405E-01+
*       -1.305456516E-01               0
GRID*               6735               0-6.258920005E-01-3.295640069E-01+
*       -1.300502126E-01               0
GRID*               6736               03.7988548301E-025.8140818656E-01+
*       -1.199522352E-01               0
GRID*               6737               07.0531186045E-026.5965762351E-01+
*       -1.142084908E-01               0
GRID*               6738               09.0933912208E-01-6.349740827E-01+
*       -6.283290825E-02               0
GRID*               6739               09.0933994926E-01-6.349734082E-01+
*       -2.116635077E-02               0
GRID*               6740               09.2023815708E-01-6.082685125E-01+
*       -4.181414389E-02               0
GRID*               6741               0-6.882442335E-01-6.203366463E-01+
*       -7.344452481E-02               0
GRID*               6742               0-7.221088072E-01-6.962479555E-01+
*       -1.379164337E-01               0
GRID*               6743               0-6.183905377E-01-5.051962828E-01+
*       7.3505310021E-02               0
GRID*               6744               0-8.339519120E-01-6.598502266E-01+
*       -6.447190889E-02               0
GRID*               6745               0-8.558141326E-01-5.855266018E-01+
*       -7.007829728E-02               0
GRID*               6746               01.9312987185E-014.0230134268E-01+
*       -1.898880393E-01               0
GRID*               6747               02.5524647983E-014.3962472135E-01+
*       -1.193200963E-01               0
GRID*               6748               01.0959205801E+00-5.038249481E-01+
*       -6.002850104E-02               0
GRID*               6749               01.1132823172E+00-5.781865062E-01+
*       -6.002850104E-02               0
GRID*               6750               01.0684336858E+00-5.574180945E-01+
*       -6.002850104E-02               0
GRID*               6751               01.0712941056E+00-6.213051665E-01+
*       -2.292767791E-01               0
GRID*               6752               01.0712963179E+00-6.213067991E-01+
*       -1.876104087E-01               0
GRID*               6753               01.0929825918E+00-6.369478053E-01+
*       -2.283296980E-01               0
GRID*               6754               01.0908455109E+00-6.094096288E-01+
*       -2.076064771E-01               0
GRID*               6755               01.0929848041E+00-6.369494379E-01+
*       -1.866633275E-01               0
GRID*               6756               0-1.154263923E+00-2.017227993E-04+
*       -3.119227596E-02               0
GRID*               6757               0-1.104540619E+001.9571629666E-03+
*       -8.808883444E-02               0
GRID*               6758               0-1.119269983E+00-6.401143972E-02+
*       -9.503324131E-02               0
GRID*               6759               01.1300281447E+00-4.998210923E-01+
*       -9.204520986E-02               0
GRID*               6760               01.1291886870E+00-5.375132035E-01+
*       -9.047186104E-02               0
GRID*               6761               01.1824775181E+00-5.103775776E-01+
*       -6.246006882E-02               0
GRID*               6762               08.2529446706E-014.6151497000E-01+
*       -1.817763856E-01               0
GRID*               6763               08.4275365554E-015.0814812523E-01+
*       -1.120426103E-01               0
GRID*               6764               09.4210611871E-015.4448119488E-01+
*       -1.908413449E-01               0
GRID*               6765               0-6.125809079E-011.3841138366E-01+
*       -1.960893090E-01               0
GRID*               6766               01.1392546845E+006.7207597138E-01+
*       -1.568468182E-01               0
GRID*               6767               0-5.050953943E-011.5389899659E-02+
*       -1.803122412E-01               0
GRID*               6768               01.1599122698E+007.0721196375E-01+
*       -2.298191799E-01               0
GRID*               6769               01.1964741282E+006.8682436820E-01+
*       -2.298191799E-01               0
GRID*               6770               01.2185113850E+006.9691856608E-01+
*       -2.275780980E-01               0
GRID*               6771               01.1819495267E+007.1730616163E-01+
*       -2.275780980E-01               0
GRID*               6772               01.1649855131E+006.9143524198E-01+
*       -2.073972779E-01               0
GRID*               6773               01.2175805423E+004.1995104290E-01+
*       -2.187829154E-01               0
GRID*               6774               07.0219641541E-01-8.317978492E-01+
*       9.1044757229E-01               0
GRID*               6775               07.1823562993E-01-9.728337750E-01+
*       1.5582336527E-01               0
GRID*               6776               06.5403781799E-01-9.728337750E-01+
*       1.1693550005E-01               0
GRID*               6777               01.0345266796E+00-9.845571468E-01+
*       -3.116418121E-02               0
GRID*               6778               09.9921351860E-01-9.845571468E-01+
*       -9.385107773E-02               0
GRID*               6779               09.5119334628E-01-9.845571468E-01+
*       -3.116418121E-02               0
GRID*               6780               06.3969550537E-01-9.057577970E-01+
*       8.6587576635E-01               0
GRID*               6781               06.7134520054E-01-8.687918106E-01+
*       8.8842464241E-01               0
GRID*               6782               05.6649883701E-01-6.672505175E-01+
*       2.6064379138E-01               0
GRID*               6783               06.7017995281E-01-8.738165881E-01+
*       8.5467599390E-01               0
GRID*               6784               05.8817293109E-01-9.678699797E-01+
*       8.4232317317E-01               0
GRID*               6785               06.0287025656E-01-8.777386282E-01+
*       8.6762396277E-01               0
GRID*               6786               06.1865737854E-01-9.359287707E-01+
*       8.3112340071E-01               0
GRID*               6787               07.1883355757E-01-9.726440203E-01+
*       4.3976970004E-02               0
GRID*               6788               06.5463574563E-01-9.726440203E-01+
*       8.0089104784E-02               0
GRID*               6789               07.1883355757E-01-9.726440203E-01+
*       1.1897697000E-01               0
GRID*               6790               0-1.037778999E-01-3.474442140E-01+
*       -1.932358421E-01               0
GRID*               6791               0-1.929724158E-01-3.487842547E-01+
*       -1.870985343E-01               0
GRID*               6792               0-5.312736391E-01-2.516917791E-01+
*       1.6801760634E+00               0
GRID*               6793               0-3.643638625E-01-9.083072498E-02+
*       -1.846632688E-01               0
GRID*               6794               0-6.358960104E-02-2.837964411E-01+
*       -1.932358421E-01               0
GRID*               6795               0-5.580605738E-014.0478380033E-01+
*       4.0704643298E-01               0
GRID*               6796               0-1.254335121E-02-1.743374212E-01+
*       -1.740579789E-01               0
GRID*               6797               0-5.306549644E-012.8033254690E-01+
*       4.5418140965E-01               0
GRID*               6798               0-5.336678684E-012.5516496850E-01+
*       4.3203071072E-01               0
GRID*               6799               0-4.698087524E-017.3217504116E-01+
*       -7.392710582E-02               0
GRID*               6800               0-6.870304199E-014.3642204582E-01+
*       1.3501169654E-01               0
GRID*               6801               0-6.870304199E-013.8004928866E-01+
*       2.0586764141E-01               0
GRID*               6802               0-5.319995411E-011.8544909530E-01+
*       3.8773299656E-01               0
GRID*               6803               0-5.945003104E-011.8545174983E-01+
*       3.8773441970E-01               0
GRID*               6804               0-5.319995411E-012.3094350159E-01+
*       4.1697091153E-01               0
GRID*               6805               0-5.514890288E-013.9262530456E-01+
*       1.2406417714E+00               0
GRID*               6806               0-5.641798425E-01-5.576159403E-01+
*       1.3531224282E+00               0
GRID*               6807               0-5.514890288E-013.9324560462E-01+
*       1.3128446092E+00               0
GRID*               6808               0-7.180290156E-011.7928600753E-01+
*       1.1139422058E+00               0
GRID*               6809               0-6.555304773E-012.2477596453E-01+
*       1.0847079452E+00               0
GRID*               6810               04.7955260840E-012.9794977608E-01+
*       -1.097321877E-01               0
GRID*               6811               07.0673074411E-014.2330198077E-01+
*       -1.354455615E-01               0
GRID*               6812               0-6.888916769E-016.9927103327E-01+
*       5.5210585169E-01               0
GRID*               6813               0-6.888916769E-017.1230046112E-01+
*       4.9693465457E-01               0
GRID*               6814               0-5.850260766E-014.8868667681E-01+
*       8.1190666320E-01               0
GRID*               6815               0-5.599066319E-016.8373673801E-01+
*       6.3314961300E-01               0
GRID*               6816               0-5.314592580E-013.9199417672E-01+
*       6.1921176224E-01               0
GRID*               6817               0-5.311330671E-013.9513322069E-01+
*       6.5661771815E-01               0
GRID*               6818               08.1789675582E-014.7098555756E-01+
*       -5.677638565E-02               0
GRID*               6819               08.2141845424E-014.6623277652E-01+
*       -1.194649761E-01               0
GRID*               6820               09.0833028231E-01-2.931712731E-01+
*       -6.725853226E-02               0
GRID*               6821               0-6.580312282E-014.1532910576E-01+
*       1.0049303293E+00               0
GRID*               6822               0-7.185439693E-011.5043853479E-01+
*       1.1249650430E+00               0
GRID*               6823               0-5.941553072E-012.9293163988E-01+
*       1.0281425127E+00               0
GRID*               6824               0-7.185439693E-019.8549577234E-02+
*       1.1402008163E+00               0
GRID*               6825               0-6.560452642E-019.8544512309E-02+
*       1.1402013084E+00               0
GRID*               6826               0-5.674539106E-011.8235149637E-01+
*       1.4768754604E+00               0
GRID*               6827               0-6.532052819E-018.2475609265E-02+
*       1.6036461497E+00               0
GRID*               6828               09.6776499800E-01-3.331684468E-01+
*       -6.725853226E-02               0
GRID*               6829               02.1665935317E-014.4405016325E-01+
*       -6.488803932E-02               0
GRID*               6830               02.1725468940E-013.6801558549E-01+
*       -6.488803932E-02               0
GRID*               6831               06.8713232253E-01-9.269819531E-01+
*       8.5192408035E-01               0
GRID*               6832               08.4644394884E-022.2419500601E-01+
*       -5.813492475E-02               0
GRID*               6833               01.5524125328E-012.5329570216E-01+
*       -6.488803932E-02               0
GRID*               6834               02.6921306291E-013.9437531583E-01+
*       -1.898880393E-01               0
GRID*               6835               03.8745302840E-014.0270920232E-01+
*       -1.793296911E-01               0
GRID*               6836               03.0434666563E-013.6178639946E-01+
*       -1.192177304E-01               0
GRID*               6837               03.5222496778E-012.7843768923E-01+
*       -6.067671552E-02               0
GRID*               6838               02.8923643402E-013.1625821373E-01+
*       -6.067671552E-02               0
GRID*               6839               03.9848318865E-013.3852894747E-01+
*       -5.432969111E-02               0
GRID*               6840               03.3549465490E-013.7634947197E-01+
*       -5.432969111E-02               0
GRID*               6841               0-5.935612180E-01-3.149717739E-02+
*       1.7096463819E+00               0
GRID*               6842               0-6.039338127E-01-7.287344860E-02+
*       1.5951732927E+00               0
GRID*               6843               0-5.623414978E-01-2.561301875E-02+
*       1.6714986682E+00               0
GRID*               6844               0-7.184980477E-019.6089850167E-01+
*       8.5854353112E-01               0
GRID*               6845               0-6.875653725E-019.2735880001E-01+
*       8.5195243785E-01               0
GRID*               6846               0-7.188267276E-01-1.812519947E-01+
*       1.1130139371E+00               0
GRID*               6847               0-7.187554879E-01-1.515974392E-01+
*       1.1298924894E+00               0
GRID*               6848               03.4937774400E-015.6938036724E-01+
*       -5.443205703E-02               0
GRID*               6849               0-7.825275598E-025.9179419470E-01+
*       -1.225473029E-01               0
GRID*               6850               0-5.944862874E-034.9852607181E-01+
*       -1.819634721E-01               0
GRID*               6851               0-1.091332958E+00-2.174387830E-01+
*       -6.521938708E-02               0
GRID*               6852               0-1.092782565E+00-2.946865754E-01+
*       -6.521938708E-02               0
GRID*               6853               0-1.121915866E+00-2.564201010E-01+
*       -9.621300386E-02               0
GRID*               6854               0-6.881244065E-017.9954974046E-01+
*       7.1983518447E-01               0
GRID*               6855               02.8579913287E-015.3022237163E-01+
*       -5.443205703E-02               0
GRID*               6856               02.2626653214E-013.3042551092E-01+
*       -1.898880393E-01               0
GRID*               6857               0-1.078893821E+00-9.432853302E-01+
*       -2.026800992E-02               0
GRID*               6858               0-1.028203301E+00-8.970126044E-01+
*       -4.097641892E-02               0
GRID*               6859               0-1.032642814E+00-9.537272742E-01+
*       -2.070840900E-02               0
GRID*               6860               0-1.058021312E+00-9.120421977E-01+
*       -4.222854322E-02               0
GRID*               6861               0-1.011770306E+00-9.224841416E-01+
*       -4.266894230E-02               0
GRID*               6862               04.0216109806E-01-8.191244007E-01+
*       -5.822892708E-02               0
GRID*               6863               03.3564849365E-01-8.465502275E-01+
*       -5.822892708E-02               0
GRID*               6864               0-7.184933268E-01-4.075598106E-01+
*       7.3695017524E-01               0
GRID*               6865               0-7.189880281E-01-4.062490951E-01+
*       7.6985414516E-01               0
GRID*               6866               01.2338849821E+00-8.192154300E-01+
*       -2.179974658E-01               0
GRID*               6867               01.2011101286E+00-8.048191338E-01+
*       -2.179974658E-01               0
GRID*               6868               01.2332242704E+00-8.536839926E-01+
*       -2.188942114E-01               0
GRID*               6869               01.2171092525E+00-8.267455764E-01+
*       -1.868916773E-01               0
GRID*               6870               01.2004494169E+00-8.392876963E-01+
*       -2.188942114E-01               0
GRID*               6871               04.6468615552E-01-4.455805848E-01+
*       -6.341313363E-02               0
GRID*               6872               0-5.304011534E-01-9.703705420E-01+
*       3.3994081139E-01               0
GRID*               6873               0-5.304011534E-01-9.703705420E-01+
*       4.1494081139E-01               0
GRID*               6874               0-5.304011534E-01-9.100313766E-01+
*       3.8392611058E-01               0
GRID*               6875               06.2158202166E-019.2866744652E-01+
*       3.9572343821E-01               0
GRID*               6876               06.5649163478E-019.6834644728E-01+
*       3.3519699228E-01               0
GRID*               6877               06.5338205650E-018.9701389380E-01+
*       3.5716236904E-01               0
GRID*               6878               06.5629713627E-019.6834644728E-01+
*       2.6059258572E-01               0
GRID*               6879               05.5923622168E-019.2866744652E-01+
*       4.3384440748E-01               0
GRID*               6880               05.3102587675E-019.7070901725E-01+
*       4.8550662972E-01               0
GRID*               6881               05.9026209843E-018.9937646377E-01+
*       4.6935103720E-01               0
GRID*               6882               05.9349669782E-019.7070901725E-01+
*       5.2178949656E-01               0
GRID*               6883               0-1.144831503E+00-8.317796397E-01+
*       -2.299679420E-01               0
GRID*               6884               0-1.199573863E+00-8.048097562E-01+
*       -2.299679420E-01               0
GRID*               6885               0-1.217139757E+00-8.324084059E-01+
*       -2.282955809E-01               0
GRID*               6886               0-1.162397397E+00-8.593782894E-01+
*       -2.282955809E-01               0
GRID*               6887               0-1.166713621E+00-7.910643159E-01+
*       -2.082635229E-01               0
GRID*               6888               06.7120387154E-018.6811829364E-01+
*       3.0937305336E-01               0
GRID*               6889               06.8423622168E-019.2866744652E-01+
*       4.3384440748E-01               0
GRID*               6890               06.8423622168E-018.6619936926E-01+
*       4.6429607723E-01               0
GRID*               6891               05.5266547373E-019.3729676541E-01+
*       5.9023849440E-01               0
GRID*               6892               0-7.189914637E-019.7115144103E-01+
*       4.8552866943E-01               0
GRID*               6893               0-6.610486764E-019.0804972819E-01+
*       4.6791288912E-01               0
GRID*               6894               0-6.015269063E-018.6212769339E-01+
*       1.8460683635E-01               0
GRID*               6895               0-5.885480326E-018.5282298899E-01+
*       2.6977368822E-01               0
GRID*               6896               0-5.311249041E-019.7080795863E-01+
*       4.0866510637E-01               0
GRID*               6897               0-5.311249041E-019.0901667916E-01+
*       3.6553949421E-01               0
GRID*               6898               0-5.981821168E-019.0770624579E-01+
*       3.9104932605E-01               0
GRID*               6899               0-5.312236566E-019.0568241875E-01+
*       3.3002692255E-01               0
GRID*               6900               0-5.982808693E-019.0437198538E-01+
*       3.5553675439E-01               0
GRID*               6901               0-5.623485607E-019.3828165684E-01+
*       3.3181764107E-01               0
GRID*               6902               06.4869597249E-01-4.471257719E-01+
*       1.5011659901E+00               0
GRID*               6903               05.3202850341E-01-7.445904580E-01+
*       1.3761092230E+00               0
GRID*               6904               05.6588223534E-01-2.436368031E-01+
*       1.2659824020E+00               0
GRID*               6905               05.5908887156E-01-3.330601768E-01+
*       1.2859238611E+00               0
GRID*               6906               0-1.137358120E+007.9663827999E-01+
*       -2.282676914E-01               0
GRID*               6907               0-1.134730150E+007.6719189225E-01+
*       -2.290089687E-01               0
GRID*               6908               0-1.014561906E+006.1431856127E-01+
*       -2.121269266E-02               0
GRID*               6909               0-1.014561905E+006.1431856128E-01+
*       -6.287935933E-02               0
GRID*               6910               0-1.007177313E+005.9305142473E-01+
*       -4.261167977E-02               0
GRID*               6911               06.6522357486E-01-7.144260085E-01+
*       1.2641703611E+00               0
GRID*               6912               06.5948305772E-01-6.960122207E-01+
*       1.3192366802E+00               0
GRID*               6913               0-6.778984316E-016.4830795805E-01+
*       2.0896598834E-01               0
GRID*               6914               0-6.024016801E-018.6477841685E-01+
*       1.4509694939E-01               0
GRID*               6915               0-5.670880559E-018.8916230512E-01+
*       5.5042627959E-01               0
GRID*               6916               0-5.313223939E-019.6893917875E-01+
*       5.5825836301E-01               0
GRID*               6917               0-5.984104498E-019.2056956112E-01+
*       5.5323297285E-01               0
GRID*               6918               01.0070469564E+006.0321607485E-01+
*       -2.247911218E-02               0
GRID*               6919               0-6.757963385E-018.3594431773E-01+
*       -7.531083315E-02               0
GRID*               6920               0-6.389202486E-018.7356748203E-01+
*       -9.970846516E-02               0
GRID*               6921               0-6.015514583E-018.5579422985E-01+
*       9.4524494114E-02               0
GRID*               6922               0-6.976538539E-018.4242846983E-01+
*       8.4663740471E-01               0
GRID*               6923               0-6.902302658E-018.0758333217E-01+
*       8.0435526428E-01               0
GRID*               6924               0-6.881244065E-018.5833024658E-01+
*       7.6236101548E-01               0
GRID*               6925               0-1.153890109E+00-8.213194069E-01+
*       -2.110113044E-02               0
GRID*               6926               0-6.881244065E-018.6177450879E-01+
*       6.9276517523E-01               0
GRID*               6927               05.3199696381E-013.1512039656E-01+
*       1.0119390456E+00               0
GRID*               6928               05.9449720170E-013.1512082819E-01+
*       1.0119382329E+00               0
GRID*               6929               0-5.599066319E-018.1207588561E-01+
*       6.4706158672E-01               0
GRID*               6930               0-6.862213441E-01-8.820518306E-01+
*       5.5009709475E-01               0
GRID*               6931               07.8445732681E-02-9.403432493E-01+
*       -1.988750565E-01               0
GRID*               6932               01.1579815078E-01-8.744230406E-01+
*       -1.988750565E-01               0
GRID*               6933               01.1415457053E-01-9.403432493E-01+
*       -1.363488500E-01               0
GRID*               6934               01.1283399122E-01-9.100297214E-01+
*       -1.036773649E-01               0
GRID*               6935               01.4362650815E-01-9.696864722E-01+
*       -9.227610196E-02               0
GRID*               6936               01.7155823677E-01-9.569985711E-01+
*       -9.467265941E-02               0
GRID*               6937               01.4076571984E-01-8.973418203E-01+
*       -1.060739224E-01               0
GRID*               6938               01.7023765746E-01-9.266850433E-01+
*       -6.200117431E-02               0
GRID*               6939               0-1.266534577E-01-8.784849891E-01+
*       -1.063780685E-01               0
GRID*               6940               0-1.470041997E-01-9.674434262E-01+
*       -1.549759503E-01               0
GRID*               6941               0-1.728963781E-01-9.311948333E-01+
*       -1.249526081E-01               0
GRID*               6942               0-1.028183840E-01-8.821770082E-01+
*       -1.664297723E-01               0
GRID*               6943               03.7475817198E-02-9.664714631E-01+
*       -2.192648119E-01               0
GRID*               6944               07.1111067978E-04-9.664714631E-01+
*       -1.567327464E-01               0
GRID*               6945               04.2392138115E-02-9.068147124E-01+
*       -1.681398684E-01               0
GRID*               6946               07.7395312513E-02-9.403432493E-01+
*       -7.387505651E-02               0
GRID*               6947               0-2.461301947E-01-9.318388270E-01+
*       -1.268659037E-01               0
GRID*               6948               01.0700539043E+00-5.334056567E-01+
*       -1.850285010E-01               0
GRID*               6949               01.0608322844E+00-4.650227595E-01+
*       -1.850285010E-01               0
GRID*               6950               0-2.757662048E-02-8.812050451E-01+
*       -1.681924283E-01               0
GRID*               6951               06.9344991718E-015.6312722175E-01+
*       1.6633445462E-01               0
GRID*               6952               0-5.318781076E-01-3.642111477E-01+
*       5.7501560430E-01               0
GRID*               6953               0-1.381232268E-013.4243493026E-01+
*       -1.962502837E-01               0
GRID*               6954               0-6.905363469E-01-1.458744574E-01+
*       2.5631447726E-01               0
GRID*               6955               0-6.905363469E-01-2.056026359E-01+
*       2.8460545449E-01               0
GRID*               6956               0-9.637022384E-024.0691958378E-01+
*       -1.962502837E-01               0
GRID*               6957               0-6.579086018E-019.4157918197E-01+
*       9.6670987352E-01               0
GRID*               6958               0-6.680626412E-018.6140755666E-01+
*       9.2528747544E-01               0
GRID*               6959               0-6.554312195E-019.3054432423E-01+
*       9.9931879258E-01               0
GRID*               6960               0-6.883401925E-018.9859701708E-01+
*       9.8745483565E-01               0
GRID*               6961               0-6.655852590E-018.5037269892E-01+
*       9.5789639450E-01               0
GRID*               6962               0-1.041078647E-012.7223299827E-01+
*       -1.962502837E-01               0
GRID*               6963               0-2.547024964E-021.9987565556E-01+
*       -7.036192720E-02               0
GRID*               6964               0-8.783899144E-022.3829594357E-01+
*       -7.036192720E-02               0
GRID*               6965               02.2156543294E-022.6257704047E-01+
*       -5.813492475E-02               0
GRID*               6966               01.1355712449E-012.3842426047E-01+
*       -1.831349247E-01               0
GRID*               6967               04.3346557793E-018.3236980380E-01+
*       -1.239651615E-01               0
GRID*               6968               04.2277879566E-018.5577243991E-01+
*       -5.168214936E-02               0
GRID*               6969               04.8458618404E-018.8342909482E-01+
*       -3.066164783E-02               0
GRID*               6970               04.9527296631E-018.6002645871E-01+
*       -1.029446600E-01               0
GRID*               6971               04.0736497970E-018.9304768858E-01+
*       -8.234379719E-02               0
GRID*               6972               0-7.186404790E-01-3.328602133E-01+
*       5.1500553399E-01               0
GRID*               6973               0-7.186404790E-01-2.974452454E-01+
*       4.7413532097E-01               0
GRID*               6974               03.7017601950E-021.6149362110E-01+
*       -7.036192720E-02               0
GRID*               6975               0-6.250849322E-018.1761442923E-01+
*       1.1666264315E+00               0
GRID*               6976               0-7.046551930E-01-9.713697398E-01+
*       -1.627605375E-01               0
GRID*               6977               0-5.565133211E-01-8.694402572E-01+
*       4.0106406939E-01               0
GRID*               6978               0-5.565133211E-01-8.572143166E-01+
*       3.2486812670E-01               0
GRID*               6979               0-5.308291473E-01-8.896530575E-01+
*       2.3467458665E-01               0
GRID*               6980               0-5.308291473E-01-9.018789981E-01+
*       3.1087052934E-01               0
GRID*               6981               0-5.873424683E-01-8.919975863E-01+
*       3.2396400035E-01               0
GRID*               6982               0-5.741198850E-01-8.251430641E-01+
*       2.7470245061E-01               0
GRID*               6983               0-6.049490323E-01-8.599263337E-01+
*       2.7379832426E-01               0
GRID*               6984               0-5.852130762E-01-8.684198206E-01+
*       1.9059889672E-01               0
GRID*               6985               0-5.305897170E-01-8.829984924E-01+
*       1.8211130383E-02               0
GRID*               6986               0-5.849736460E-01-8.661232263E-01+
*       9.1924796949E-02               0
GRID*               6987               0-5.915790731E-01-8.466421144E-01+
*       2.2877157127E-02               0
GRID*               6988               0-7.254213617E-013.4994898184E-01+
*       -1.986426813E-01               0
GRID*               6989               0-8.064134859E-013.7007834731E-01+
*       -1.776270199E-01               0
GRID*               6990               08.7808779889E-016.7944546923E-01+
*       -1.868425384E-01               0
GRID*               6991               08.3251948090E-016.4125020582E-01+
*       -7.643640878E-02               0
GRID*               6992               01.2185113850E+006.5845702762E-01+
*       -1.650780980E-01               0
GRID*               6993               01.2185113850E+007.3220300486E-01+
*       -1.650780980E-01               0
GRID*               6994               07.8947263830E-017.3219176160E-01+
*       -7.128471773E-02               0
GRID*               6995               0-5.688604811E-015.7508906188E-01+
*       1.1934784109E+00               0
GRID*               6996               0-6.885735647E-017.1680445648E-01+
*       1.1848887440E+00               0
GRID*               6997               0-6.885735647E-016.7252573405E-01+
*       1.1273152608E+00               0
GRID*               6998               0-6.875837962E-017.1653020142E-01+
*       1.0770864635E+00               0
GRID*               6999               0-6.561419406E-01-2.974407918E-01+
*       4.7413167336E-01               0
GRID*               7000               0-5.625837962E-017.4965403852E-01+
*       1.1075199759E+00               0
GRID*               7001               0-6.958807856E-016.5399900716E-01+
*       1.0242241918E+00               0
GRID*               7002               0-6.938604811E-016.0407845389E-01+
*       1.1218448098E+00               0
GRID*               7003               0-6.260747007E-017.7360996186E-01+
*       1.2168552288E+00               0
GRID*               7004               0-5.935479492E-018.3109153323E-01+
*       1.2201141028E+00               0
GRID*               7005               0-5.946203780E-017.3868004378E-01+
*       1.1869636637E+00               0
GRID*               7006               0-5.936306095E-017.8268451115E-01+
*       1.1367348664E+00               0
GRID*               7007               0-6.621018939E-011.3020691032E-01+
*       2.7155331827E-01               0
GRID*               7008               0-6.587193322E-011.6160393409E-01+
*       2.7723148523E-01               0
GRID*               7009               0-1.110749699E+00-4.921470848E-02+
*       -2.178433518E-01               0
GRID*               7010               0-1.105948005E+00-8.157906231E-02+
*       -1.566843171E-01               0
GRID*               7011               0-1.091218640E+00-1.561045963E-02+
*       -1.497399103E-01               0
GRID*               7012               0-2.571554183E-01-9.659826075E-01+
*       -2.204103285E-01               0
GRID*               7013               0-7.194035760E-018.8496971187E-01+
*       1.1354761736E+00               0
GRID*               7014               0-6.569037758E-018.9992205730E-01+
*       1.1012054341E+00               0
GRID*               7015               0-6.569873722E-018.1908915846E-01+
*       1.0851579835E+00               0
GRID*               7016               0-7.554330315E-01-8.575967200E-01+
*       -1.993125957E-01               0
GRID*               7017               0-1.111728880E+008.9958823912E-01+
*       -1.774820358E-01               0
GRID*               7018               0-1.069270644E+008.6904937544E-01+
*       -1.864388538E-01               0
GRID*               7019               0-1.086564657E+008.8087288211E-01+
*       -2.070194115E-01               0
GRID*               7020               0-1.090190640E+009.0571789717E-01+
*       -1.766739531E-01               0
GRID*               7021               0-6.562726525E-016.3671920771E-02+
*       3.4581718273E-01               0
GRID*               7022               0-6.513108911E-012.8804215637E-02+
*       2.6305682380E-01               0
GRID*               7023               0-6.554821203E-013.3646191103E-02+
*       3.4627839991E-01               0
GRID*               7024               0-6.867573627E-014.3248705562E-02+
*       3.1822778785E-01               0
GRID*               7025               0-6.505203590E-01-1.221514031E-03+
*       2.6351804098E-01               0
GRID*               7026               0-1.225948008E+009.7720101908E-01+
*       -1.251728543E-01               0
GRID*               7027               0-1.178260229E+009.7720101908E-01+
*       -1.253278325E-01               0
GRID*               7028               0-1.225948008E+009.7720101908E-01+
*       -6.267285428E-02               0
GRID*               7029               0-8.411933632E-01-6.812415403E-01+
*       -8.524228964E-02               0
GRID*               7030               0-8.728903172E-01-6.917791009E-01+
*       -6.243688903E-02               0
GRID*               7031               0-8.674062887E-01-7.158760870E-01+
*       -6.248186256E-02               0
GRID*               7032               0-8.357093346E-01-7.053385265E-01+
*       -8.528726317E-02               0
GRID*               7033               0-8.591735505E-01-6.962959098E-01+
*       -4.158573502E-02               0
GRID*               7034               0-1.134718880E+007.2853925322E-01+
*       -2.290089687E-01               0
GRID*               7035               0-1.134718897E+007.2853930411E-01+
*       -1.873423002E-01               0
GRID*               7036               0-1.216683975E+003.8691719027E-01+
*       -3.006878818E-02               0
GRID*               7037               0-1.149137049E+004.3494649060E-01+
*       -3.006878818E-02               0
GRID*               7038               0-1.152316720E+003.4990433659E-01+
*       -3.006878818E-02               0
GRID*               7039               0-1.154022423E+005.7028400759E-02+
*       -1.589775655E-01               0
GRID*               7040               05.6277956934E-01-7.097772753E-01+
*       4.1808792254E-01               0
GRID*               7041               0-4.069782066E-01-9.647669181E-01+
*       -2.183475415E-01               0
GRID*               7042               0-4.805076183E-01-9.647669181E-01+
*       -2.183475415E-01               0
GRID*               7043               0-4.422924651E-01-9.647669181E-01+
*       -1.528735105E-01               0
GRID*               7044               05.6783600216E-01-7.761222726E-01+
*       2.2120109826E-01               0
GRID*               7045               0-8.876488801E-01-9.019617061E-01+
*       -7.504463613E-02               0
GRID*               7046               0-9.098607293E-01-8.900729017E-01+
*       -9.373239786E-02               0
GRID*               7047               0-8.799146704E-01-8.864239237E-01+
*       -1.002728117E-01               0
GRID*               7048               0-8.577028212E-01-8.983127280E-01+
*       -8.158505000E-02               0
GRID*               7049               0-8.632701143E-01-9.253863827E-01+
*       -1.106724687E-01               0
GRID*               7050               01.1514333121E+007.2318055895E-01+
*       -1.357682359E-01               0
GRID*               7051               01.1502173027E+006.8769782830E-01+
*       -9.362772796E-02               0
GRID*               7052               01.1502175793E+006.8769852101E-01+
*       -1.352943097E-01               0
GRID*               7053               01.1827513099E+006.9945024563E-01+
*       -1.043955679E-01               0
GRID*               7054               06.9112946777E-01-7.984490582E-02+
*       1.2476286159E+00               0
GRID*               7055               0-6.878723028E-01-9.243966894E-01+
*       8.5912977456E-01               0
GRID*               7056               06.6085360467E-01-2.186900001E-01+
*       1.1822932191E+00               0
GRID*               7057               06.5981127901E-01-1.909467873E-01+
*       1.1924076110E+00               0
GRID*               7058               06.2862817282E-011.0593729692E-02+
*       1.2049627117E+00               0
GRID*               7059               06.5617719551E-011.1395308364E-02+
*       1.1525920274E+00               0
GRID*               7060               06.5980795823E-01-3.208038344E-02+
*       1.2314225141E+00               0
GRID*               7061               0-7.838645737E-01-6.912959246E-01+
*       -6.447190889E-02               0
GRID*               7062               05.5192470284E-012.4655398515E-01+
*       -1.804024966E-01               0
GRID*               7063               0-5.312496797E-01-5.259208778E-01+
*       1.5671599589E+00               0
GRID*               7064               0-5.309196142E-01-4.914076796E-01+
*       1.5814203680E+00               0
GRID*               7065               0-5.653561060E-01-6.858485193E-01+
*       7.1151754674E-01               0
GRID*               7066               05.6830321968E-014.2739093092E-01+
*       -7.293361891E-02               0
GRID*               7067               04.6129331556E-013.7736783528E-01+
*       -5.432969111E-02               0
GRID*               7068               04.6129331556E-013.0044475836E-01+
*       -5.432969111E-02               0
GRID*               7069               0-1.216830472E+003.8362479222E-02+
*       -3.119227596E-02               0
GRID*               7070               0-1.149527709E+004.9124543197E-02+
*       -9.567551827E-02               0
GRID*               7071               04.9495872556E-013.1872449502E-01+
*       -1.793296911E-01               0
GRID*               7072               04.6499856804E-013.9285231927E-01+
*       -1.793296911E-01               0
GRID*               7073               02.5808844476E-013.0169514122E-01+
*       -1.255647548E-01               0
GRID*               7074               01.8415398288E-012.6752495662E-01+
*       -1.898880393E-01               0
GRID*               7075               02.0051938879E-012.7971046928E-01+
*       -1.266057604E-01               0
GRID*               7076               01.1620867061E+007.7080699534E-01+
*       -2.117342004E-02               0
GRID*               7077               01.1852002673E+007.5817474713E-01+
*       -2.184216612E-02               0
GRID*               7078               02.1763693530E-012.9164442586E-01+
*       -6.488803932E-02               0
GRID*               7079               09.0079225506E-016.4821860890E-01+
*       -2.285092069E-01               0
GRID*               7080               08.7808781446E-016.7944541831E-01+
*       -2.285092069E-01               0
GRID*               7081               06.5577474568E-013.1578794761E-01+
*       4.9522968048E-01               0
GRID*               7082               0-5.304617901E-01-3.391463483E-02+
*       3.4626339749E-01               0
GRID*               7083               0-5.622741655E-01-4.422466986E-02+
*       3.1919615354E-01               0
GRID*               7084               0-5.929630850E-01-3.390956918E-02+
*       3.4626290404E-01               0
GRID*               7085               0-6.978945611E-014.4971235069E-01+
*       -7.735250597E-02               0
GRID*               7086               02.4330975810E-019.6557830134E-01+
*       -3.178412129E-02               0
GRID*               7087               02.6516031559E-018.9526481394E-01+
*       -3.178412129E-02               0
GRID*               7088               02.0633461629E-019.6445851107E-01+
*       -3.143068782E-02               0
GRID*               7089               02.3535866011E-019.3003681240E-01+
*       -6.321480910E-02               0
GRID*               7090               02.2818517378E-018.9414502367E-01+
*       -3.143068782E-02               0
GRID*               7091               05.3102587675E-019.7070901725E-01+
*       5.6050662972E-01               0
GRID*               7092               0-7.499833768E-015.3379292255E-01+
*       -1.949394318E-01               0
GRID*               7093               0-5.649546040E-01-4.324032458E-01+
*       2.4750783589E-01               0
GRID*               7094               0-5.649546040E-01-4.191710089E-01+
*       1.6559673860E-01               0
GRID*               7095               0-5.940822798E-01-3.527589874E-01+
*       5.4808518639E-01               0
GRID*               7096               0-6.230633988E-01-3.911217951E-01+
*       5.4735861394E-01               0
GRID*               7097               0-5.917121662E-01-4.179948103E-01+
*       4.7096740893E-01               0
GRID*               7098               0-6.226311101E-01-3.494930506E-01+
*       4.2656574288E-01               0
GRID*               7099               0-5.935350571E-01-3.231110187E-01+
*       4.9810936121E-01               0
GRID*               7100               0-5.911649435E-01-3.883468415E-01+
*       4.2099158374E-01               0
GRID*               7101               0-5.935367567E-01-2.876911656E-01+
*       4.5723468795E-01               0
GRID*               7102               0-5.601296485E-01-4.502858004E-01+
*       4.7825803010E-01               0
GRID*               7103               0-1.117040586E+004.3368688870E-01+
*       -8.816042604E-02               0
GRID*               7104               08.5868114625E-01-6.177289030E-01+
*       -1.613325563E-01               0
GRID*               7105               08.4393279802E-01-6.361450736E-01+
*       -1.617012011E-01               0
GRID*               7106               09.5114813162E-01-5.816131211E-01+
*       -9.171889054E-02               0
GRID*               7107               05.5410073337E-01-5.146234937E-01+
*       8.3400951180E-01               0
GRID*               7108               05.9309867746E-01-7.820504305E-02+
*       3.5074667707E-01               0
GRID*               7109               05.3059997241E-01-7.821010870E-02+
*       3.5074717052E-01               0
GRID*               7110               05.3116779914E-01-4.769258565E-02+
*       3.4608001287E-01               0
GRID*               7111               05.9366650419E-01-4.768752000E-02+
*       3.4607951942E-01               0
GRID*               7112               05.6176777155E-01-7.182314537E-02+
*       3.2295840007E-01               0
GRID*               7113               06.6118941139E-014.8876318310E-01+
*       7.7992560834E-01               0
GRID*               7114               05.9455966818E-014.0402740685E-01+
*       7.7179170369E-01               0
GRID*               7115               05.9455885109E-013.9632944308E-01+
*       8.2532376133E-01               0
GRID*               7116               05.9969013920E-014.8533873986E-01+
*       8.1516633296E-01               0
GRID*               7117               07.7147738193E-01-9.727525176E-01+
*       -3.701972501E-02               0
GRID*               7118               07.4712473414E-01-9.615219198E-01+
*       -3.717562035E-02               0
GRID*               7119               06.9420996494E-015.3608046549E-01+
*       4.4283663071E-01               0
GRID*               7120               07.1812314435E-016.0537445886E-01+
*       1.5002422527E+00               0
GRID*               7121               06.5562378111E-016.3371737936E-01+
*       1.4758512195E+00               0
GRID*               7122               07.1950137603E-016.3477185700E-01+
*       1.4789994781E+00               0
GRID*               7123               06.8762452038E-016.1665683167E-01+
*       1.4474106568E+00               0
GRID*               7124               06.5700201279E-016.6311477750E-01+
*       1.4546084450E+00               0
GRID*               7125               05.7186183179E-015.8529783678E-01+
*       3.0716850532E-01               0
GRID*               7126               0-5.301153164E-013.7601201095E-01+
*       9.1290903345E-01               0
GRID*               7127               06.3463014532E-014.2772314843E-01+
*       1.2995619931E+00               0
GRID*               7128               01.0264217927E+00-2.455653744E-01+
*       -1.241299100E-01               0
GRID*               7129               0-6.926096001E-017.2576228554E-01+
*       1.1925280816E-02               0
GRID*               7130               01.0528793786E+005.4814130585E-01+
*       -9.162025996E-02               0
GRID*               7131               01.2175582723E+00-3.464808628E-01+
*       -3.134065940E-02               0
GRID*               7132               01.0261673089E+006.0982475127E-01+
*       -2.094613652E-02               0
GRID*               7133               01.0261673092E+006.0982475128E-01+
*       -6.261280320E-02               0
GRID*               7134               0-5.569139577E-01-6.893715929E-01+
*       1.2309807402E+00               0
GRID*               7135               0-5.696295047E-01-6.724573411E-01+
*       1.3008015451E+00               0
GRID*               7136               0-7.158743918E-01-1.859899071E-01+
*       3.8717663088E-01               0
GRID*               7137               0-5.728725948E-01-2.990550777E-02+
*       1.5619767802E+00               0
GRID*               7138               06.9491730182E-01-6.818122119E-01+
*       6.1625663842E-01               0
GRID*               7139               06.9719114330E-01-7.078231108E-01+
*       5.5094583450E-01               0
GRID*               7140               0-1.157920440E+002.1352012091E-01+
*       -1.209403166E-01               0
GRID*               7141               0-1.157920440E+002.9044319783E-01+
*       -1.209403166E-01               0
GRID*               7142               01.0826162748E+005.8187002278E-01+
*       -1.108075182E-01               0
GRID*               7143               0-1.151337362E+007.4332340076E-01+
*       -1.566664480E-01               0
GRID*               7144               06.2516068144E-01-4.623791694E-01+
*       6.6583876341E-01               0
GRID*               7145               05.9281935194E-01-4.940978411E-01+
*       6.7831822698E-01               0
GRID*               7146               05.9464236575E-01-4.886603754E-01+
*       6.4200947319E-01               0
GRID*               7147               06.2500000000E-01-4.606355314E-01+
*       5.5535732216E-01               0
GRID*               7148               01.1275368585E+00-6.561166084E-01+
*       -1.573675530E-01               0
GRID*               7149               01.1470860515E+00-6.442194381E-01+
*       -1.773636214E-01               0
GRID*               7150               01.1157052197E+00-6.682050918E-01+
*       -1.866627906E-01               0
GRID*               7151               04.8378292560E-01-8.830095401E-01+
*       -2.994090781E-02               0
GRID*               7152               04.6862308076E-01-8.883105520E-01+
*       -9.256821500E-02               0
GRID*               7153               05.0558596134E-01-8.917593767E-01+
*       -9.279471933E-02               0
GRID*               7154               0-8.654209729E-016.1862314573E-01+
*       -1.116058022E-01               0
GRID*               7155               0-5.309075216E-01-7.318873781E-02+
*       1.1477683218E+00               0
GRID*               7156               0-5.304986934E-01-4.253596257E-02+
*       1.1523128670E+00               0
GRID*               7157               0-5.929973985E-01-4.253089764E-02+
*       1.1523133592E+00               0
GRID*               7158               0-5.614062150E-01-6.164516040E-02+
*       1.1739499465E+00               0
GRID*               7159               0-1.221325187E+004.6266336784E-02+
*       -2.194943232E-01               0
GRID*               7160               0-7.187361604E-01-2.563166061E-01+
*       4.3193395890E-01               0
GRID*               7161               0-6.562376220E-01-2.563121526E-01+
*       4.3193031129E-01               0
GRID*               7162               0-7.189410230E-01-2.807145993E-01+
*       4.5367277317E-01               0
GRID*               7163               0-6.876771834E-01-2.881849237E-01+
*       4.2279058977E-01               0
GRID*               7164               0-6.564424847E-01-2.807101458E-01+
*       4.5366912556E-01               0
GRID*               7165               01.0128366642E+00-8.878056273E-01+
*       -1.446653462E-01               0
GRID*               7166               01.0162784815E+00-9.190520758E-01+
*       -1.563571038E-01               0
GRID*               7167               0-8.079310870E-016.7363726228E-01+
*       -2.096565294E-02               0
GRID*               7168               0-7.990874909E-017.0020516784E-01+
*       -2.025479913E-02               0
GRID*               7169               0-7.819772407E-016.9654938485E-01+
*       -2.309540861E-02               0
GRID*               7170               0-8.399083277E-016.7787895482E-01+
*       -4.406106155E-02               0
GRID*               7171               0-8.310647316E-017.0444686039E-01+
*       -4.335020774E-02               0
GRID*               7172               01.0684937291E+00-8.698976540E-01+
*       -1.253518419E-01               0
GRID*               7173               01.0317828326E+00-8.818424272E-01+
*       -1.253521382E-01               0
GRID*               7174               01.0317828324E+00-8.818424272E-01+
*       -1.670188049E-01               0
GRID*               7175               0-8.348372159E-016.2660576342E-01+
*       -1.745080481E-01               0
GRID*               7176               0-8.732191080E-016.8814179893E-01+
*       -1.879021052E-01               0
GRID*               7177               0-8.568575713E-017.0788420795E-01+
*       -1.870919803E-01               0
GRID*               7178               0-8.184756793E-016.4634817243E-01+
*       -1.736979233E-01               0
GRID*               7179               0-8.489762142E-016.8459719066E-01+
*       -2.083271078E-01               0
GRID*               7180               07.2884312393E-018.9368411813E-01+
*       -1.794367456E-01               0
GRID*               7181               07.8364776032E-019.0766342426E-01+
*       -1.655727191E-01               0
GRID*               7182               08.2061938140E-019.3816475208E-01+
*       -1.909539425E-01               0
GRID*               7183               08.4879315020E-019.3816475208E-01+
*       -1.309247076E-01               0
GRID*               7184               07.8561730055E-019.3816475208E-01+
*       -1.398464196E-01               0
GRID*               7185               08.7945018130E-018.6371285756E-01+
*       -1.492871318E-01               0
GRID*               7186               07.9120761670E-019.3816475208E-01+
*       -6.595394248E-02               0
GRID*               7187               07.9120761670E-018.6124167515E-01+
*       -6.595394248E-02               0
GRID*               7188               07.3640298031E-019.2418544594E-01+
*       -7.981796896E-02               0
GRID*               7189               08.5676507472E-018.3247368452E-01+
*       -1.076206110E-01               0
GRID*               7190               08.4744844114E-018.5808548523E-01+
*       -8.632287962E-02               0
GRID*               7191               0-6.803385352E-016.8929737173E-01+
*       1.3704300687E+00               0
GRID*               7192               0-6.178376729E-017.1368866477E-01+
*       1.3420864552E+00               0
GRID*               7193               0-5.561887235E-015.0775658869E-01+
*       1.4171128390E+00               0
GRID*               7194               0-1.221325187E+00-3.065674014E-02+
*       -2.194943232E-01               0
GRID*               7195               0-5.561887235E-014.4449015654E-01+
*       1.3780843107E+00               0
GRID*               7196               0-6.938604811E-015.1295045597E-01+
*       1.1990672735E+00               0
GRID*               7197               0-6.811887235E-015.5506877750E-01+
*       1.3549919549E+00               0
GRID*               7198               0-6.324340459E-016.1275119224E-01+
*       1.1782343388E+00               0
GRID*               7199               0-8.695394591E-01-6.969999958E-01+
*       -2.297022562E-01               0
GRID*               7200               0-8.922628410E-01-6.657407636E-01+
*       -2.297022562E-01               0
GRID*               7201               0-5.940395642E-018.8588508496E-01+
*       7.7581366086E-01               0
GRID*               7202               0-1.223244320E+00-4.655695259E-01+
*       -2.189463425E-01               0
GRID*               7203               0-1.167781092E+00-5.159187407E-01+
*       -2.189463425E-01               0
GRID*               7204               0-1.232086798E+00-4.174210613E-01+
*       -2.238909339E-01               0
GRID*               7205               0-1.205331117E+00-4.983752026E-01+
*       -1.928372765E-01               0
GRID*               7206               0-1.176623570E+00-4.677702760E-01+
*       -2.238909339E-01               0
GRID*               7207               0-8.608516491E-01-7.247991177E-01+
*       -2.286629328E-01               0
GRID*               7208               0-8.608408637E-01-7.634037930E-01+
*       -1.869964217E-01               0
GRID*               7209               0-9.038812701E-01-6.483724094E-01+
*       -2.283985642E-01               0
GRID*               7210               0-8.811586648E-01-6.796297005E-01+
*       -1.867316569E-01               0
GRID*               7211               0-1.110297252E+00-4.889590490E-01+
*       -1.811281965E-01               0
GRID*               7212               0-1.066422321E+00-5.292021560E-01+
*       -1.811281965E-01               0
GRID*               7213               0-6.667211787E-018.6746718389E-01+
*       8.9079453140E-01               0
GRID*               7214               06.2503746239E-019.3710867215E-01+
*       6.9312149593E-01               0
GRID*               7215               0-5.872957328E-01-9.005370417E-01+
*       3.6163725165E-01               0
GRID*               7216               0-5.307824118E-01-9.104184536E-01+
*       3.4854378065E-01               0
GRID*               7217               0-5.869144744E-01-9.001499647E-01+
*       3.9701958159E-01               0
GRID*               7218               0-5.611835651E-01-9.411281611E-01+
*       3.4449929285E-01               0
GRID*               7219               0-4.587042242E-01-9.719717071E-01+
*       -2.929338075E-02               0
GRID*               7220               0-8.272248735E-01-6.706641925E-01+
*       -1.894719089E-01               0
GRID*               7221               0-7.978400287E-01-6.200694889E-01+
*       -1.894719089E-01               0
GRID*               7222               0-8.490870942E-01-5.963405678E-01+
*       -1.950782973E-01               0
GRID*               7223               07.3081266416E-019.2418544594E-01+
*       -1.537104461E-01               0
GRID*               7224               06.2977165628E-019.6801977585E-01+
*       -2.122944694E-01               0
GRID*               7225               05.9721736543E-019.0461408327E-01+
*       -2.122944694E-01               0
GRID*               7226               06.3308206442E-019.3658535856E-01+
*       -1.865168885E-01               0
GRID*               7227               05.0922690064E-019.2085219254E-01+
*       -5.598949312E-02               0
GRID*               7228               0-8.494150823E-01-7.394283557E-01+
*       -1.061388160E-01               0
GRID*               7229               0-8.667953142E-01-7.744472989E-01+
*       -2.251156019E-02               0
GRID*               7230               0-8.667960908E-01-7.744492371E-01+
*       -6.417846733E-02               0
GRID*               7231               0-8.668071100E-01-7.358425989E-01+
*       -6.417806847E-02               0
GRID*               7232               0-1.013492575E+00-8.857296597E-01+
*       -2.283660022E-01               0
GRID*               7233               0-7.472155872E-01-8.845605922E-01+
*       -3.679798144E-02               0
GRID*               7234               0-7.610749082E-01-8.767744272E-01+
*       -1.111105772E-01               0
GRID*               7235               0-7.121698652E-01-9.222794999E-01+
*       -6.213825236E-02               0
GRID*               7236               0-5.607007387E-01-8.190065554E-01+
*       9.4092964685E-01               0
GRID*               7237               0-6.236921651E-01-9.445199078E-01+
*       5.5592829115E-01               0
GRID*               7238               0-6.189841421E-01-9.297794227E-01+
*       4.6836163704E-01               0
GRID*               7239               0-6.560651782E-01-9.686665545E-01+
*       5.1961133640E-01               0
GRID*               7240               0-6.548157012E-01-9.131864623E-01+
*       5.5297389387E-01               0
GRID*               7241               0-6.501076781E-01-8.984459772E-01+
*       4.6540723976E-01               0
GRID*               7242               0-6.862213441E-01-9.445199078E-01+
*       5.9464542431E-01               0
GRID*               7243               0-7.185943571E-01-9.686665545E-01+
*       5.5832846956E-01               0
GRID*               7244               0-7.825984715E-017.1717032473E-01+
*       -2.151792209E-02               0
GRID*               7245               0-7.814416598E-017.7176072310E-01+
*       -9.150015681E-02               0
GRID*               7246               0-7.488431883E-017.4689809068E-01+
*       -6.998223472E-02               0
GRID*               7247               0-8.145757122E-017.2141201727E-01+
*       -4.461333071E-02               0
GRID*               7248               0-7.808204290E-017.5113978322E-01+
*       -9.307764333E-02               0
GRID*               7249               0-5.612213441E-01-9.445199078E-01+
*       5.9464542431E-01               0
GRID*               7250               0-6.237156426E-01-9.445199078E-01+
*       6.2394029793E-01               0
GRID*               7251               0-5.312457368E-01-9.700233593E-01+
*       6.3007212800E-01               0
GRID*               7252               0-5.312457368E-01-9.093044721E-01+
*       6.5924917603E-01               0
GRID*               7253               0-5.924670809E-01-9.145432670E-01+
*       6.2471755231E-01               0
GRID*               7254               0-7.189608165E-01-9.682549468E-01+
*       6.3009578473E-01               0
GRID*               7255               0-6.564551150E-01-9.682549468E-01+
*       6.5939065835E-01               0
GRID*               7256               0-6.551821605E-01-9.127748546E-01+
*       6.2474120904E-01               0
GRID*               7257               0-6.620687387E-01-9.189918191E-01+
*       7.1767656270E-01               0
GRID*               7258               05.6164680662E-015.0186962786E-01+
*       2.6806554750E-01               0
GRID*               7259               06.2644725113E-014.4469186112E-01+
*       1.9555951153E-01               0
GRID*               7260               05.6164680662E-014.8863739144E-01+
*       1.8615445124E-01               0
GRID*               7261               0-1.126190281E+002.4689660207E-01+
*       -1.523032179E-01               0
GRID*               7262               0-1.154995403E+002.8921865213E-01+
*       -2.193242079E-01               0
GRID*               7263               0-1.186620363E+002.5787362983E-01+
*       -1.881871092E-01               0
GRID*               7264               0-1.126270961E+002.8417111573E-01+
*       -1.527645245E-01               0
GRID*               7265               07.1853502961E-019.6777492199E-01+
*       7.0468644207E-01               0
GRID*               7266               0-6.775338497E-015.2487130660E-01+
*       1.2404393983E-01               0
GRID*               7267               0-6.775338497E-016.0357728701E-01+
*       1.0513451055E-01               0
GRID*               7268               0-6.775338497E-015.8258071350E-01+
*       1.6276565287E-01               0
GRID*               7269               0-8.646490188E-017.4837167486E-01+
*       -6.192130741E-02               0
GRID*               7270               06.1520863762E-018.7440543756E-01+
*       6.5406511671E-01               0
GRID*               7271               0-8.144049835E-017.9506526895E-01+
*       -1.533153274E-01               0
GRID*               7272               0-8.012459776E-017.9825221581E-01+
*       -1.730271517E-01               0
GRID*               7273               0-9.704739089E-01-8.854377962E-01+
*       -2.111689786E-02               0
GRID*               7274               0-9.337630113E-01-8.734930282E-01+
*       -6.278326829E-02               0
GRID*               7275               0-9.115511621E-01-8.853818325E-01+
*       -4.409550656E-02               0
GRID*               7276               0-6.714408941E-018.7383751209E-01+
*       -1.131785623E-01               0
GRID*               7277               0-7.181415135E-01-9.181957580E-01+
*       1.0647133922E+00               0
GRID*               7278               0-8.358939511E-018.8449594944E-01+
*       -6.186640855E-02               0
GRID*               7279               0-7.805853707E-018.0775269885E-01+
*       -9.131427670E-02               0
GRID*               7280               0-8.018098760E-01-9.751995853E-01+
*       -3.213130007E-02               0
GRID*               7281               0-7.962195599E-01-9.751995853E-01+
*       -1.060237772E-01               0
GRID*               7282               0-8.593954095E-01-9.751995853E-01+
*       -9.710206521E-02               0
GRID*               7283               0-1.069272015E+00-8.704459075E-01+
*       -2.277551875E-01               0
GRID*               7284               0-1.091141129E+00-8.633459080E-01+
*       -2.285247416E-01               0
GRID*               7285               01.2240279188E+00-4.237077170E-01+
*       -2.188604258E-01               0
GRID*               7286               01.2240279188E+00-5.006307939E-01+
*       -2.188604258E-01               0
GRID*               7287               01.2168882364E+00-6.785945771E-01+
*       -5.125408240E-02               0
GRID*               7288               01.1854771547E+00-6.995354658E-01+
*       -1.024100340E-01               0
GRID*               7289               01.2185889183E+00-7.132485811E-01+
*       -5.115595156E-02               0
GRID*               7290               01.2168197933E+00-6.966326468E-01+
*       -2.074452388E-02               0
GRID*               7291               01.1837080297E+00-6.829195316E-01+
*       -7.199860628E-02               0
GRID*               7292               01.1854087116E+00-7.175735356E-01+
*       -7.190047544E-02               0
GRID*               7293               01.2215372153E+00-3.876365066E-02+
*       -2.187455598E-01               0
GRID*               7294               01.1739794876E+00-6.261502499E-01+
*       -3.070697007E-02               0
GRID*               7295               01.2240668272E+00-6.575959490E-01+
*       -3.070697007E-02               0
GRID*               7296               01.1667324537E+00-6.651869477E-01+
*       -2.074452388E-02               0
GRID*               7297               01.1908866204E+00-6.619209035E-01+
*       -5.145149395E-02               0
GRID*               7298               07.0010601138E-015.8336691548E-01+
*       -1.969736901E-01               0
GRID*               7299               01.1309239189E+006.9638493921E-01+
*       -1.881526687E-01               0
GRID*               7300               01.1309244203E+006.9638618166E-01+
*       -2.298191799E-01               0
GRID*               7301               01.1339599764E+007.1745013202E-01+
*       -2.284480192E-01               0
GRID*               7302               01.1339594750E+007.1744888957E-01+
*       -1.867815081E-01               0
GRID*               7303               01.1459838124E+007.0240499446E-01+
*       -2.082671991E-01               0
GRID*               7304               01.1708689021E+005.2665601089E-01+
*       -6.914114778E-02               0
GRID*               7305               01.1172855020E+005.5677355988E-01+
*       -6.914114778E-02               0
GRID*               7306               01.2224864578E+005.7363258026E-01+
*       -3.064428024E-02               0
GRID*               7307               01.1433553599E+005.6182705268E-01+
*       -9.978542802E-02               0
GRID*               7308               0-5.949584531E-01-6.956998548E-03+
*       3.4562493656E-01               0
GRID*               7309               01.1385603866E+00-9.008445190E-01+
*       -1.471778063E-01               0
GRID*               7310               01.0956079559E+00-8.874962289E-01+
*       -1.573290552E-01               0
GRID*               7311               01.1123613219E+00-8.994799204E-01+
*       -1.772823903E-01               0
GRID*               7312               01.1564993433E+00-8.447695083E-01+
*       -1.774917626E-01               0
GRID*               7313               01.1621328697E+00-8.729789859E-01+
*       -1.986424956E-01               0
GRID*               7314               01.1245331165E+00-8.167806298E-01+
*       -1.878177107E-01               0
GRID*               7315               01.1357423372E+00-7.960445554E-01+
*       -1.867647458E-01               0
GRID*               7316               01.1733420905E+00-8.522429115E-01+
*       -1.975895307E-01               0
GRID*               7317               01.1413758636E+00-8.242540330E-01+
*       -2.079154788E-01               0
GRID*               7318               0-1.156222334E+00-3.878487196E-02+
*       -3.163339184E-02               0
GRID*               7319               0-1.218788883E+00-7.714374686E-02+
*       -3.163339184E-02               0
GRID*               7320               0-1.216830472E+00-3.856059770E-02+
*       -3.119227596E-02               0
GRID*               7321               0-1.185619355E+00-3.878126764E-02+
*       -6.282566779E-02               0
GRID*               7322               01.0768684809E+00-9.061903977E-01+
*       -1.865675708E-01               0
GRID*               7323               01.2215730679E+001.1399683197E-01+
*       -2.188568031E-01               0
GRID*               7324               0-4.471699292E-012.4278749642E-01+
*       -1.272478749E-01               0
GRID*               7325               0-3.937473197E-012.2961874048E-01+
*       -1.250370424E-01               0
GRID*               7326               0-1.018231059E+00-5.500818121E-01+
*       -1.826852292E-01               0
GRID*               7327               0-1.121228394E+00-1.025945889E-01+
*       -9.547435719E-02               0
GRID*               7328               0-1.090568533E+00-1.411405980E-01+
*       -6.384096535E-02               0
GRID*               7329               0-1.119741751E+00-1.405890841E-01+
*       -9.439894132E-02               0
GRID*               7330               05.6203377727E-012.3235146765E-01+
*       3.0053420165E-01               0
GRID*               7331               06.2157609980E-011.9820659358E-01+
*       2.6855606398E-01               0
GRID*               7332               06.2683422177E-013.1344100230E-01+
*       2.4756067082E-01               0
GRID*               7333               06.5627068618E-017.8756934978E-02+
*       3.5098396435E-01               0
GRID*               7334               06.8742328264E-017.1671141734E-02+
*       3.2285145492E-01               0
GRID*               7335               06.5331171376E-011.2656043933E-01+
*       2.7670398310E-01               0
GRID*               7336               07.1876939123E-017.8762000630E-02+
*       3.5098445780E-01               0
GRID*               7337               0-1.093427634E+00-8.623739306E-01+
*       -2.205290126E-02               0
GRID*               7338               0-1.093428733E+00-8.623730335E-01+
*       -6.371971273E-02               0
GRID*               7339               0-1.056664368E+00-8.743034551E-01+
*       -6.371956794E-02               0
GRID*               7340               06.9624825439E-01-5.659248331E-01+
*       1.2488581569E+00               0
GRID*               7341               0-5.257672711E-01-9.601578500E-01+
*       -2.320343144E-02               0
GRID*               7342               0-5.305897170E-01-9.599215693E-01+
*       1.8211130383E-02               0
GRID*               7343               0-5.563569882E-01-9.200794193E-01+
*       -4.992301057E-03               0
GRID*               7344               05.6513237464E-01-5.681418219E-01+
*       1.3036627693E+00               0
GRID*               7345               06.9283600216E-01-8.432776339E-01+
*       1.2851297488E-01               0
GRID*               7346               0-8.941317709E-01-8.449780464E-01+
*       -6.246586830E-02               0
GRID*               7347               0-1.073953960E+00-8.688557950E-01+
*       -2.026800992E-02               0
GRID*               7348               0-1.037190694E+00-8.807853196E-01+
*       -6.193467660E-02               0
GRID*               7349               0-1.037190694E+00-8.807853196E-01+
*       -2.026800992E-02               0
GRID*               7350               0-8.911928732E-01-8.992155286E-01+
*       -1.780296398E-01               0
GRID*               7351               0-9.063402214E-01-8.611570448E-01+
*       -1.870321645E-01               0
GRID*               7352               0-8.792946079E-01-8.864563583E-01+
*       -1.609836022E-01               0
GRID*               7353               0-8.641472597E-01-9.245148421E-01+
*       -1.519810776E-01               0
GRID*               7354               0-8.591208573E-01-8.964965811E-01+
*       -1.813485327E-01               0
GRID*               7355               0-8.647716655E-01-9.244855971E-01+
*       -1.329375337E-01               0
GRID*               7356               0-8.799190137E-01-8.864271134E-01+
*       -1.419400583E-01               0
GRID*               7357               0-1.022334910E+00-9.380956653E-01+
*       -7.373465381E-02               0
GRID*               7358               0-1.010416479E+00-9.551473331E-01+
*       -7.487918342E-02               0
GRID*               7359               0-9.998518751E-01-9.395358095E-01+
*       -4.381347191E-02               0
GRID*               7360               0-9.909396875E-01-8.912272635E-01+
*       -2.070840900E-02               0
GRID*               7361               01.0750874623E+00-5.879016632E-01+
*       -1.433621305E-01               0
GRID*               7362               0-1.062084517E+005.6350781787E-01+
*       -9.975844933E-02               0
GRID*               7363               0-1.081824932E+005.5678032496E-01+
*       -8.043602181E-02               0
GRID*               7364               0-1.093196226E+006.4213336134E-01+
*       -6.401119543E-02               0
GRID*               7365               0-1.115768993E+006.4024308858E-01+
*       -9.399644013E-02               0
GRID*               7366               0-1.104397699E+005.5489005219E-01+
*       -1.104212665E-01               0
GRID*               7367               0-1.135509408E+006.3351559567E-01+
*       -7.467401261E-02               0
GRID*               7368               06.3544555353E-01-5.718291564E-01+
*       1.6375294647E-01               0
GRID*               7369               06.2661759953E-01-5.401567157E-01+
*       2.2549702513E-01               0
GRID*               7370               06.2553723837E-015.5986651263E-01+
*       5.6510190211E-01               0
GRID*               7371               06.2396316391E-015.2277910594E-01+
*       5.8007840338E-01               0
GRID*               7372               0-6.567826721E-019.0387455542E-02+
*       3.5476073592E-01               0
GRID*               7373               0-4.518011953E-013.9924394878E-01+
*       -5.218229918E-02               0
GRID*               7374               0-6.201434497E-016.7046159944E-01+
*       5.3715757953E-02               0
GRID*               7375               0-1.204206592E+005.6049772739E-01+
*       -2.196874302E-01               0
GRID*               7376               0-1.153892022E+006.0718511979E-01+
*       -2.196874302E-01               0
GRID*               7377               07.1928846681E-019.2844392171E-01+
*       1.0331927900E+00               0
GRID*               7378               01.1517371447E+00-7.237304018E-01+
*       -1.157736626E-01               0
GRID*               7379               01.1517484505E+00-7.623363489E-01+
*       -1.574406431E-01               0
GRID*               7380               0-1.025320152E+005.5157740139E-01+
*       -9.975830453E-02               0
GRID*               7381               0-1.032401622E+006.2075928203E-01+
*       -6.320600685E-02               0
GRID*               7382               0-1.069165987E+006.3268969851E-01+
*       -6.320615165E-02               0
GRID*               7383               0-1.057794693E+005.4733666212E-01+
*       -7.963097803E-02               0
GRID*               7384               0-7.188545834E-016.1801197143E-01+
*       1.5023344568E+00               0
GRID*               7385               0-7.188545834E-016.7279308310E-01+
*       1.4515052072E+00               0
GRID*               7386               0-6.563539466E-016.4635489192E-01+
*       1.4779434237E+00               0
GRID*               7387               06.9696027031E-013.7698391474E-01+
*       1.2482339375E+00               0
GRID*               7388               06.5491277895E-01-2.181648793E-01+
*       4.0567554535E-01               0
GRID*               7389               06.2807336915E-01-2.489842672E-01+
*       3.8803959274E-01               0
GRID*               7390               06.5646364494E-01-2.412894674E-01+
*       4.2000554999E-01               0
GRID*               7391               06.5613025838E-01-2.766149326E-01+
*       4.2491052944E-01               0
GRID*               7392               06.2773998259E-01-2.843097324E-01+
*       3.9294457219E-01               0
GRID*               7393               06.8759682662E-01-2.690670253E-01+
*       3.8210723234E-01               0
GRID*               7394               06.5503328464E-011.2363012105E-01+
*       1.1374682512E+00               0
GRID*               7395               06.2603589763E-018.9380409693E-02+
*       1.1749058294E+00               0
GRID*               7396               06.8757905904E-012.4811801925E-01+
*       1.1995976730E+00               0
GRID*               7397               06.8757905904E-013.0449642813E-01+
*       1.2324608245E+00               0
GRID*               7398               0-7.186645124E-01-1.208033565E-02+
*       1.1524783052E+00               0
GRID*               7399               07.1913999012E-01-6.902833884E-02+
*       1.7090094857E+00               0
GRID*               7400               06.5663912813E-01-1.061869811E-01+
*       1.7048226307E+00               0
GRID*               7401               0-7.182624010E-01-7.388912213E-02+
*       1.1529197452E+00               0
GRID*               7402               0-7.182624010E-01-1.257780801E-01+
*       1.1376839735E+00               0
GRID*               7403               0-6.557611060E-01-7.388405720E-02+
*       1.1529202374E+00               0
GRID*               7404               0-7.182682644E-014.5979003163E-01+
*       1.5991797797E+00               0
GRID*               7405               0-4.459244539E-01-8.473861131E-01+
*       -1.458052687E-01               0
GRID*               7406               0-4.786598267E-01-9.680540508E-01+
*       -1.512553683E-01               0
GRID*               7407               0-4.822918155E-01-8.506732459E-01+
*       -1.441871265E-01               0
GRID*               7408               0-4.826767158E-01-9.328209689E-01+
*       -1.850769408E-01               0
GRID*               7409               0-2.076209565E-01-9.650232016E-01+
*       -9.636064335E-02               0
GRID*               7410               0-2.194596003E-01-9.674434262E-01+
*       -1.549773973E-01               0
GRID*               7411               0-2.096780611E-01-9.324666279E-01+
*       -1.263890049E-01               0
GRID*               7412               0-2.422902661E-01-9.650232016E-01+
*       -3.388684897E-02               0
GRID*               7413               0-6.583100489E-017.3264237902E-01+
*       1.2286364388E+00               0
GRID*               7414               0-6.572376202E-018.2505386848E-01+
*       1.2617868778E+00               0
GRID*               7415               0-6.565950752E-018.3727397581E-01+
*       1.2331911678E+00               0
GRID*               7416               0-6.576675039E-017.4486248635E-01+
*       1.2000407287E+00               0
GRID*               7417               0-6.888304234E-017.9630639298E-01+
*       1.2449723777E+00               0
GRID*               7418               0-4.428597058E-01-3.835373324E-01+
*       -1.338892050E-01               0
GRID*               7419               05.8701883210E-029.7628654935E-01+
*       -3.249968009E-02               0
GRID*               7420               09.5685840495E-029.7575458844E-01+
*       -3.102301036E-02               0
GRID*               7421               01.0752918946E-019.2798687787E-01+
*       -3.102301036E-02               0
GRID*               7422               08.2959152276E-029.5204113779E-01+
*       -6.352269045E-02               0
GRID*               7423               01.1092951309E-01-8.808394671E-01+
*       -7.387505651E-02               0
GRID*               7424               0-5.670880559E-018.2526714260E-01+
*       5.8005017371E-01               0
GRID*               7425               0-5.620304199E-014.0912332800E-01+
*       1.9578524337E-01               0
GRID*               7426               0-6.851296485E-01-4.317937938E-01+
*       3.3818833071E-01               0
GRID*               7427               0-7.179834153E-013.3651256755E-02+
*       3.4627889336E-01               0
GRID*               7428               0-6.554847102E-01-2.042322089E-02+
*       3.4627840073E-01               0
GRID*               7429               02.4094303091E-01-1.675623668E-01+
*       -1.964693950E-01               0
GRID*               7430               0-5.168749799E-01-9.680540508E-01+
*       -2.167293993E-01               0
GRID*               7431               0-1.125745238E+00-9.758127678E-01+
*       -2.193876945E-01               0
GRID*               7432               04.1896732722E-018.3476033764E-02+
*       -1.175463676E-01               0
GRID*               7433               0-7.186680460E-01-3.940656937E-01+
*       8.4937825626E-01               0
GRID*               7434               0-7.186680460E-01-4.017627171E-01+
*       7.9584927914E-01               0
GRID*               7435               0-5.310352950E-01-2.876956191E-01+
*       4.5723833556E-01               0
GRID*               7436               0-1.882520780E-013.0375361039E-01+
*       -5.991420237E-02               0
GRID*               7437               0-1.880745702E-012.2717018162E-01+
*       -5.991420237E-02               0
GRID*               7438               0-2.505052912E-012.6560790075E-01+
*       -5.991420237E-02               0
GRID*               7439               0-5.324226216E-01-1.722559869E-01+
*       3.7616854048E-01               0
GRID*               7440               0-5.949240833E-01-2.177459388E-01+
*       4.0540280921E-01               0
GRID*               7441               0-5.949218523E-01-1.722586415E-01+
*       3.7616996362E-01               0
GRID*               7442               0-1.139249487E-011.8660804181E-02+
*       -1.928285520E-01               0
GRID*               7443               0-7.186520678E-01-9.637112259E-01+
*       7.8696627446E-01               0
GRID*               7444               0-2.504394800E-011.8886252651E-01+
*       -5.991420237E-02               0
GRID*               7445               0-3.129835951E-012.2728680469E-01+
*       -5.991420237E-02               0
GRID*               7446               0-6.555798499E-01-8.498846139E-01+
*       9.5716044993E-01               0
GRID*               7447               0-6.543108146E-01-8.454924301E-01+
*       9.8522703274E-01               0
GRID*               7448               0-4.130539113E-011.2320516883E-01+
*       -1.183435273E-01               0
GRID*               7449               0-6.561680460E-01-4.017627171E-01+
*       7.9584927914E-01               0
GRID*               7450               0-4.212468664E-01-3.514258681E-01+
*       -1.336085940E-01               0
GRID*               7451               0-1.226243853E+00-9.500371792E-01+
*       -3.086379896E-02               0
GRID*               7452               0-1.117515421E+003.9609572780E-01+
*       -8.994145095E-02               0
GRID*               7453               0-1.183842784E+003.5162783501E-01+
*       -6.191860128E-02               0
GRID*               7454               0-7.187680931E-01-9.669190195E-01+
*       1.8380738015E-01               0
GRID*               7455               0-7.187680931E-01-9.669190195E-01+
*       2.5880738015E-01               0
GRID*               7456               0-9.487441051E-02-9.762217211E-01+
*       -3.193570081E-02               0
GRID*               7457               0-6.225998040E-01-3.827210183E-01+
*       3.5759896535E-01               0
GRID*               7458               0-6.249716172E-01-2.820653424E-01+
*       3.9384206956E-01               0
GRID*               7459               0-5.944122578E-01-2.756986530E-01+
*       4.2350527553E-01               0
GRID*               7460               0-5.920404446E-01-3.763543289E-01+
*       3.8726217132E-01               0
GRID*               7461               0-5.943809517E-01-3.089266207E-01+
*       3.5453849800E-01               0
GRID*               7462               0-7.186520678E-01-9.581264922E-01+
*       8.6148738199E-01               0
GRID*               7463               0-1.136820364E+00-8.768834559E-01+
*       -7.397949591E-02               0
GRID*               7464               0-1.113078510E+00-8.986229250E-01+
*       -7.448887265E-02               0
GRID*               7465               0-6.891798425E-01-5.103037515E-01+
*       1.4152433120E+00               0
GRID*               7466               01.1075970207E-01-9.656695916E-01+
*       -2.186926634E-01               0
GRID*               7467               01.1567602299E-01-9.060128408E-01+
*       -1.675677199E-01               0
GRID*               7468               01.4646853992E-01-9.656695916E-01+
*       -1.561664569E-01               0
GRID*               7469               01.0911436833E-01-8.164556533E-01+
*       -7.387505651E-02               0
GRID*               7470               01.6544933658E-01-8.542299319E-01+
*       -7.387505651E-02               0
GRID*               7471               0-3.605359457E-02-9.664714631E-01+
*       -2.192648119E-01               0
GRID*               7472               09.8640738384E-02-7.082561976E-01+
*       -1.834474671E-01               0
GRID*               7473               02.0622755019E-01-9.569985711E-01+
*       -3.219886588E-02               0
GRID*               7474               02.4401361845E-01-9.569985711E-01+
*       -9.467410317E-02               0
GRID*               7475               0-6.850903932E-01-4.017546098E-01+
*       1.0665426593E+00               0
GRID*               7476               02.2463464179E-01-8.960474776E-01+
*       -1.207027206E-01               0
GRID*               7477               02.9709002346E-01-8.960474776E-01+
*       -1.207041644E-01               0
GRID*               7478               02.5520641449E-01-9.670833553E-01+
*       -1.560250421E-01               0
GRID*               7479               01.8275103282E-01-9.670833553E-01+
*       -1.560235983E-01               0
GRID*               7480               02.6243858715E-01-8.631308329E-01+
*       -1.517787318E-01               0
GRID*               7481               03.6698939301E-01-9.663842729E-01+
*       -2.186268638E-01               0
GRID*               7482               04.0244257067E-01-9.663842729E-01+
*       -1.535992935E-01               0
GRID*               7483               04.0395476091E-01-9.667467149E-01+
*       -2.173712282E-01               0
GRID*               7484               04.0329709509E-01-9.331309878E-01+
*       -1.859980920E-01               0
GRID*               7485               04.3940793856E-01-9.667467149E-01+
*       -1.523436579E-01               0
GRID*               7486               0-1.217964088E+00-6.785286919E-01+
*       -1.991900807E-01               0
GRID*               7487               0-1.186041770E+00-7.006979419E-01+
*       -1.487664199E-01               0
GRID*               7488               0-1.218077682E+00-7.144769423E-01+
*       -1.995763392E-01               0
GRID*               7489               0-1.184915642E+00-6.826159465E-01+
*       -1.770006533E-01               0
GRID*               7490               0-1.185029236E+00-7.185641969E-01+
*       -1.773869118E-01               0
GRID*               7491               0-5.993536590E-01-9.207602316E-01+
*       7.1765290598E-01               0
GRID*               7492               0-6.563004635E-01-3.288682722E-01+
*       9.8748746917E-01               0
GRID*               7493               0-6.881308358E-01-3.624361930E-01+
*       9.9350938577E-01               0
GRID*               7494               0-6.538906188E-01-3.948023628E-01+
*       1.0334514064E+00               0
GRID*               7495               07.1864030943E-01-3.040026547E-01+
*       4.7847119840E-01               0
GRID*               7496               06.5613884778E-01-3.039982012E-01+
*       4.7846755079E-01               0
GRID*               7497               0-7.189608165E-01-9.682549468E-01+
*       7.0509578473E-01               0
GRID*               7498               0-6.777236017E-015.0220845501E-01+
*       6.2241986031E-01               0
GRID*               7499               0-6.931079222E-01-8.861745386E-01+
*       7.1684721930E-01               0
GRID*               7500               06.5352159342E-01-4.235104517E-01+
*       4.8004474470E-01               0
GRID*               7501               06.2450177156E-01-3.899212384E-01+
*       4.7601989720E-01               0
GRID*               7502               06.5564184309E-01-4.096622119E-01+
*       4.5080392765E-01               0
GRID*               7503               0-6.578995610E-01-5.279128358E-01+
*       1.4453529206E+00               0
GRID*               7504               0-6.585356619E-01-6.749071270E-01+
*       1.4518560118E+00               0
GRID*               7505               0-6.276370418E-01-6.422120375E-01+
*       1.4438633234E+00               0
GRID*               7506               0-5.989973914E-012.5323557458E-01+
*       1.5676325369E+00               0
GRID*               7507               0-5.310046013E-015.1318899590E-01+
*       1.5646305582E+00               0
GRID*               7508               0-1.002746051E+00-2.193585107E-01+
*       -1.902193871E-01               0
GRID*               7509               01.1163047038E+00-6.397752557E-01+
*       -1.144291910E-01               0
GRID*               7510               01.1163090332E+00-6.397784392E-01+
*       -1.560964359E-01               0
GRID*               7511               01.1179608844E+00-5.788334942E-01+
*       -1.327913074E-01               0
GRID*               7512               0-6.536563173E-01-4.329359538E-01+
*       9.8229016512E-01               0
GRID*               7513               0-6.548017787E-01-2.751974747E-01+
*       1.0497217186E+00               0
GRID*               7514               0-6.523936335E-01-3.765514106E-01+
*       1.0548109767E+00               0
GRID*               7515               0-6.225889315E-01-3.501913076E-01+
*       1.0422804386E+00               0
GRID*               7516               0-5.905317154E-01-2.709193523E-01+
*       1.0730248981E+00               0
GRID*               7517               0-6.203364174E-01-2.972794553E-01+
*       1.0855554361E+00               0
GRID*               7518               0-5.881235702E-01-3.722732882E-01+
*       1.0781141561E+00               0
GRID*               7519               0-1.148038080E+00-2.990875286E-01+
*       -2.190798307E-01               0
GRID*               7520               0-1.217158809E+003.4932602936E-01+
*       -3.184981310E-02               0
GRID*               7521               0-6.251645158E-01-7.199036188E-01+
*       8.8323010595E-01               0
GRID*               7522               0-1.116059047E+006.3984655760E-01+
*       -1.569068282E-01               0
GRID*               7523               0-1.116892194E+006.1614840767E-01+
*       -1.764350658E-01               0
GRID*               7524               0-1.104688041E+005.5449375597E-01+
*       -1.316650256E-01               0
GRID*               7525               05.9426566574E-01-3.160535355E-01+
*       4.9534348103E-01               0
GRID*               7526               0-9.492604677E-016.2157538555E-01+
*       -2.284066086E-01               0
GRID*               7527               0-9.492625958E-016.2157383050E-01+
*       -1.867402256E-01               0
GRID*               7528               0-1.128021134E+006.9081565209E-01+
*       -2.173423957E-02               0
GRID*               7529               0-1.134170520E+007.1696433171E-01+
*       -2.238773156E-02               0
GRID*               7530               0-1.143329177E+006.9646730790E-01+
*       -4.412197112E-02               0
GRID*               7531               0-1.147630983E+006.5097197559E-01+
*       -7.406386822E-02               0
GRID*               7532               0-1.138472339E+006.7146903527E-01+
*       -9.399629397E-02               0
GRID*               7533               0-1.088906402E+006.2596220560E-01+
*       -4.388372413E-02               0
GRID*               7534               0-6.232970135E-01-2.003884231E-01+
*       3.5900486174E-01               0
GRID*               7535               0-5.979589685E-01-1.627947222E-01+
*       2.8795952117E-01               0
GRID*               7536               0-1.069164886E+006.3268880181E-01+
*       -2.153934017E-02               0
GRID*               7537               0-1.032401622E+006.2075928202E-01+
*       -2.153934017E-02               0
GRID*               7538               0-1.003890144E+00-9.051634686E-01+
*       -1.573621068E-01               0
GRID*               7539               0-1.040654220E+00-8.932332820E-01+
*       -1.573622139E-01               0
GRID*               7540               0-1.032508749E+00-8.823754321E-01+
*       -1.860885208E-01               0
GRID*               7541               0-1.036471812E+00-9.125389219E-01+
*       -1.767839609E-01               0
GRID*               7542               0-1.116132076E+00-8.311470766E-01+
*       -6.371956657E-02               0
GRID*               7543               0-1.147587086E+00-8.606931730E-01+
*       -7.315831690E-02               0
GRID*               7544               0-7.173032403E-01-2.752019283E-01+
*       1.0497180715E+00               0
GRID*               7545               0-7.173032403E-01-3.106168883E-01+
*       1.0088478521E+00               0
GRID*               7546               0-1.128772139E+00-8.491690745E-01+
*       -1.576176459E-01               0
GRID*               7547               0-1.151475777E+00-8.179428675E-01+
*       -1.576175368E-01               0
GRID*               7548               0-1.146458846E+00-8.613747149E-01+
*       -1.778089469E-01               0
GRID*               7549               0-1.113845576E+00-8.321190391E-01+
*       -1.868580731E-01               0
GRID*               7550               01.0919273841E+008.8781213700E-01+
*       -1.141847405E-01               0
GRID*               7551               01.1354122783E+009.0250368976E-01+
*       -1.457019935E-01               0
GRID*               7552               0-7.184933268E-01-3.998627905E-01+
*       6.8342119765E-01               0
GRID*               7553               09.9034653667E-018.9215648340E-01+
*       -6.329469532E-02               0
GRID*               7554               09.5358936836E-018.8020480615E-01+
*       -6.329458613E-02               0
GRID*               7555               09.9034653667E-018.9215648340E-01+
*       -2.162802865E-02               0
GRID*               7556               0-1.169664102E+00-6.017753298E-01+
*       -3.110259182E-02               0
GRID*               7557               0-1.223275157E+00-5.716628965E-01+
*       -3.110259182E-02               0
GRID*               7558               0-1.222156060E+00-5.336778391E-01+
*       -3.056518601E-02               0
GRID*               7559               0-1.195431217E+00-5.668791971E-01+
*       -6.166777783E-02               0
GRID*               7560               0-6.561228018E-017.1980550344E-02+
*       1.1469738495E+00               0
GRID*               7561               0-6.872860192E-015.9905273939E-02+
*       1.1733204210E+00               0
GRID*               7562               0-6.435704159E-019.5030551482E-02+
*       1.1841578304E+00               0
GRID*               7563               01.0239176274E+009.0774607342E-01+
*       -6.309400069E-02               0
GRID*               7564               01.0142641640E+009.2490255682E-01+
*       -4.305536268E-02               0
GRID*               7565               01.0623049597E+009.1277552764E-01+
*       -4.301299961E-02               0
GRID*               7566               01.0287338690E+008.9718593762E-01+
*       -4.321369424E-02               0
GRID*               7567               06.5480329487E-01-4.855648444E-01+
*       6.4685776184E-01               0
GRID*               7568               06.2412266355E-01-4.140709521E-01+
*       6.0012560395E-01               0
GRID*               7569               0-7.197364842E-017.5856899659E-01+
*       1.3518703313E+00               0
GRID*               7570               0-7.197364842E-017.4355681025E-01+
*       1.2817157146E+00               0
GRID*               7571               0-7.197364842E-018.0516253498E-01+
*       1.2934440765E+00               0
GRID*               7572               0-1.205753369E+005.2421263416E-01+
*       -2.182733161E-01               0
GRID*               7573               05.3138951147E-013.0904086807E-01+
*       1.5842464447E+00               0
GRID*               7574               05.3138951147E-013.5849619513E-01+
*       1.6434393872E+00               0
GRID*               7575               05.3344284817E-013.2282339590E-01+
*       1.6562787720E+00               0
GRID*               7576               05.3344284817E-012.7336806885E-01+
*       1.5970858295E+00               0
GRID*               7577               05.6483235964E-013.1597858788E-01+
*       1.6188444499E+00               0
GRID*               7578               0-1.128134256E+006.5721098074E-01+
*       -1.559186571E-01               0
GRID*               7579               0-1.150837896E+006.8843717722E-01+
*       -1.559185481E-01               0
GRID*               7580               0-1.159782596E+006.6772791313E-01+
*       -1.758565345E-01               0
GRID*               7581               09.6662501814E-019.0527896598E-01+
*       -1.583616212E-01               0
GRID*               7582               09.2986758274E-018.9332707147E-01+
*       -1.583614772E-01               0
GRID*               7583               09.6662501814E-019.0527896598E-01+
*       -1.166949545E-01               0
GRID*               7584               09.1172082371E-018.8711432616E-01+
*       -1.355013555E-01               0
GRID*               7585               05.3176542784E-01-2.806381359E-01+
*       4.5447245538E-01               0
GRID*               7586               01.1358817398E+007.2918746628E-01+
*       -2.191744497E-02               0
GRID*               7587               01.2013528173E+007.1710222803E-01+
*       -3.095449082E-02               0
GRID*               7588               01.2341276763E+007.1232131797E-01+
*       -3.095449082E-02               0
GRID*               7589               01.2335498348E+006.7617446832E-01+
*       -3.042091522E-02               0
GRID*               7590               01.2007749758E+006.8095537837E-01+
*       -3.042091522E-02               0
GRID*               7591               01.2176775111E+006.9618809399E-01+
*       -6.137540604E-02               0
GRID*               7592               01.2278618140E+005.8690826897E-01+
*       -2.194227816E-01               0
GRID*               7593               01.2278618140E+006.6383134590E-01+
*       -2.194227816E-01               0
GRID*               7594               01.1848706107E+006.4381174700E-01+
*       -2.194227816E-01               0
GRID*               7595               01.1150687369E+006.6732889355E-01+
*       -6.460211498E-02               0
GRID*               7596               01.1463870114E+006.4359927293E-01+
*       -7.489602867E-02               0
GRID*               7597               01.1275151613E+006.5642888496E-01+
*       -9.362719125E-02               0
GRID*               7598               09.1474628841E-01-8.650161440E-01+
*       -2.290866677E-01               0
GRID*               7599               09.4533494399E-01-9.688605490E-01+
*       -1.999088087E-01               0
GRID*               7600               09.5618585355E-01-9.379687564E-01+
*       -1.775422762E-01               0
GRID*               7601               0-5.871801863E-015.8482920591E-01+
*       1.4028216301E+00               0
GRID*               7602               05.3262649632E-01-3.806025914E-01+
*       1.6357550596E+00               0
GRID*               7603               05.3118871931E-01-3.463451228E-01+
*       1.6498850573E+00               0
GRID*               7604               05.6381521563E-01-3.616067110E-01+
*       1.6047664076E+00               0
GRID*               7605               05.3118871931E-01-3.437942902E-01+
*       1.5727467147E+00               0
GRID*               7606               01.0700463298E+00-8.691925340E-01+
*       -2.285589679E-01               0
GRID*               7607               01.0902415649E+00-8.630989491E-01+
*       -2.282869521E-01               0
GRID*               7608               01.0867975674E+00-8.811777849E-01+
*       -2.068459201E-01               0
GRID*               7609               05.6217282484E-015.3079472974E-01+
*       1.4604964189E+00               0
GRID*               7610               05.9544793068E-015.3394122868E-01+
*       1.4876522870E+00               0
GRID*               7611               06.2627067281E-014.3927450918E-01+
*       1.4569330274E+00               0
GRID*               7612               05.9585690258E-015.6392670247E-01+
*       1.4635103130E+00               0
GRID*               7613               0-5.304891862E-01-9.498177526E-01+
*       9.2682305761E-01               0
GRID*               7614               0-1.115029755E+004.6080590717E-01+
*       -1.522608546E-01               0
GRID*               7615               06.2659779313E-014.6226985704E-01+
*       1.5167949666E+00               0
GRID*               7616               06.5605946377E-015.1291539586E-01+
*       1.5642841639E+00               0
GRID*               7617               0-5.569139577E-01-6.697844230E-01+
*       1.1215119363E+00               0
GRID*               7618               06.9064033523E-01-8.331192987E-01+
*       1.1330040224E+00               0
GRID*               7619               06.9064033523E-01-7.588402616E-01+
*       1.1340985845E+00               0
GRID*               7620               0-5.873645518E-01-7.299729850E-01+
*       1.2231492370E+00               0
GRID*               7621               05.3058562116E-013.9219448002E-01+
*       1.6324311272E+00               0
GRID*               7622               05.3058562116E-014.1196111184E-01+
*       1.5507388124E+00               0
GRID*               7623               05.3058562116E-014.5952385867E-01+
*       1.6000067734E+00               0
GRID*               7624               0-5.308291473E-01-9.622181636E-01+
*       2.6688523015E-01               0
GRID*               7625               0-7.185943571E-01-9.686665545E-01+
*       4.8332846956E-01               0
GRID*               7626               05.3104706907E-01-9.682479581E-01+
*       1.4522976098E-01               0
GRID*               7627               0-7.181415135E-01-8.908938645E-01+
*       1.1342776721E+00               0
GRID*               7628               05.3178070441E-014.4324299586E-01+
*       1.5331682270E+00               0
GRID*               7629               05.3178070441E-014.9080574268E-01+
*       1.5824361880E+00               0
GRID*               7630               05.6236632556E-014.5032984090E-01+
*       1.5664179596E+00               0
GRID*               7631               0-4.381263306E-012.2421840871E-01+
*       -6.421658882E-02               0
GRID*               7632               0-1.012486675E+00-6.090018927E-01+
*       -1.862135163E-01               0
GRID*               7633               0-1.053247154E+00-5.428040347E-01+
*       -1.590083794E-01               0
GRID*               7634               0-1.005055892E+00-5.636836908E-01+
*       -1.605654121E-01               0
GRID*               7635               0-5.304617901E-012.0164908464E-02+
*       3.4626339667E-01               0
GRID*               7636               0-5.319107962E-01-2.757031065E-01+
*       4.2350892314E-01               0
GRID*               7637               0-5.629460912E-01-3.145524439E-01+
*       4.1793111639E-01               0
GRID*               7638               0-8.841820179E-01-6.756231727E-01+
*       -2.222528219E-02               0
GRID*               7639               08.4640021130E-01-8.215677467E-01+
*       -2.044812244E-02               0
GRID*               7640               08.3082468329E-01-8.556027898E-01+
*       -2.231090428E-02               0
GRID*               7641               05.3155752226E-01-9.287442627E-01+
*       1.0336866642E+00               0
GRID*               7642               05.3077483447E-01-9.183839397E-01+
*       1.0658203356E+00               0
GRID*               7643               0-5.310057718E-01-2.420287922E-01+
*       4.1950530508E-01               0
GRID*               7644               0-5.935072334E-01-2.420243387E-01+
*       4.1950165747E-01               0
GRID*               7645               0-5.310057718E-01-1.965343868E-01+
*       3.9026738874E-01               0
GRID*               7646               05.6257905904E-012.4413722310E-01+
*       1.2020905232E+00               0
GRID*               7647               07.1848339553E-011.5113446830E-01+
*       1.1293993599E+00               0
GRID*               7648               07.1848339553E-019.9245510745E-02+
*       1.1446351332E+00               0
GRID*               7649               07.1812386641E-011.8064065625E-01+
*       1.1130639315E+00               0
GRID*               7650               06.5562240476E-012.2613061325E-01+
*       1.0838296709E+00               0
GRID*               7651               06.5562463570E-011.8064331136E-01+
*       1.1130625085E+00               0
GRID*               7652               05.9415081170E-01-4.271704333E-01+
*       4.7545534747E-01               0
GRID*               7653               05.6031322708E-01-2.352240288E-01+
*       1.5059811112E+00               0
GRID*               7654               06.9303557793E-01-3.614735687E-02+
*       1.5783522184E+00               0
GRID*               7655               01.1018284851E+00-8.480519029E-01+
*       -2.294842219E-01               0
GRID*               7656               01.1245336177E+00-8.167793866E-01+
*       -2.294842219E-01               0
GRID*               7657               0-5.569139577E-01-7.140631458E-01+
*       1.1790854187E+00               0
GRID*               7658               05.9699893244E-01-2.420094383E-01+
*       1.1662852324E+00               0
GRID*               7659               0-5.317413945E-01-9.120671241E-01+
*       1.0649066483E+00               0
GRID*               7660               05.9746939068E-01-1.654126294E-01+
*       1.2050910102E+00               0
GRID*               7661               06.9559574139E-018.9275102865E-01+
*       -1.790403881E-01               0
GRID*               7662               06.6029228364E-018.9220522179E-01+
*       -1.671124383E-01               0
GRID*               7663               07.0174257535E-01-2.374350489E-01+
*       1.4747564355E+00               0
GRID*               7664               0-5.520132460E-01-4.574234862E-01+
*       1.1331292482E+00               0
GRID*               7665               05.2596864640E-01-1.753661634E-01+
*       1.1062561199E+00               0
GRID*               7666               05.9185088174E-01-2.151556922E-01+
*       1.1739261450E+00               0
GRID*               7667               05.2596864640E-01-2.217157056E-01+
*       1.1407636781E+00               0
GRID*               7668               0-7.268829792E-01-6.228933195E-01+
*       1.4115398813E+00               0
GRID*               7669               0-6.979180044E-01-6.518766196E-01+
*       1.4383633623E+00               0
GRID*               7670               0-6.660628217E-01-5.818174925E-01+
*       1.4168432428E+00               0
GRID*               7671               0-5.936253850E-01-2.527812249E-01+
*       1.6784429919E+00               0
GRID*               7672               0-5.623986542E-01-2.458339782E-01+
*       1.6433693809E+00               0
GRID*               7673               0-6.213289956E-01-2.271677634E-01+
*       1.6502838661E+00               0
GRID*               7674               05.5957608561E-018.6769406282E-01+
*       -1.595774815E-01               0
GRID*               7675               05.3035274949E-01-1.222947116E-01+
*       1.7067535383E+00               0
GRID*               7676               05.3035274949E-01-9.640044155E-02+
*       1.6346017398E+00               0
GRID*               7677               05.6612946777E-01-8.071559750E-02+
*       1.2585633106E+00               0
GRID*               7678               06.9637425787E-01-3.763686440E-01+
*       2.0474385365E-01               0
GRID*               7679               05.6200153366E-01-4.164552718E-01+
*       4.1730307843E-01               0
GRID*               7680               0-6.188591210E-01-9.297794227E-01+
*       3.9395780093E-01               0
GRID*               7681               0-7.186073585E-01-9.706434100E-01+
*       4.0868219110E-01               0
GRID*               7682               0-6.501206796E-01-9.004228327E-01+
*       3.9076096129E-01               0
GRID*               7683               0-6.559531585E-01-9.706434100E-01+
*       3.7056122182E-01               0
GRID*               7684               06.5607819349E-019.0488359414E-01+
*       6.9351306437E-01               0
GRID*               7685               05.9403651975E-01-4.975999491E-01+
*       7.0621716197E-01               0
GRID*               7686               05.8547575458E-01-4.908223536E-01+
*       7.8178262093E-01               0
GRID*               7687               0-8.571247105E-01-7.995857849E-01+
*       -4.331105806E-02               0
GRID*               7688               06.5412980228E-013.4445687566E-01+
*       1.6469419935E+00               0
GRID*               7689               01.1672106679E+00-3.878246566E-02+
*       -1.529658238E-01               0
GRID*               7690               0-5.576713677E-01-1.964335482E-01+
*       1.1629048648E+00               0
GRID*               7691               0-5.576713677E-01-1.809087450E-01+
*       1.2208070320E+00               0
GRID*               7692               0-5.812673350E-01-2.087977330E-01+
*       1.1775138997E+00               0
GRID*               7693               0-5.235959673E-01-1.546968376E-01+
*       1.1681709011E+00               0
GRID*               7694               05.5165768649E-012.4805308967E-01+
*       1.4728465231E+00               0
GRID*               7695               0-5.616552992E-013.0322890646E-01+
*       2.4608782061E-01               0
GRID*               7696               0-5.624562884E-012.7388719074E-01+
*       2.0156428885E-01               0
GRID*               7697               0-5.624562884E-012.6389869178E-01+
*       2.8689089681E-01               0
GRID*               7698               0-6.241115876E-012.8486877549E-01+
*       2.7701669200E-01               0
GRID*               7699               06.9263047102E-015.1263528665E-01+
*       8.3244786246E-01               0
GRID*               7700               0-5.927415982E-013.9430750998E-01+
*       8.4984690555E-01               0
GRID*               7701               0-5.842187922E-014.8464928910E-01+
*       8.3872274709E-01               0
GRID*               7702               0-5.619076202E-014.1819524511E-01+
*       8.8012727040E-01               0
GRID*               7703               06.2597755487E-012.6309398836E-01+
*       1.6392285435E+00               0
GRID*               7704               05.9253470670E-012.5615626854E-01+
*       1.6046305383E+00               0
GRID*               7705               05.6350832343E-012.8913150608E-01+
*       1.5531338699E+00               0
GRID*               7706               05.9695117160E-012.9606922590E-01+
*       1.5877318751E+00               0
GRID*               7707               06.5604303012E-012.7885742559E-01+
*       1.5952765840E+00               0
GRID*               7708               05.6409784797E-013.1382514730E-01+
*       1.5099194168E+00               0
GRID*               7709               06.2760617140E-013.3652630435E-01+
*       1.5005654625E+00               0
GRID*               7710               05.6194596043E-012.5847229885E-01+
*       1.5301362990E+00               0
GRID*               7711               06.2604380840E-013.0586709711E-01+
*       1.4775678915E+00               0
GRID*               7712               06.2545428386E-012.8117345590E-01+
*       1.5207823446E+00               0
GRID*               7713               05.6589199826E-017.1800299242E-01+
*       8.7064849529E-01               0
GRID*               7714               0-5.316668392E-013.8849274487E-01+
*       8.8734139984E-01               0
GRID*               7715               05.6920996494E-014.4831105332E-01+
*       4.8472466369E-01               0
GRID*               7716               05.6920996494E-014.2384169988E-01+
*       4.2399740096E-01               0
GRID*               7717               0-7.195153509E-019.7197195355E-01+
*       4.3407886017E-02               0
GRID*               7718               0-6.553186644E-019.7197195355E-01+
*       7.9522799215E-02               0
GRID*               7719               0-7.195153509E-019.7197195355E-01+
*       1.1840788602E-01               0
GRID*               7720               06.8909784797E-013.6072964275E-01+
*       1.4919740164E+00               0
GRID*               7721               05.3109281135E-019.6959250893E-01+
*       6.2944415356E-01               0
GRID*               7722               05.8375828508E-019.0688927434E-01+
*       6.1968264796E-01               0
GRID*               7723               05.9358710985E-019.6959250893E-01+
*       6.5873902718E-01               0
GRID*               7724               05.3130313910E-019.3415155444E-01+
*       9.9906486198E-01               0
GRID*               7725               0-5.528984316E-016.6602978377E-01+
*       2.6083533839E-01               0
GRID*               7726               0-5.311249041E-019.7080795863E-01+
*       3.3366510637E-01               0
GRID*               7727               0-3.697503185E-019.0805742804E-01+
*       -2.189102311E-01               0
GRID*               7728               0-7.178512880E-011.7971559911E-01+
*       1.6964040228E+00               0
GRID*               7729               0-6.553509180E-012.1583372682E-01+
*       1.6867259486E+00               0
GRID*               7730               0-6.568774261E-01-3.994795852E-02+
*       1.1532295996E+00               0
GRID*               7731               0-7.193787210E-01-3.995302344E-02+
*       1.1532291074E+00               0
GRID*               7732               0-6.876411220E-01-5.976260560E-02+
*       1.1800176103E+00               0
GRID*               7733               02.2424809359E-01-5.514166443E-01+
*       -1.950292572E-01               0
GRID*               7734               0-5.615647632E-01-9.371079759E-02+
*       1.2400243241E+00               0
GRID*               7735               05.3350338228E-017.1721452646E-02+
*       1.1483316226E+00               0
GRID*               7736               0-8.506681150E-01-8.050673874E-01+
*       -2.077306150E-01               0
GRID*               7737               0-7.186521176E-016.8222624904E-01+
*       1.4175310122E+00               0
GRID*               7738               0-7.182433665E-013.9872925733E-01+
*       6.8442907731E-01               0
GRID*               7739               0-8.127865450E-01-8.552184625E-01+
*       -1.993125957E-01               0
GRID*               7740               0-6.260727024E-017.3151638301E-01+
*       1.2785950688E+00               0
GRID*               7741               0-5.942273688E-018.3222864786E-01+
*       1.2559755858E+00               0
GRID*               7742               0-5.942253705E-017.9013506902E-01+
*       1.3177154258E+00               0
GRID*               7743               0-5.952997975E-017.3981715841E-01+
*       1.2228251467E+00               0
GRID*               7744               07.1734824774E-012.7535876563E-01+
*       1.0499748643E+00               0
GRID*               7745               06.5484848563E-013.1077415603E-01+
*       1.0091038311E+00               0
GRID*               7746               06.5484678608E-012.7535431208E-01+
*       1.0499785114E+00               0
GRID*               7747               0-5.514890288E-014.5384810182E-01+
*       1.2749499333E+00               0
GRID*               7748               0-8.294098295E-01-8.095770352E-01+
*       -1.159795029E-01               0
GRID*               7749               0-8.151049032E-01-7.954537180E-01+
*       -9.682415594E-02               0
GRID*               7750               0-8.351101559E-01-7.253050384E-01+
*       -8.698346908E-02               0
GRID*               7751               0-1.168067869E+007.2146591538E-01+
*       -1.770095001E-01               0
GRID*               7752               0-1.185156131E+007.1924244646E-01+
*       -1.971637839E-01               0
GRID*               7753               0-1.151337357E+007.4332338573E-01+
*       -1.149997818E-01               0
GRID*               7754               0-8.728898075E-01-6.917803706E-01+
*       -2.077038075E-02               0
GRID*               7755               0-8.674057789E-01-7.158773568E-01+
*       -2.081535428E-02               0
GRID*               7756               0-8.212280711E-01-7.102057723E-01+
*       -6.447190889E-02               0
GRID*               7757               0-1.221528849E+009.5208292118E-01+
*       -2.188149379E-01               0
GRID*               7758               0-1.166798124E+009.0211963062E-01+
*       -2.188149379E-01               0
GRID*               7759               0-1.170279390E+009.2729196645E-01+
*       -1.888167587E-01               0
GRID*               7760               0-5.194080132E-01-9.671982392E-01+
*       -1.452588586E-01               0
GRID*               7761               0-6.558488359E-01-9.675546474E-01+
*       2.6018938636E-01               0
GRID*               7762               0-6.678174195E-01-8.652628175E-01+
*       3.0482785630E-01               0
GRID*               7763               0-6.874656275E-01-9.344736669E-01+
*       2.5672214233E-01               0
GRID*               7764               05.4808307664E-01-8.238214467E-01+
*       2.6340263410E-01               0
GRID*               7765               0-5.288011704E-01-9.721040967E-01+
*       1.1847346053E-01               0
GRID*               7766               0-7.571616254E-02-8.668953823E-01+
*       -7.392761637E-02               0
GRID*               7767               0-5.312457368E-01-9.700233593E-01+
*       7.0507212800E-01               0
GRID*               7768               06.2764104970E-01-9.693055833E-01+
*       -2.118647865E-01               0
GRID*               7769               05.5411163793E-01-9.693055833E-01+
*       -2.118647865E-01               0
GRID*               7770               05.9842912193E-01-9.693055833E-01+
*       -1.368137105E-01               0
GRID*               7771               0-5.311200643E-01-9.708342836E-01+
*       5.6054404979E-01               0
GRID*               7772               0-5.923414084E-01-9.153541914E-01+
*       5.5518947410E-01               0
GRID*               7773               0-5.311200643E-01-9.127728586E-01+
*       5.2103142031E-01               0
GRID*               7774               0-5.307824118E-01-9.707576190E-01+
*       3.0455848146E-01               0
GRID*               7775               0-7.186975344E-01-9.675546474E-01+
*       2.9791476219E-01               0
GRID*               7776               0-5.309902184E-013.8046753577E-01+
*       1.6336839469E+00               0
GRID*               7777               05.3138951147E-013.7826282695E-01+
*       1.5617470725E+00               0
GRID*               7778               05.9548735944E-013.5643566633E-01+
*       1.5316780372E+00               0
GRID*               7779               0-5.893923485E-013.9443762616E-01+
*       4.3728499103E-01               0
GRID*               7780               0-5.633903400E-013.7370018548E-01+
*       5.1519555627E-01               0
GRID*               7781               0-5.901191390E-014.1608501771E-01+
*       4.6487888143E-01               0
GRID*               7782               0-6.300226868E-013.7225980205E-01+
*       5.0269757341E-01               0
GRID*               7783               0-6.307494772E-013.9390719360E-01+
*       5.3029146382E-01               0
GRID*               7784               0-5.316067078E-01-4.065019584E-01+
*       7.3812314531E-01               0
GRID*               7785               0-5.316067078E-01-3.988049383E-01+
*       6.8459416773E-01               0
GRID*               7786               0-5.315825177E-01-3.527585558E-01+
*       5.4808437377E-01               0
GRID*               7787               0-5.304169796E-01-3.398504842E-01+
*       5.1920543942E-01               0
GRID*               7788               0-5.619994973E-01-3.729328224E-01+
*       5.2273324483E-01               0
GRID*               7789               0-5.929167417E-01-3.398509158E-01+
*       5.1920625204E-01               0
GRID*               7790               0-5.546854036E-01-6.996470013E-01+
*       5.5155848374E-01               0
GRID*               7791               0-5.607007387E-01-7.768566756E-01+
*       8.9450934248E-01               0
GRID*               7792               02.5672352636E-01-9.673874324E-01+
*       -2.189919047E-01               0
GRID*               7793               02.2057160673E-01-9.670833553E-01+
*       -2.185498048E-01               0
GRID*               7794               02.5670689780E-01-9.344707877E-01+
*       -1.875417095E-01               0
GRID*               7795               0-6.840440568E-01-6.064206132E-01+
*       2.6496223484E-01               0
GRID*               7796               0-6.899546040E-01-3.212880268E-01+
*       2.5398759382E-01               0
GRID*               7797               0-5.312689101E-01-3.833621228E-01+
*       8.8399462014E-01               0
GRID*               7798               0-5.305397343E-01-3.925553123E-01+
*       8.5178644564E-01               0
GRID*               7799               0-5.618086444E-01-4.113114865E-01+
*       8.7872310007E-01               0
GRID*               7800               0-5.930389172E-01-3.925543703E-01+
*       8.5178952592E-01               0
GRID*               7801               0-5.649546040E-01-3.627982531E-01+
*       2.3645268463E-01               0
GRID*               7802               0-5.601296485E-01-4.027197548E-01+
*       3.4827072914E-01               0
GRID*               7803               0-5.624701555E-01-3.352920466E-01+
*       3.1554705582E-01               0
GRID*               7804               0-6.274247595E-01-3.427995166E-01+
*       2.4578092083E-01               0
GRID*               7805               0-5.601296485E-01-4.258164476E-01+
*       4.1753076674E-01               0
GRID*               7806               0-7.192839670E-019.0392521194E-02+
*       3.5476122938E-01               0
GRID*               7807               0-7.180636142E-01-7.442571537E-01+
*       1.3758332765E+00               0
GRID*               7808               09.2765741682E-01-9.125066509E-01+
*       -7.403578499E-02               0
GRID*               7809               01.0390022080E+00-9.339554058E-01+
*       -3.116418121E-02               0
GRID*               7810               01.1157059985E+00-6.682070286E-01+
*       -2.283296980E-01               0
GRID*               7811               0-5.302251137E-019.0378121007E-01+
*       2.9155065482E-01               0
GRID*               7812               0-2.820879195E-018.9544261832E-01+
*       -1.590666864E-01               0
GRID*               7813               0-3.002176491E-018.9967341586E-01+
*       -9.579691654E-02               0
GRID*               7814               0-2.857373635E-018.6505305300E-01+
*       -1.870670719E-01               0
GRID*               7815               0-2.698263974E-018.8175927808E-01+
*       -9.613375831E-02               0
GRID*               7816               0-3.038670931E-018.6928385055E-01+
*       -1.237973020E-01               0
GRID*               7817               08.8477123772E-016.7476791189E-01+
*       -6.339367143E-02               0
GRID*               7818               01.1014881249E+005.6904041074E-01+
*       -9.207635563E-02               0
GRID*               7819               01.1165598399E+006.3950921349E-01+
*       -9.422581393E-02               0
GRID*               7820               01.1354316900E+006.2667960146E-01+
*       -7.549465135E-02               0
GRID*               7821               01.1256813693E+005.7248967402E-01+
*       -1.217005913E-01               0
GRID*               7822               0-7.268829792E-01-6.288018973E-01+
*       1.4939473914E+00               0
GRID*               7823               0-6.643836160E-01-6.571448178E-01+
*       1.4695563583E+00               0
GRID*               7824               08.5994920544E-01-9.734841171E-01+
*       -9.724615019E-02               0
GRID*               7825               08.8622737458E-01-9.734841171E-01+
*       -3.174926341E-02               0
GRID*               7826               09.1471746199E-01-9.838513358E-01+
*       -3.236335929E-02               0
GRID*               7827               08.8843929284E-01-9.838513358E-01+
*       -9.786024607E-02               0
GRID*               7828               08.8427816990E-01-9.573354528E-01+
*       -6.411262271E-02               0
GRID*               7829               0-5.310046013E-015.7493385777E-01+
*       1.5225335944E+00               0
GRID*               7830               08.5843110316E-017.2351242473E-01+
*       -2.293979461E-01               0
GRID*               7831               08.5843108759E-017.2351247564E-01+
*       -1.877312776E-01               0
GRID*               7832               08.5841980750E-017.6216507729E-01+
*       -2.293979461E-01               0
GRID*               7833               06.7521445416E-013.1282163939E-01+
*       4.2041497362E-02               0
GRID*               7834               06.2650241664E-01-4.567496538E-01+
*       3.5666362785E-01               0
GRID*               7835               06.2365647517E-01-4.217274930E-01+
*       3.5019407895E-01               0
GRID*               7836               0-6.557683192E-014.9145003567E-01+
*       1.5792867408E+00               0
GRID*               7837               0-6.538908209E-014.1154484938E-01+
*       1.5168842965E+00               0
GRID*               7838               0-7.188373178E-01-4.752906351E-02+
*       3.4579014300E-01               0
GRID*               7839               0-7.188373178E-016.5504797882E-03+
*       3.4579014218E-01               0
GRID*               7840               0-7.185793446E-015.2586168516E-01+
*       1.5671900053E+00               0
GRID*               7841               0-7.188685260E-014.9135120052E-01+
*       1.5813322209E+00               0
GRID*               7842               0-6.874478706E-015.1721312523E-01+
*       1.5324972244E+00               0
GRID*               7843               0-6.563685808E-015.2301120455E-01+
*       1.5614391820E+00               0
GRID*               7844               0-4.382701981E-013.0082990961E-01+
*       -6.421658882E-02               0
GRID*               7845               0-5.561887235E-015.7395791586E-01+
*       1.4565964529E+00               0
GRID*               7846               0-5.309914628E-016.3436077425E-01+
*       1.4780562512E+00               0
GRID*               7847               07.0821756826E-011.9451437841E-01+
*       -1.932817514E-01               0
GRID*               7848               07.1924071043E-011.0407734265E-01+
*       3.5895803795E-01               0
GRID*               7849               07.1924071043E-011.5596630407E-01+
*       3.7419379953E-01               0
GRID*               7850               06.2730301663E-01-2.902252485E-01+
*       2.3370326418E-01               0
GRID*               7851               05.6338607867E-01-3.081448971E-01+
*       2.0326573997E-01               0
GRID*               7852               06.2578343260E-01-3.089002547E-01+
*       1.9788901178E-01               0
GRID*               7853               0-5.934082909E-01-1.250803509E-01+
*       1.1325311272E+00               0
GRID*               7854               0-6.559434842E-01-4.322012628E-02+
*       1.2244557937E+00               0
GRID*               7855               0-6.548271642E-01-7.715622497E-02+
*       1.2241464315E+00               0
GRID*               7856               0-5.935258402E-01-1.916689662E-02+
*       1.2237304765E+00               0
GRID*               7857               0-6.510475737E-013.6880550376E-01+
*       3.8554523069E-01               0
GRID*               7858               0-6.266548683E-012.8113610654E-01+
*       3.9268371593E-01               0
GRID*               7859               0-5.961686377E-012.0967321673E-01+
*       4.0279421889E-01               0
GRID*               7860               01.1357428384E+00-7.960433122E-01+
*       -2.284312570E-01               0
GRID*               7861               01.0314935258E+00-5.547961898E-01+
*       -8.167063818E-02               0
GRID*               7862               09.4427200070E-01-5.604309518E-01+
*       -7.169436102E-02               0
GRID*               7863               0-7.179870000E-012.5937735612E-01+
*       3.3669312642E-01               0
GRID*               7864               05.3179403598E-016.4397536443E-02+
*       3.4698092114E-01               0
GRID*               7865               05.9429533093E-016.4392470791E-02+
*       3.4698042769E-01               0
GRID*               7866               05.3209595554E-013.3096800747E-02+
*       3.4636801816E-01               0
GRID*               7867               05.6388999152E-014.3414799574E-02+
*       3.1948015761E-01               0
GRID*               7868               05.9459725049E-013.3091735095E-02+
*       3.4636752471E-01               0
GRID*               7869               0-5.929514564E-01-7.830322059E-01+
*       1.3238428421E+00               0
GRID*               7870               0-7.180636142E-01-7.908506921E-01+
*       1.3174070217E+00               0
GRID*               7871               0-1.105339109E+00-4.007781519E-01+
*       -5.612819646E-02               0
GRID*               7872               0-1.138281826E+00-4.763751130E-01+
*       -8.748225715E-02               0
GRID*               7873               0-1.165137956E+00-4.606543165E-01+
*       -3.135406069E-02               0
GRID*               7874               0-1.163624613E+00-4.238410606E-01+
*       -3.050106933E-02               0
GRID*               7875               0-1.136768483E+00-4.395618572E-01+
*       -8.662926579E-02               0
GRID*               7876               0-1.193529350E+00-4.233326863E-01+
*       -6.185513002E-02               0
GRID*               7877               0-1.217719127E+00-3.482422394E-01+
*       -3.075939989E-02               0
GRID*               7878               0-1.157297757E+00-3.104105570E-01+
*       -3.075939989E-02               0
GRID*               7879               0-1.160335736E+00-3.865158925E-01+
*       -3.075939989E-02               0
GRID*               7880               0-1.117071032E+008.6514176653E-01+
*       -1.141286971E-01               0
GRID*               7881               0-1.137991295E+009.0181007099E-01+
*       -1.460304283E-01               0
GRID*               7882               0-1.117071299E+008.6514154926E-01+
*       -1.557953290E-01               0
GRID*               7883               0-1.128552389E+008.1378953284E-01+
*       -2.066514882E-02               0
GRID*               7884               0-1.105867048E+008.4502887848E-01+
*       -6.233170630E-02               0
GRID*               7885               0-1.128552406E+008.1378948259E-01+
*       -6.233181730E-02               0
GRID*               7886               0-1.230846989E+007.9737916403E-01+
*       -3.027856349E-02               0
GRID*               7887               0-1.193480953E+007.3936506844E-01+
*       -3.027856349E-02               0
GRID*               7888               0-1.230846989E+007.2045608711E-01+
*       -3.027856349E-02               0
GRID*               7889               0-1.218536107E+006.5779926464E-01+
*       -8.443567476E-02               0
GRID*               7890               0-1.218536107E+007.3154524188E-01+
*       -8.443567476E-02               0
GRID*               7891               0-1.133190224E+007.7444647572E-01+
*       -2.069550918E-02               0
GRID*               7892               0-1.133190242E+007.7444642547E-01+
*       -6.236217766E-02               0
GRID*               7893               0-1.133178954E+007.3579383669E-01+
*       -2.069550918E-02               0
GRID*               7894               0-1.217044523E+00-8.466761948E-01+
*       -1.992842053E-01               0
GRID*               7895               0-1.184184280E+00-8.329307545E-01+
*       -1.775797862E-01               0
GRID*               7896               0-1.235719088E+00-8.121600730E-01+
*       -2.277029723E-01               0
GRID*               7897               0-1.202763611E+00-8.126824216E-01+
*       -1.769871776E-01               0
GRID*               7898               0-1.202858845E+00-7.984146327E-01+
*       -2.059985532E-01               0
GRID*               7899               0-1.202107410E+00-9.735539970E-01+
*       -3.061056595E-02               0
GRID*               7900               0-1.154419635E+00-9.735539970E-01+
*       -9.326554600E-02               0
GRID*               7901               0-1.176764769E+00-9.489567261E-01+
*       -9.390161311E-02               0
GRID*               7902               08.4258512850E-017.0775884240E-01+
*       -2.079313928E-01               0
GRID*               7903               07.9496893803E-017.3498503040E-01+
*       -1.756826638E-01               0
GRID*               7904               06.8745902642E-019.3468882597E-01+
*       2.5717246036E-01               0
GRID*               7905               06.7037122834E-018.6611422505E-01+
*       2.6990959061E-01               0
GRID*               7906               0-1.118774076E+00-9.735539970E-01+
*       -3.061056595E-02               0
GRID*               7907               0-1.233609769E+00-7.116431099E-01+
*       -3.167450909E-02               0
GRID*               7908               0-1.200831026E+00-7.164116904E-01+
*       -3.167450909E-02               0
GRID*               7909               0-1.233609769E+00-7.885661868E-01+
*       -3.167450909E-02               0
GRID*               7910               01.6015482748E-018.4891195179E-01+
*       -7.126533879E-02               0
GRID*               7911               01.1256737959E+005.7378679587E-01+
*       -1.426544771E-01               0
GRID*               7912               0-1.013791049E+008.8640514694E-01+
*       -1.874573270E-01               0
GRID*               7913               0-9.835443964E-018.9453236827E-01+
*       -2.082368625E-01               0
GRID*               7914               0-1.013791049E+008.8640514694E-01+
*       -2.291239936E-01               0
GRID*               7915               01.2341276763E+007.8924439490E-01+
*       -3.095449082E-02               0
GRID*               7916               01.2021028027E+007.7340746275E-01+
*       -5.279665695E-02               0
GRID*               7917               0-1.221528849E+008.7515984426E-01+
*       -2.188149379E-01               0
GRID*               7918               09.4847825910E-018.9906622068E-01+
*       -9.383483285E-02               0
GRID*               7919               09.3882479577E-019.1622270408E-01+
*       -7.379619484E-02               0
GRID*               7920               09.5886067303E-018.7901671711E-01+
*       -1.869589743E-01               0
GRID*               7921               09.5886067303E-018.7901671711E-01+
*       -2.286256409E-01               0
GRID*               7922               09.2210323764E-018.6706482260E-01+
*       -1.869588303E-01               0
GRID*               7923               01.0333376460E+00-8.811356742E-01+
*       -2.285589679E-01               0
GRID*               7924               09.2124105762E-019.7874777613E-01+
*       -2.202540564E-01               0
GRID*               7925               08.9779939646E-019.3645397289E-01+
*       -2.202540564E-01               0
GRID*               7926               09.2395586715E-019.5753506117E-01+
*       -1.894320797E-01               0
GRID*               7927               0-5.310998874E-019.6822321300E-01+
*       7.0166380021E-02               0
GRID*               7928               09.4728100413E-019.4656625103E-01+
*       -1.692063111E-01               0
GRID*               7929               09.8065598599E-019.1628728504E-01+
*       -1.775113566E-01               0
GRID*               7930               09.7764747754E-018.8528844980E-01+
*       -1.870567828E-01               0
GRID*               7931               09.4427249568E-019.1556741579E-01+
*       -1.787517373E-01               0
GRID*               7932               09.5830346353E-019.2657573485E-01+
*       -1.979014727E-01               0
GRID*               7933               01.0297525325E+006.1238686251E-01+
*       -2.293253589E-01               0
GRID*               7934               01.1373030109E+007.0777079563E-01+
*       -2.210231816E-02               0
GRID*               7935               01.1248254471E+006.8337059060E-01+
*       -2.028553353E-02               0
GRID*               7936               0-1.233636613E+007.8888644961E-01+
*       -2.186761686E-01               0
GRID*               7937               0-1.151348632E+007.8197593864E-01+
*       -1.149997850E-01               0
GRID*               7938               0-8.316859624E-017.2506780026E-01+
*       -4.177272122E-02               0
GRID*               7939               0-9.626532931E-01-6.140208408E-01+
*       -2.284023772E-01               0
GRID*               7940               0-9.259354765E-01-6.259441489E-01+
*       -1.867360067E-01               0
GRID*               7941               0-9.259376930E-01-6.259425174E-01+
*       -2.284023772E-01               0
GRID*               7942               01.1502575421E+00-6.873729333E-01+
*       -1.157004318E-01               0
GRID*               7943               01.2344460137E+00-7.122577212E-01+
*       -2.183267211E-02               0
GRID*               7944               01.2031050474E+00-7.729326096E-01+
*       -4.298811112E-02               0
GRID*               7945               01.1970825227E+00-7.311675646E-01+
*       -2.183267211E-02               0
GRID*               7946               01.1357701248E+00-7.479612409E-01+
*       -2.297341166E-01               0
GRID*               7947               01.1357588285E+00-7.093578029E-01+
*       -2.297341166E-01               0
GRID*               7948               0-1.225550626E+00-6.552440686E-01+
*       -2.202884812E-01               0
GRID*               7949               0-1.176561989E+00-6.216632107E-01+
*       -2.202884812E-01               0
GRID*               7950               0-1.225550626E+00-5.783209917E-01+
*       -2.202884812E-01               0
GRID*               7951               0-1.031884398E+00-6.148758105E-01+
*       -1.875791188E-01               0
GRID*               7952               0-1.170087398E+00-5.517471295E-01+
*       -2.202884812E-01               0
GRID*               7953               0-1.223275157E+00-6.485859734E-01+
*       -3.110259182E-02               0
GRID*               7954               01.1349287468E+00-7.764149205E-01+
*       -2.286990683E-01               0
GRID*               7955               01.1349282456E+00-7.764161638E-01+
*       -1.870325572E-01               0
GRID*               7956               01.1285212509E+00-8.488718739E-01+
*       -9.288067616E-02               0
GRID*               7957               01.1233064575E+00-8.066778532E-01+
*       -6.204444566E-02               0
GRID*               7958               01.1006043155E+00-8.379468004E-01+
*       -6.204390895E-02               0
GRID*               7959               01.0956122973E+00-8.874930365E-01+
*       -1.156618086E-01               0
GRID*               7960               06.8102510259E-018.2525872891E-01+
*       9.3561167135E-01               0
GRID*               7961               06.9420996494E-014.5852371049E-01+
*       4.7388856464E-01               0
GRID*               7962               0-1.272668822E-029.7628654935E-01+
*       -3.249968009E-02               0
GRID*               7963               0-6.689005767E-012.0060938472E-01+
*       -7.108930897E-02               0
GRID*               7964               01.1754026433E+00-3.447647820E-01+
*       -1.311249878E-01               0
GRID*               7965               01.1754026433E+00-4.216878589E-01+
*       -1.311249878E-01               0
GRID*               7966               07.1952432214E-01-9.222167605E-01+
*       1.0330464106E+00               0
GRID*               7967               07.1952432214E-01-8.949148670E-01+
*       1.1026106904E+00               0
GRID*               7968               07.1952432214E-01-8.468566984E-01+
*       1.0405537752E+00               0
GRID*               7969               07.1821319727E-01-3.084045211E-02+
*       1.7114730825E+00               0
GRID*               7970               06.3053471595E-01-1.221417950E-01+
*       1.6463171621E+00               0
GRID*               7971               05.3178794829E-01-8.700038934E-01+
*       1.0101334077E+00               0
GRID*               7972               0-1.222521347E+00-4.223806634E-01+
*       -3.135406069E-02               0
GRID*               7973               0-1.221008004E+00-3.855674075E-01+
*       -3.050106933E-02               0
GRID*               7974               07.1798353740E-01-9.604186316E-01+
*       8.5860882345E-01               0
GRID*               7975               07.2653511416E-01-8.877854981E-01+
*       1.1485099400E+00               0
GRID*               7976               06.6717544938E-01-8.199362829E-01+
*       1.0976303870E+00               0
GRID*               7977               07.2653511416E-01-8.397273295E-01+
*       1.0864530248E+00               0
GRID*               7978               07.1985458800E-01-9.501563162E-01+
*       9.2640562023E-01               0
GRID*               7979               06.5735440240E-01-9.425042945E-01+
*       9.6617142793E-01               0
GRID*               7980               07.1985458800E-01-9.335272004E-01+
*       9.9926202051E-01               0
GRID*               7981               0-1.120923063E+00-2.961451126E-01+
*       -9.597878698E-02               0
GRID*               7982               0-1.133479606E+00-4.022366891E-01+
*       -8.688759635E-02               0
GRID*               7983               0-1.165760479E+00-4.386098343E-01+
*       -1.811281965E-01               0
GRID*               7984               0-1.227754212E+00-3.899480505E-01+
*       -2.218891775E-01               0
GRID*               7985               0-1.143514691E+00-4.439425002E-01+
*       -1.530173739E-01               0
GRID*               7986               0-1.163083442E+00-3.698214512E-01+
*       -2.218891775E-01               0
GRID*               7987               06.2814147122E-01-8.156457674E-01+
*       1.1660650686E+00               0
GRID*               7988               06.5990064541E-01-7.869279065E-01+
*       1.1493497403E+00               0
GRID*               7989               05.6564033523E-01-8.331192987E-01+
*       1.1330040224E+00               0
GRID*               7990               0-1.118395704E+00-1.193685019E-01+
*       -2.196177288E-01               0
GRID*               7991               0-1.203508494E+00-5.612822030E-02+
*       -2.178433518E-01               0
GRID*               7992               0-1.203651639E+00-9.237586120E-02+
*       -2.187883549E-01               0
GRID*               7993               0-1.110892844E+00-8.546234939E-02+
*       -2.187883549E-01               0
GRID*               7994               0-1.157160133E+00-7.158100458E-02+
*       -1.866317067E-01               0
GRID*               7995               06.2814053505E-01-8.480716442E-01+
*       1.0987332828E+00               0
GRID*               7996               05.6763047102E-015.0883779156E-01+
*       8.3664266822E-01               0
GRID*               7997               05.2990753971E-01-2.988097702E-01+
*       4.7436948823E-01               0
GRID*               7998               06.0764215969E-01-4.637892849E-02+
*       2.6372196592E-01               0
GRID*               7999               05.9165912063E-01-8.372195009E-02+
*       2.8144432212E-01               0
GRID*               8000               0-1.987851151E-01-3.303811575E-01+
*       -1.247172611E-01               0
GRID*               8001               0-3.002274678E-01-3.887175780E-01+
*       -1.323806585E-01               0
GRID*               8002               07.1926031018E-01-8.547771217E-01+
*       1.2002292933E+00               0
GRID*               8003               0-1.120705670E+00-5.607294821E-01+
*       -1.304712767E-01               0
GRID*               8004               0-1.124636007E+008.1600861725E-01+
*       -1.872692361E-01               0
GRID*               8005               0-1.143109096E+008.2402898126E-01+
*       -2.072035927E-01               0
GRID*               8006               0-1.155765061E+008.4559819209E-01+
*       -1.778234275E-01               0
GRID*               8007               0-1.124635993E+008.1600865524E-01+
*       -2.289359013E-01               0
GRID*               8008               0-1.224382305E+009.4992301178E-01+
*       -3.123613866E-02               0
GRID*               8009               0-1.176137752E+008.9665320162E-01+
*       -3.123613866E-02               0
GRID*               8010               0-1.224382305E+008.7299993486E-01+
*       -3.123613866E-02               0
GRID*               8011               0-1.202117857E+009.7362112415E-01+
*       -3.136238402E-02               0
GRID*               8012               0-1.154430078E+009.7362112415E-01+
*       -9.401736223E-02               0
GRID*               8013               0-1.118784524E+009.7362112415E-01+
*       -3.136238402E-02               0
GRID*               8014               01.3495898142E-01-7.751447756E-01+
*       -1.834474671E-01               0
GRID*               8015               02.2627822204E-01-8.301272690E-01+
*       -1.832289271E-01               0
GRID*               8016               01.9384212486E-01-8.363907269E-01+
*       -1.321039836E-01               0
GRID*               8017               0-8.673944929E-01-7.544807869E-01+
*       -2.081535428E-02               0
GRID*               8018               0-5.619334161E-01-3.015378541E-01+
*       3.1053210702E-01               0
GRID*               8019               05.8369135047E-019.0800578266E-01+
*       5.5074512412E-01               0
GRID*               8020               03.5165070587E-01-5.927982871E-01+
*       -1.296435230E-01               0
GRID*               8021               0-1.848247698E-01-9.674434262E-01+
*       -2.175021560E-01               0
GRID*               8022               05.0910221315E-01-9.220223905E-01+
*       -5.549730105E-02               0
GRID*               8023               01.9188833233E-01-5.092681435E-01+
*       -1.259179069E-01               0
GRID*               8024               0-5.747403948E-03-8.925050495E-01+
*       -7.387505651E-02               0
GRID*               8025               01.3149264269E-02-9.757273967E-01+
*       -3.224764085E-02               0
GRID*               8026               0-5.827930716E-02-9.757273967E-01+
*       -3.224764085E-02               0
GRID*               8027               0-3.961589898E-01-9.001559953E-01+
*       -1.446362821E-01               0
GRID*               8028               02.5124579110E-01-8.530460487E-01+
*       -9.042779296E-02               0
GRID*               8029               0-1.113493971E+008.3168055102E-01+
*       -1.872470818E-01               0
GRID*               8030               0-1.144623026E+008.6127012587E-01+
*       -1.778012733E-01               0
GRID*               8031               0-1.102843162E+009.3602862862E-01+
*       -2.200018208E-01               0
GRID*               8032               01.2223987739E+00-3.480487028E-01+
*       -2.185816497E-01               0
GRID*               8033               01.1684340339E+00-3.141594798E-01+
*       -2.185816497E-01               0
GRID*               8034               01.1478014172E+00-3.466596386E-01+
*       -1.622066375E-01               0
GRID*               8035               0-5.312802798E-01-3.148087381E-02+
*       1.7104539543E+00               0
GRID*               8036               0-5.310612180E-01-6.886220985E-02+
*       1.7082480501E+00               0
GRID*               8037               01.2166584879E+00-5.055735024E-01+
*       -3.201670882E-02               0
GRID*               8038               01.1785128804E+00-2.607162650E-01+
*       -1.193713777E-01               0
GRID*               8039               01.1785128804E+00-1.837931881E-01+
*       -1.193713777E-01               0
GRID*               8040               0-8.319425564E-01-8.508893919E-01+
*       -1.780111432E-01               0
GRID*               8041               0-8.048969429E-01-8.761887054E-01+
*       -1.519625810E-01               0
GRID*               8042               01.0151364764E+00-6.150845519E-01+
*       -6.250792692E-02               0
GRID*               8043               01.0535061331E+00-5.660629110E-01+
*       -8.086976129E-02               0
GRID*               8044               01.0082603454E+00-5.939023826E-01+
*       -4.248339740E-02               0
GRID*               8045               0-4.787250218E-02-6.030487498E-01+
*       -5.643310787E-02               0
GRID*               8046               01.2223987739E+00-2.711256259E-01+
*       -2.185816497E-01               0
GRID*               8047               0-4.308951136E-018.4615094701E-03+
*       -1.803122412E-01               0
GRID*               8048               01.0531802646E+00-1.455245823E-01+
*       -5.687137771E-02               0
GRID*               8049               01.1455932016E-01-3.640539435E-01+
*       -1.229474796E-01               0
GRID*               8050               06.5622366802E-014.0537334956E-01+
*       7.7029227992E-01               0
GRID*               8051               06.5622285093E-013.9767538580E-01+
*       8.2382433756E-01               0
GRID*               8052               07.1872366802E-013.9767632783E-01+
*       8.2382125727E-01               0
GRID*               8053               0-7.204087874E-019.3260208787E-01+
*       9.9980046610E-01               0
GRID*               8054               0-7.204087874E-019.4923120371E-01+
*       9.2694406582E-01               0
GRID*               8055               05.6763047102E-014.8986705932E-01+
*       8.9999215237E-01               0
GRID*               8056               05.6376811277E-014.4256338115E-01+
*       1.0075961525E+00               0
GRID*               8057               01.0702591090E+00-6.331343101E-01+
*       -2.121219359E-02               0
GRID*               8058               01.0939630203E+00-6.435672824E-01+
*       -2.260785190E-02               0
GRID*               8059               0-5.940368685E-018.3564519770E-01+
*       1.0529368879E+00               0
GRID*               8060               0-6.555152014E-018.2838478324E-01+
*       1.0516554750E+00               0
GRID*               8061               0-7.179314051E-019.2156723013E-01+
*       1.0324093852E+00               0
GRID*               8062               0-6.554316050E-019.0921768209E-01+
*       1.0677029255E+00               0
GRID*               8063               0-6.851296485E-01-3.612095285E-01+
*       3.6580563833E-01               0
GRID*               8064               0-6.830605738E-014.6566161216E-01+
*       3.5764871705E-01               0
GRID*               8065               0-6.830605738E-013.9605661859E-01+
*       3.4659356566E-01               0
GRID*               8066               0-6.830605738E-014.5242937574E-01+
*       2.7573762078E-01               0
GRID*               8067               0-5.935488826E-013.9834489769E-01+
*       8.2303082166E-01               0
GRID*               8068               0-5.600903932E-01-4.111459800E-01+
*       1.0737937810E+00               0
GRID*               8069               0-5.867566272E-01-8.468783951E-01+
*       -1.853740470E-02               0
GRID*               8070               0-7.718864055E-01-8.957194099E-01+
*       -3.616145217E-02               0
GRID*               8071               0-7.857457265E-01-8.879332449E-01+
*       -1.104740479E-01               0
GRID*               8072               0-7.691019928E-01-9.341261559E-01+
*       -7.295943360E-02               0
GRID*               8073               02.9983093852E-01-8.312227795E-01+
*       -1.832289271E-01               0
GRID*               8074               06.5563325369E-01-3.822789433E-01+
*       3.9724690630E-01               0
GRID*               8075               0-8.432426257E-01-7.844865188E-01+
*       -2.079949787E-02               0
GRID*               8076               0-7.174538251E-01-8.965174328E-01+
*       1.2500654919E-01               0
GRID*               8077               0-7.668237712E-01-9.697820097E-01+
*       -1.739362819E-01               0
GRID*               8078               0-7.862734083E-01-8.850727678E-01+
*       -1.743564005E-01               0
GRID*               8079               0-7.582690048E-01-9.152907581E-01+
*       -1.482050729E-01               0
GRID*               8080               0-7.374313240E-01-9.711410146E-01+
*       -1.739020029E-01               0
GRID*               8081               0-7.654357275E-01-9.409230242E-01+
*       -2.000533306E-01               0
GRID*               8082               0-7.568809611E-01-8.864317726E-01+
*       -1.743221215E-01               0
GRID*               8083               01.4869628730E-011.0620406573E-01+
*       -6.360223909E-02               0
GRID*               8084               0-5.300054936E-011.2234274396E-01+
*       1.7066727004E+00               0
GRID*               8085               0-5.925046317E-011.5950138623E-01+
*       1.7024858454E+00               0
GRID*               8086               0-5.300054936E-011.9623816057E-01+
*       1.6955349065E+00               0
GRID*               8087               06.0082426180E-016.8054847266E-03+
*       -1.815489196E-01               0
GRID*               8088               01.4887917559E-012.9550660174E-02+
*       -6.360223909E-02               0
GRID*               8089               08.4240382956E-015.4673032816E-01+
*       -5.526622463E-02               0
GRID*               8090               05.6340166363E-013.3620955649E-01+
*       3.1429230081E-01               0
GRID*               8091               06.2820210814E-013.4863678333E-01+
*       2.5284141623E-01               0
GRID*               8092               06.3261162858E-013.8166378478E-01+
*       3.6281085004E-01               0
GRID*               8093               08.8956091453E-015.8284153411E-01+
*       -6.584134493E-02               0
GRID*               8094               04.3560690241E-025.4287866973E-03+
*       -5.350092964E-02               0
GRID*               8095               0-5.884988908E-011.3616502817E-01+
*       1.6023008259E+00               0
GRID*               8096               0-5.932297714E-011.1783781568E-01+
*       1.7042307717E+00               0
GRID*               8097               0-5.892240305E-019.4501457611E-02+
*       1.6040457521E+00               0
GRID*               8098               0-5.607361271E-011.2829185246E-01+
*       1.6678869908E+00               0
GRID*               8099               08.0306111860E-019.7356119501E-01+
*       -3.130181274E-02               0
GRID*               8100               08.4426873530E-019.1172594708E-01+
*       -9.725575522E-02               0
GRID*               8101               08.6064665210E-019.7356119501E-01+
*       -9.627257787E-02               0
GRID*               8102               08.3718687680E-018.6995316572E-01+
*       -1.909539425E-01               0
GRID*               8103               05.1068678227E-017.4582813312E-01+
*       -7.228301214E-02               0
GRID*               8104               04.5083991504E-017.8234190904E-01+
*       -7.228301214E-02               0
GRID*               8105               02.1713620559E-018.9820672910E-01+
*       -2.203848136E-01               0
GRID*               8106               04.4992826381E-017.7014635938E-01+
*       -1.339610945E-01               0
GRID*               8107               0-5.630619803E-011.8369966634E-01+
*       3.5734907124E-01               0
GRID*               8108               0-5.998174680E-011.7337452300E-01+
*       2.8928932387E-01               0
GRID*               8109               0-1.017935560E+005.3031026484E-01+
*       -7.949062496E-02               0
GRID*               8110               0-3.983275246E-039.0170484873E-01+
*       -2.188535873E-01               0
GRID*               8111               0-4.937161910E-029.0870182185E-01+
*       -1.542214434E-01               0
GRID*               8112               02.9543637165E-028.8638891362E-01+
*       -1.651189261E-01               0
GRID*               8113               0-1.093195126E+006.4213246464E-01+
*       -2.234438396E-02               0
GRID*               8114               0-1.134016376E+00-7.374238409E-01+
*       -2.299679420E-01               0
GRID*               8115               0-1.134005099E+00-7.760764799E-01+
*       -2.299679420E-01               0
GRID*               8116               0-1.134005117E+00-7.760764290E-01+
*       -1.883012735E-01               0
GRID*               8117               0-1.014524683E+00-9.240102889E-01+
*       -1.998314075E-01               0
GRID*               8118               0-1.000772639E+00-9.240059412E-01+
*       -2.279348753E-01               0
GRID*               8119               08.6491415018E-019.0024436546E-01+
*       -1.400924602E-01               0
GRID*               8120               09.1194909808E-018.8762771887E-01+
*       -1.574717070E-01               0
GRID*               8121               08.7506828973E-018.7968146918E-01+
*       -1.695795834E-01               0
GRID*               8122               09.0756720652E-019.0359633050E-01+
*       -1.777641586E-01               0
GRID*               8123               0-1.116132064E+00-8.311471125E-01+
*       -2.205290126E-02               0
GRID*               8124               01.7829582156E-01-9.696864722E-01+
*       -2.980230843E-02               0
GRID*               8125               01.2175582723E+00-2.695577859E-01+
*       -3.134065940E-02               0
GRID*               8126               01.2190980476E+003.8393100427E-02+
*       -3.112669492E-02               0
GRID*               8127               01.1566671621E+00-1.679541765E-04+
*       -3.112669492E-02               0
GRID*               8128               01.1661881000E+003.8202570289E-02+
*       -9.451030544E-02               0
GRID*               8129               06.5596343195E-019.4072161118E-01+
*       9.6997196663E-01               0
GRID*               8130               06.6093304162E-018.3509154612E-01+
*       1.0218508655E+00               0
GRID*               8131               06.4948834894E-018.5494219996E-01+
*       9.4414858247E-01               0
GRID*               8132               01.0655842940E+009.7024607342E-01+
*       -2.142733402E-02               0
GRID*               8133               01.1012298531E+009.7024607342E-01+
*       -8.408231408E-02               0
GRID*               8134               01.1489176274E+009.7024607342E-01+
*       -2.142733402E-02               0
GRID*               8135               01.1135971802E+004.8800688448E-01+
*       -6.914114778E-02               0
GRID*               8136               01.1777879068E+004.2141491052E-01+
*       -8.193048401E-02               0
GRID*               8137               01.1420728179E+004.8746090057E-01+
*       -1.002512126E-01               0
GRID*               8138               05.9225195988E-019.7127164112E-01+
*       2.6750111602E-01               0
GRID*               8139               05.6256196326E-019.3300108630E-01+
*       2.7124920633E-01               0
GRID*               8140               05.8933688012E-018.9993908764E-01+
*       3.6407089934E-01               0
GRID*               8141               09.1275191522E-016.2808592203E-01+
*       -2.286636451E-01               0
GRID*               8142               05.3221859137E-013.7468779143E-01+
*       5.9878640821E-01               0
GRID*               8143               05.9471940847E-013.7468684940E-01+
*       5.9878332793E-01               0
GRID*               8144               05.9471835347E-013.5222335285E-01+
*       5.4959447753E-01               0
GRID*               8145               05.5735328548E-019.0430259620E-01+
*       -2.176137032E-01               0
GRID*               8146               05.1971200565E-018.6738257574E-01+
*       -1.648967153E-01               0
GRID*               8147               05.5791452672E-019.3572806463E-01+
*       -1.799081725E-01               0
GRID*               8148               01.6919673395E-019.4092956192E-01+
*       -1.939923625E-01               0
GRID*               8149               09.2210433020E-018.6706571444E-01+
*       -2.286256409E-01               0
GRID*               8150               01.0584155329E+008.8773660210E-01+
*       -1.558910438E-01               0
GRID*               8151               01.0769116275E+009.2439216934E-01+
*       -1.450757703E-01               0
GRID*               8152               01.0544197946E+009.0775949175E-01+
*       -1.748148752E-01               0
GRID*               8153               0-2.569143643E-019.7126574121E-01+
*       -2.182993176E-01               0
GRID*               8154               0-3.304437761E-019.7126574121E-01+
*       -2.182993176E-01               0
GRID*               8155               0-2.956196894E-019.1063393783E-01+
*       -2.182993176E-01               0
GRID*               8156               01.1065750451E+008.4545211580E-01+
*       -6.283980458E-02               0
GRID*               8157               03.9191658363E-019.3269551683E-01+
*       -1.112081184E-01               0
GRID*               8158               03.1770774381E-019.3269551683E-01+
*       -1.141573907E-01               0
GRID*               8159               01.1289242261E+008.4822983044E-01+
*       -9.347547130E-02               0
GRID*               8160               01.1516492396E+008.1697031807E-01+
*       -9.347559504E-02               0
GRID*               8161               01.2243838356E+009.5058030410E-01+
*       -3.128469784E-02               0
GRID*               8162               01.2243838356E+008.7365722718E-01+
*       -3.128469784E-02               0
GRID*               8163               01.1761295513E+008.9732044702E-01+
*       -3.128469784E-02               0
GRID*               8164               0-3.330584321E-019.0876387345E-01+
*       -2.166220795E-01               0
GRID*               8165               0-4.038677417E-018.5541687183E-01+
*       -1.655491854E-01               0
GRID*               8166               0-3.511881617E-019.1299467099E-01+
*       -1.533523096E-01               0
GRID*               8167               0-5.302407811E-013.9430845201E-01+
*       8.4984382526E-01               0
GRID*               8168               02.2615609425E-01-8.617170692E-01+
*       -1.519215904E-01               0
GRID*               8169               01.1698362401E+007.1952127780E-01+
*       -7.453706522E-02               0
GRID*               8170               01.1686205073E+006.8403923985E-01+
*       -7.406313898E-02               0
GRID*               8171               02.6775333568E-018.0120440574E-01+
*       -6.521550262E-02               0
GRID*               8172               09.1132967633E-028.9498002763E-01+
*       -1.022883492E-01               0
GRID*               8173               01.1505465214E+007.8232036982E-01+
*       -9.418146875E-02               0
GRID*               8174               01.1505578187E+007.4371442270E-01+
*       -1.358484493E-01               0
GRID*               8175               01.1505462536E+007.8232104086E-01+
*       -1.358480531E-01               0
GRID*               8176               06.5570292545E-012.2455166844E-01+
*       1.1824943519E+00               0
GRID*               8177               01.6711441192E-019.7575458844E-01+
*       -3.102301036E-02               0
GRID*               8178               06.0139845447E-01-7.420613856E-01+
*       1.2287414098E+00               0
GRID*               8179               05.6255406610E-01-7.764498587E-01+
*       1.2906766152E+00               0
GRID*               8180               05.3202850341E-01-7.911839964E-01+
*       1.3176829682E+00               0
GRID*               8181               05.3052556269E-01-8.115046467E-01+
*       1.2863137123E+00               0
GRID*               8182               0-7.178512880E-011.0582018251E-01+
*       1.7075418166E+00               0
GRID*               8183               06.8937891014E-01-9.001716599E-01+
*       9.8755341547E-01               0
GRID*               8184               05.3077483447E-01-8.910820462E-01+
*       1.1353846155E+00               0
GRID*               8185               07.1753470670E-013.0561159560E-01+
*       1.6638234809E+00               0
GRID*               8186               07.1881191081E-013.4634248745E-01+
*       1.6498917518E+00               0
GRID*               8187               06.8634661751E-012.8661307990E-01+
*       1.6328415233E+00               0
GRID*               8188               06.5631228072E-013.1105056264E-01+
*       1.6622406972E+00               0
GRID*               8189               0-5.306549644E-013.1574751606E-01+
*       4.9505162160E-01               0
GRID*               8190               0-5.313317748E-013.3586450265E-01+
*       5.1607911229E-01               0
GRID*               8191               0-5.938320127E-013.3586493426E-01+
*       5.1607992490E-01               0
GRID*               8192               0-5.320585652E-013.5751189420E-01+
*       5.4367300269E-01               0
GRID*               8193               0-5.945588031E-013.5751232581E-01+
*       5.4367381531E-01               0
GRID*               8194               05.9162943237E-013.3029347341E-01+
*       1.5754001056E+00               0
GRID*               8195               06.2301894384E-013.7290399245E-01+
*       1.5971587260E+00               0
GRID*               8196               05.3179403598E-011.1628649787E-01+
*       3.6221668272E-01               0
GRID*               8197               05.3368407774E-016.7178801984E-01+
*       1.4503390778E+00               0
GRID*               8198               05.3189446343E-011.7969013844E-01+
*       1.6967513558E+00               0
GRID*               8199               05.3064139132E-012.1515052809E-01+
*       1.6869405083E+00               0
GRID*               8200               05.6253585476E-011.7231976840E-01+
*       1.6587641156E+00               0
GRID*               8201               05.3064139132E-011.6623672211E-01+
*       1.6204571964E+00               0
GRID*               8202               06.5759902645E-012.4749264059E-01+
*       1.1682261125E+00               0
GRID*               8203               06.5751850576E-012.4907158539E-01+
*       1.0695614315E+00               0
GRID*               8204               06.5492730678E-012.7377536728E-01+
*       1.1486431924E+00               0
GRID*               8205               06.8736821515E-012.7558851703E-01+
*       1.0823487698E+00               0
GRID*               8206               07.2001996741E-012.4907603894E-01+
*       1.0695577844E+00               0
GRID*               8207               07.2001996741E-012.0358162839E-01+
*       1.0987956920E+00               0
GRID*               8208               05.3132660978E-012.2476976444E-01+
*       1.0843683085E+00               0
GRID*               8209               05.3132660978E-011.7927535389E-01+
*       1.1136062162E+00               0
GRID*               8210               07.1941687615E-013.2832163123E-01+
*       9.8770061865E-01               0
GRID*               8211               06.5691711404E-013.2832206286E-01+
*       9.8769980603E-01               0
GRID*               8212               07.1941687615E-012.9290667246E-01+
*       1.0285708392E+00               0
GRID*               8213               0-5.944163539E-014.2772656729E-01+
*       5.4911084339E-01               0
GRID*               8214               0-6.611911499E-013.5607194239E-01+
*       5.3117583245E-01               0
GRID*               8215               0-6.610487006E-014.2628618386E-01+
*       5.3661286053E-01               0
GRID*               8216               05.3253951977E-01-2.341928360E-01+
*       1.6857834799E+00               0
GRID*               8217               0-5.310468132E-018.4856506457E-01+
*       1.1870530565E+00               0
GRID*               8218               0-5.317262328E-018.4970217919E-01+
*       1.2229145396E+00               0
GRID*               8219               0-5.627730460E-017.9729872978E-01+
*       1.2260840207E+00               0
GRID*               8220               06.9303557793E-01-1.808332939E-01+
*       1.5581462614E+00               0
GRID*               8221               05.6411014434E-014.3070872311E-01+
*       7.6000915571E-01               0
GRID*               8222               05.3050081651E-01-4.475097858E-01+
*       8.7134945751E-01               0
GRID*               8223               05.7087254986E-015.8228607805E-01+
*       1.3939277533E+00               0
GRID*               8224               05.9659631441E-01-2.309281313E-01+
*       4.1660157210E-01               0
GRID*               8225               05.3218665096E-017.3816270430E-01+
*       1.3799486506E+00               0
GRID*               8226               06.6399569420E-016.0378560148E-01+
*       1.3960155727E+00               0
GRID*               8227               06.6537392589E-016.3318299962E-01+
*       1.3747727982E+00               0
GRID*               8228               0-5.311250151E-01-2.166630972E-01+
*       1.6881210660E+00               0
GRID*               8229               05.6206220801E-014.9503129797E-01+
*       6.1156566279E-01               0
GRID*               8230               06.3009672380E-015.4150692279E-01+
*       1.4428617443E-01               0
GRID*               8231               0-5.311330671E-014.0283024242E-01+
*       7.1014669550E-01               0
GRID*               8232               06.6081995997E-014.2092407091E-01+
*       4.7304200635E-01               0
GRID*               8233               06.2382858640E-013.9020926878E-01+
*       5.4872943512E-01               0
GRID*               8234               06.0142855632E-014.1548443323E-01+
*       4.7894334236E-01               0
GRID*               8235               06.3512393215E-015.9881047300E-01+
*       2.8832558560E-01               0
GRID*               8236               05.6746979527E-017.5733839977E-01+
*       1.1342021632E+00               0
GRID*               8237               05.3127536448E-018.5465404421E-01+
*       1.2003049913E+00               0
GRID*               8238               05.3127536448E-017.8037500750E-01+
*       1.2013995528E+00               0
GRID*               8239               05.9874515975E-017.8530296672E-01+
*       1.1495290178E+00               0
GRID*               8240               0-1.158015215E+009.1214180890E-01+
*       -8.289108548E-02               0
GRID*               8241               0-1.136139474E+008.7547133440E-01+
*       -7.290269614E-02               0
GRID*               8242               0-1.156444937E+008.8580342856E-01+
*       -5.279377347E-02               0
GRID*               8243               05.3127536448E-018.1728917938E-01+
*       1.2650232363E+00               0
GRID*               8244               08.7070713201E-018.9587094883E-01+
*       -1.909539425E-01               0
GRID*               8245               08.4771164586E-019.7874777613E-01+
*       -2.202540564E-01               0
GRID*               8246               08.5950749785E-019.1691252821E-01+
*       -1.612079989E-01               0
GRID*               8247               09.3427608459E-018.7275723402E-01+
*       -6.272819799E-02               0
GRID*               8248               09.1951151200E-019.0877513194E-01+
*       -7.322980671E-02               0
GRID*               8249               09.1486748389E-018.8501855897E-01+
*       -4.281653273E-02               0
GRID*               8250               01.0020415290E+009.0598234614E-01+
*       -1.148539891E-01               0
GRID*               8251               09.6866654710E-019.3626131212E-01+
*       -1.482156102E-01               0
GRID*               8252               05.3056005759E-019.6097173327E-01+
*       1.8015407949E-02               0
GRID*               8253               05.3056005759E-019.0740298853E-01+
*       6.8136809516E-02               0
GRID*               8254               04.5956451235E-019.7296080241E-01+
*       -2.830680668E-02               0
GRID*               8255               04.5956451235E-018.9603772549E-01+
*       -2.830680668E-02               0
GRID*               8256               07.1831319161E-019.6634237869E-01+
*       2.5885449880E-01               0
GRID*               8257               07.1831319161E-019.6634237869E-01+
*       1.8385449880E-01               0
GRID*               8258               07.0065302768E-018.8424128324E-01+
*       -1.046104564E-01               0
GRID*               8259               0-2.212769034E-01-9.668156254E-01+
*       -2.179790547E-01               0
GRID*               8260               0-6.232960574E-013.9408213593E-01+
*       1.9873647574E-01               0
GRID*               8261               0-5.612656375E-013.3780189752E-01+
*       2.3129595063E-01               0
GRID*               8262               02.7592940784E-01-8.099341603E-01+
*       -5.822892708E-02               0
GRID*               8263               07.1914583481E-019.6834644728E-01+
*       2.9831796156E-01               0
GRID*               8264               01.8428911384E-01-9.656695916E-01+
*       -2.186926634E-01               0
GRID*               8265               01.0686725013E-01-9.696864722E-01+
*       -2.980230843E-02               0
GRID*               8266               07.1828252363E-017.9098091655E-01+
*       1.3178986929E+00               0
GRID*               8267               06.5578138763E-018.1087225005E-01+
*       1.2862414942E+00               0
GRID*               8268               0-1.112953581E-01-9.674434262E-01+
*       -2.175021560E-01               0
GRID*               8269               07.1896510659E-01-2.412939209E-01+
*       4.2000919760E-01               0
GRID*               8270               07.1863172003E-01-2.766193861E-01+
*       4.2491417705E-01               0
GRID*               8271               06.8906815097E-01-4.445752358E-01+
*       1.0060443214E+00               0
GRID*               8272               0-3.119855328E-011.7002831035E-01+
*       -1.875577577E-01               0
GRID*               8273               0-3.220271937E-012.4585589241E-01+
*       -1.229454885E-01               0
GRID*               8274               06.0455662760E-016.1541805078E-01+
*       1.3969416474E+00               0
GRID*               8275               0-9.032501634E-01-6.254715736E-01+
*       -2.068009414E-01               0
GRID*               8276               04.8378292560E-01-9.599326170E-01+
*       -2.994090781E-02               0
GRID*               8277               04.1727032120E-01-9.104353669E-01+
*       -2.994090781E-02               0
GRID*               8278               05.9509216360E-013.8356208976E-01+
*       8.8421660031E-01               0
GRID*               8279               05.9636109347E-014.2526770837E-01+
*       9.8166317204E-01               0
GRID*               8280               06.0022345171E-014.7257138654E-01+
*       8.7405917194E-01               0
GRID*               8281               07.1714179634E-01-3.653258193E-01+
*       5.7476523048E-01               0
GRID*               8282               06.8700153366E-01-4.308247824E-01+
*       4.2611024780E-01               0
GRID*               8283               06.8700153366E-01-4.077280895E-01+
*       3.5685021021E-01               0
GRID*               8284               0-1.865876281E-017.4463473952E-01+
*       -1.222871268E-01               0
GRID*               8285               0-5.769543091E-018.7417450913E-01+
*       -9.991973947E-02               0
GRID*               8286               0-9.958598071E-019.8069817545E-01+
*       -2.194512470E-01               0
GRID*               8287               0-1.069389219E+009.8069817545E-01+
*       -2.194512470E-01               0
GRID*               8288               0-1.047011252E+009.4151775881E-01+
*       -2.194512470E-01               0
GRID*               8289               0-1.038781936E+008.9405643298E-01+
*       -1.570426124E-01               0
GRID*               8290               0-1.032513209E+008.8100127008E-01+
*       -1.864389978E-01               0
GRID*               8291               0-1.034537709E+009.1200959770E-01+
*       -1.768150875E-01               0
GRID*               8292               0-1.069269552E+008.6905026729E-01+
*       -2.281056644E-01               0
GRID*               8293               08.5846379671E-017.8231679300E-01+
*       -2.283648604E-01               0
GRID*               8294               08.7194778088E-018.0759161117E-01+
*       -2.288290796E-01               0
GRID*               8295               08.4929663336E-018.0129043876E-01+
*       -2.071939400E-01               0
GRID*               8296               08.7194777030E-018.0759157343E-01+
*       -1.871624143E-01               0
GRID*               8297               0-9.859691583E-016.0963225502E-01+
*       -2.284066086E-01               0
GRID*               8298               0-9.083007245E-016.4119560202E-01+
*       -2.285860882E-01               0
GRID*               8299               0-8.855956070E-016.7246811531E-01+
*       -2.285860882E-01               0
GRID*               8300               09.0528200928E-018.5395573056E-01+
*       -2.287423364E-01               0
GRID*               8301               09.0528091672E-018.5395483871E-01+
*       -1.870755258E-01               0
GRID*               8302               09.0089902515E-018.6992345033E-01+
*       -2.073679773E-01               0
GRID*               8303               08.4759792546E-018.5144738054E-01+
*       -1.697830221E-01               0
GRID*               8304               08.9463287337E-018.3883073395E-01+
*       -1.871622689E-01               0
GRID*               8305               01.1452175132E+008.3232810280E-01+
*       -2.299053365E-01               0
GRID*               8306               01.1999583899E+008.0535993995E-01+
*       -2.299053365E-01               0
GRID*               8307               01.2171411839E+008.3244226954E-01+
*       -2.282995890E-01               0
GRID*               8308               01.1624003071E+008.5941043238E-01+
*       -2.282995890E-01               0
GRID*               8309               01.1670995738E+007.9164836334E-01+
*       -2.082049254E-01               0
GRID*               8310               01.1339479099E+007.5605550773E-01+
*       -1.867811119E-01               0
GRID*               8311               01.1343966156E+007.7660405220E-01+
*       -1.882384291E-01               0
GRID*               8312               01.1343973940E+007.7660211457E-01+
*       -2.299053365E-01               0
GRID*               8313               01.1244973297E+008.1603545948E-01+
*       -2.283750496E-01               0
GRID*               8314               01.1244965514E+008.1603739712E-01+
*       -1.867081423E-01               0
GRID*               8315               01.1400167156E+008.0399937866E-01+
*       -2.082803861E-01               0
GRID*               8316               01.1082192880E+006.6511367013E-01+
*       -2.298191799E-01               0
GRID*               8317               01.1743359421E+006.5834802179E-01+
*       -1.992419615E-01               0
GRID*               8318               01.1963731989E+006.6844221967E-01+
*       -1.970008796E-01               0
GRID*               8319               05.9963285005E-012.8240695921E-02+
*       1.2271626015E+00               0
GRID*               8320               05.9679206033E-01-1.817283583E-03+
*       1.2312620539E+00               0
GRID*               8321               05.6416597484E-015.9305374445E-02+
*       1.1746314570E+00               0
GRID*               8322               01.1138054021E+008.3313088353E-01+
*       -2.283329815E-01               0
GRID*               8323               01.1138046237E+008.3313282116E-01+
*       -1.866660742E-01               0
GRID*               8324               01.2351092587E+007.9071665189E-01+
*       -2.288323326E-01               0
GRID*               8325               01.2351092587E+007.4907801375E-01+
*       -1.663323326E-01               0
GRID*               8326               01.2363767704E+008.1306946733E-01+
*       -2.256755629E-01               0
GRID*               8327               01.2214860292E+007.5763227307E-01+
*       -2.045078955E-01               0
GRID*               8328               01.2363767704E+007.7143082919E-01+
*       -1.631755629E-01               0
GRID*               8329               0-6.570611801E-018.9011711285E-01+
*       7.4936510532E-01               0
GRID*               8330               07.1855894037E-014.0745185009E-01+
*       7.3655097907E-01               0
GRID*               8331               07.1872366802E-014.0537334956E-01+
*       7.7029227992E-01               0
GRID*               8332               06.8728260840E-014.3282520442E-01+
*       7.5684325899E-01               0
GRID*               8333               0-5.306977640E-019.1842241689E-01+
*       1.0658728236E+00               0
GRID*               8334               07.1846324635E-019.3174451708E-01+
*       1.0030625592E+00               0
GRID*               8335               07.1846324635E-019.4837363292E-01+
*       9.3020615893E-01               0
GRID*               8336               06.3349173595E-015.4532591587E-01+
*       1.3663555976E+00               0
GRID*               8337               05.6261918609E-015.0730022450E-01+
*       1.4369056367E+00               0
GRID*               8338               0-5.312802798E-014.3249191095E-02+
*       1.7104539543E+00               0
GRID*               8339               0-5.325353524E-01-1.058636392E-01+
*       1.7070923285E+00               0
GRID*               8340               06.3304537470E-015.6882042111E-01+
*       1.3899463798E+00               0
GRID*               8341               05.6257905904E-013.0821310628E-01+
*       1.1673691973E+00               0
GRID*               8342               0-6.890416763E-014.4472348920E-01+
*       1.0057386818E+00               0
GRID*               8343               0-5.635689091E-01-4.305260197E-01+
*       7.6013147156E-01               0
GRID*               8344               0-5.936476476E-01-3.948177537E-01+
*       6.5733208968E-01               0
GRID*               8345               0-5.962697185E-01-4.926132241E-01+
*       6.8063723050E-01               0
GRID*               8346               0-5.630249381E-01-4.168887572E-01+
*       6.3860146193E-01               0
GRID*               8347               0-5.304169796E-01-3.044355162E-01+
*       4.7833522640E-01               0
GRID*               8348               0-5.319622014E-01-4.040240566E-01+
*       7.7200833772E-01               0
GRID*               8349               05.3050581340E-013.7131861726E-01+
*       9.0871720035E-01               0
GRID*               8350               05.3050581340E-013.4885374392E-01+
*       9.5790994190E-01               0
GRID*               8351               05.9300605130E-013.4885417555E-01+
*       9.5790912929E-01               0
GRID*               8352               0-5.941075249E-01-3.988039962E-01+
*       6.8459108744E-01               0
GRID*               8353               05.3126354634E-01-3.100829706E-01+
*       1.0098798319E+00               0
GRID*               8354               05.3116779914E-016.3869576450E-03+
*       3.4608001205E-01               0
GRID*               8355               05.3199696381E-012.7970543779E-01+
*       1.0528092661E+00               0
GRID*               8356               05.9429326668E-011.1628915239E-01+
*       3.6221810586E-01               0
GRID*               8357               0-5.305397343E-01-4.002523356E-01+
*       7.9825746852E-01               0
GRID*               8358               0-5.905466281E-01-4.050867387E-01+
*       4.4208847458E-01               0
GRID*               8359               05.9459466059E-01-2.097767690E-02+
*       3.4636752553E-01               0
GRID*               8360               0-5.194839121E-01-2.739943511E-01+
*       1.0407250019E+00               0
GRID*               8361               0-5.194839121E-01-3.094093111E-01+
*       9.9985478248E-01               0
GRID*               8362               0-5.194839121E-01-3.349445699E-01+
*       1.0722419914E+00               0
GRID*               8363               0-6.021627598E-01-2.829598773E-01+
*       1.0326823717E+00               0
GRID*               8364               0-5.591481336E-01-3.081124031E-01+
*       1.0362198401E+00               0
GRID*               8365               0-5.819824504E-01-2.739898976E-01+
*       1.0407286490E+00               0
GRID*               8366               0-5.937844445E-01-2.799340326E-01+
*       1.0527861579E+00               0
GRID*               8367               0-5.709501276E-01-3.140565382E-01+
*       1.0482773490E+00               0
GRID*               8368               0-5.507698182E-01-3.050865585E-01+
*       1.0563236263E+00               0
GRID*               8369               0-5.280331770E-01-2.709238059E-01+
*       1.0730212510E+00               0
GRID*               8370               0-5.280331770E-01-2.677981405E-01+
*       1.1392595656E+00               0
GRID*               8371               0-5.204567017E-01-2.450588681E-01+
*       1.0615695620E+00               0
GRID*               8372               0-5.484898787E-01-2.671363951E-01+
*       1.0974069266E+00               0
GRID*               8373               0-5.204567017E-01-2.419332026E-01+
*       1.1278078765E+00               0
GRID*               8374               0-5.576713677E-01-2.388022942E-01+
*       1.1999052730E+00               0
GRID*               8375               0-5.860967366E-01-1.702242959E-01+
*       1.1102673109E+00               0
GRID*               8376               0-5.942793628E-01-1.798402569E-01+
*       1.1143770797E+00               0
GRID*               8377               0-5.553745608E-01-1.922017867E-01+
*       1.1289875375E+00               0
GRID*               8378               0-5.894499612E-01-2.184136940E-01+
*       1.1816236684E+00               0
GRID*               8379               06.0857031609E-01-1.966908538E-02+
*       2.6400997203E-01               0
GRID*               8380               0-5.615647632E-01-1.367522986E-01+
*       1.2881512790E+00               0
GRID*               8381               0-6.557631703E-01-1.257807352E-01+
*       1.1376825506E+00               0
GRID*               8382               0-6.509337687E-01-1.643541724E-01+
*       1.2049291393E+00               0
GRID*               8383               0-7.188267276E-01-2.267464061E-01+
*       1.0837760308E+00               0
GRID*               8384               0-5.753941797E-01-2.125007229E-01+
*       1.1193167205E+00               0
GRID*               8385               0-5.936330671E-014.0283024242E-01+
*       7.1014669550E-01               0
GRID*               8386               0-9.301556714E-016.2854763343E-01+
*       -2.286675602E-01               0
GRID*               8387               0-9.119466966E-016.2085695312E-01+
*       -2.072536484E-01               0
GRID*               8388               0-9.301577995E-016.2854607838E-01+
*       -1.870011772E-01               0
GRID*               8389               0-5.302359263E-017.8527329967E-02+
*       3.5076931102E-01               0
GRID*               8390               0-5.927346313E-017.8522264315E-02+
*       3.5076881757E-01               0
GRID*               8391               0-5.302359263E-011.3041629139E-01+
*       3.6600507260E-01               0
GRID*               8392               0-7.187100734E-01-7.850378031E-02+
*       3.5113772043E-01               0
GRID*               8393               0-5.310624392E-011.5610803150E-01+
*       3.7395637953E-01               0
GRID*               8394               0-6.928179269E-011.7583723950E-01+
*       2.4835853355E-01               0
GRID*               8395               0-6.928179269E-012.1732508813E-01+
*       1.7901467963E-01               0
GRID*               8396               0-6.789780111E-014.9119954166E-01+
*       8.9902542228E-01               0
GRID*               8397               0-7.192253105E-013.9650917129E-01+
*       8.2528325567E-01               0
GRID*               8398               0-7.187739474E-016.3676986423E-02+
*       3.4581767618E-01               0
GRID*               8399               0-5.302407811E-014.0200547374E-01+
*       7.9631484791E-01               0
GRID*               8400               0-7.185793446E-015.8760654703E-01+
*       1.5250930414E+00               0
GRID*               8401               0-6.560787079E-016.1594946753E-01+
*       1.5007020083E+00               0
GRID*               8402               05.6612946777E-01-1.272748354E-02+
*       1.2573049066E+00               0
GRID*               8403               06.8775171317E-019.0461613787E-01+
*       9.9150033360E-01               0
GRID*               8404               0-7.190939392E-018.5474750714E-01+
*       1.2001301215E+00               0
GRID*               8405               0-6.566777355E-017.8886695373E-01+
*       1.1498119314E+00               0
GRID*               8406               06.5562308951E-015.7528960103E-01+
*       1.5224461776E+00               0
GRID*               8407               06.6135413904E-014.8668468258E-01+
*       8.1366690919E-01               0
GRID*               8408               0-7.194035760E-019.1227160534E-01+
*       1.0659118937E+00               0
GRID*               8409               0-5.625837962E-018.0022832668E-01+
*       1.0710178550E+00               0
GRID*               8410               07.1889402624E-01-6.180167810E-01+
*       1.5023430651E+00               0
GRID*               8411               05.3192813074E-01-8.490087092E-01+
*       1.1868717002E+00               0
GRID*               8412               07.1850109411E-01-5.876707050E-01+
*       1.5252131109E+00               0
GRID*               8413               06.5600045735E-01-6.160136255E-01+
*       1.5008220778E+00               0
GRID*               8414               0-1.120506176E+00-2.168872691E-01+
*       -9.577736305E-02               0
GRID*               8415               06.5866198312E-012.8257751664E-02+
*       1.2315364263E+00               0
GRID*               8416               0-1.195267967E+00-3.622037675E-01+
*       -1.900142689E-01               0
GRID*               8417               05.5410073337E-01-5.015842326E-01+
*       9.0945566050E-01               0
GRID*               8418               05.6232225140E-01-3.064793404E-01+
*       1.5121592600E+00               0
GRID*               8419               05.6221123114E-013.5742284811E-02+
*       1.5831693339E+00               0
GRID*               8420               0-1.217719127E+00-2.713191625E-01+
*       -3.075939989E-02               0
GRID*               8421               06.9303557793E-01-1.099647624E-01+
*       1.5728829114E+00               0
GRID*               8422               06.4648436805E-01-4.745911030E-01+
*       8.7562278867E-01               0
GRID*               8423               06.0305920082E-016.8179273524E-01+
*       1.3265512202E+00               0
GRID*               8424               0-8.855961074E-016.7246686896E-01+
*       -1.869195770E-01               0
GRID*               8425               0-1.113845558E+00-8.321190900E-01+
*       -2.285247416E-01               0
GRID*               8426               0-1.166225838E+00-7.694592307E-01+
*       -1.790179801E-01               0
GRID*               8427               0-1.183791731E+00-7.970578804E-01+
*       -1.773456190E-01               0
GRID*               8428               0-1.202371062E+00-7.768095474E-01+
*       -1.767530104E-01               0
GRID*               8429               0-1.185292952E+00-7.708159830E-01+
*       -2.076709142E-01               0
GRID*               8430               0-9.950643335E-01-8.808635393E-01+
*       -2.286362522E-01               0
GRID*               8431               0-9.583556509E-01-8.689204038E-01+
*       -2.286362522E-01               0
GRID*               8432               0-9.583577792E-01-8.689219610E-01+
*       -1.869698692E-01               0
GRID*               8433               0-1.128134546E+006.5721121550E-01+
*       -1.142520280E-01               0
GRID*               8434               06.5735215096E-01-4.927995808E-01+
*       6.7980474542E-01               0
GRID*               8435               0-1.216828019E+008.2634113771E-01+
*       -1.890223448E-01               0
GRID*               8436               06.4850688871E-01-4.881499232E-01+
*       8.1637379435E-01               0
GRID*               8437               01.1686631203E+001.1380630183E-01+
*       -1.572404136E-01               0
GRID*               8438               08.8639445193E-019.7356119501E-01+
*       -3.130181274E-02               0
GRID*               8439               09.1468573413E-019.8399890725E-01+
*       -3.214314324E-02               0
GRID*               8440               08.8441351940E-019.5756010225E-01+
*       -6.344495598E-02               0
GRID*               8441               08.8893793430E-019.8399890725E-01+
*       -9.711390837E-02               0
GRID*               8442               04.8480366493E-018.3073819009E-01+
*       -1.972830121E-01               0
GRID*               8443               04.8303553790E-018.6406726472E-01+
*       -1.655513778E-01               0
GRID*               8444               01.0049807622E+009.0684397303E-01+
*       -9.414279894E-02               0
GRID*               8445               09.9532729891E-019.2400045643E-01+
*       -7.410416093E-02               0
GRID*               8446               01.0288983896E+009.3959004644E-01+
*       -7.390346630E-02               0
GRID*               8447               06.1422019181E-018.8457948456E-01+
*       -3.915082078E-02               0
GRID*               8448               05.6235161158E-018.9967428696E-01+
*       -1.222691670E-01               0
GRID*               8449               06.6306780962E-019.2418544594E-01+
*       -1.298041238E-01               0
GRID*               8450               01.2189361928E+001.9200507773E-01+
*       -3.129525203E-02               0
GRID*               8451               09.6270593460E-019.8399890725E-01+
*       -9.483005023E-02               0
GRID*               8452               07.1927030968E-019.6958683677E-01+
*       4.0944176347E-01               0
GRID*               8453               06.5661610965E-019.6958683677E-01+
*       3.7132079420E-01               0
GRID*               8454               07.1927030968E-019.6958683677E-01+
*       3.3444176347E-01               0
GRID*               8455               01.1344086821E+007.3799867649E-01+
*       -2.299053365E-01               0
GRID*               8456               01.0552139041E+008.9973226033E-01+
*       -1.141850227E-01               0
GRID*               8457               01.2171479503E+008.4666784120E-01+
*       -1.989073538E-01               0
GRID*               8458               01.1624070735E+008.7363600404E-01+
*       -1.989073538E-01               0
GRID*               8459               01.1842891342E+008.3295626458E-01+
*       -1.772069428E-01               0
GRID*               8460               05.9509321859E-013.6109859008E-01+
*       9.3340544897E-01               0
GRID*               8461               09.2548569117E-019.0929568309E-01+
*       -1.786539288E-01               0
GRID*               8462               09.9386465002E-019.2851340672E-01+
*       -1.987443649E-01               0
GRID*               8463               09.9085614157E-018.9751457148E-01+
*       -2.082897911E-01               0
GRID*               8464               07.1950137603E-016.8955296867E-01+
*       1.4281702285E+00               0
GRID*               8465               01.1516489718E+008.1697098911E-01+
*       -1.351421794E-01               0
GRID*               8466               01.1833187740E+008.1064995931E-01+
*       -1.043240472E-01               0
GRID*               8467               05.9587855238E-014.2141583524E-01+
*       1.5030991918E+00               0
GRID*               8468               05.9468346913E-013.9013395122E-01+
*       1.5206697772E+00               0
GRID*               8469               06.2471123114E-014.7213047209E-02+
*       1.6567194643E+00               0
GRID*               8470               06.5542442841E-015.3737627547E-02+
*       1.6195908787E+00               0
GRID*               8471               01.1669142357E+007.7011202201E-01+
*       -1.792728371E-01               0
GRID*               8472               01.1840970297E+007.9719435159E-01+
*       -1.776670896E-01               0
GRID*               8473               01.2033326162E+007.7782154939E-01+
*       -1.750430636E-01               0
GRID*               8474               01.1863351603E+007.7227556113E-01+
*       -2.055808994E-01               0
GRID*               8475               01.2035179543E+007.9935789072E-01+
*       -2.039751519E-01               0
GRID*               8476               01.1345647723E+008.7908321526E-01+
*       -1.765166191E-01               0
GRID*               8477               09.7764747754E-018.8528844980E-01+
*       -2.287234494E-01               0
GRID*               8478               07.1869621541E-015.1321639008E-01+
*       1.5652449531E+00               0
GRID*               8479               06.5619616058E-015.4487639411E-01+
*       1.5453519142E+00               0
GRID*               8480               07.1869621541E-015.7496125195E-01+
*       1.5231479892E+00               0
GRID*               8481               01.1511413508E+00-7.816895049E-01+
*       -9.261850898E-02               0
GRID*               8482               01.1511303214E+00-7.430828649E-01+
*       -9.261811013E-02               0
GRID*               8483               01.1332944793E+00-7.356924682E-01+
*       -6.315030394E-02               0
GRID*               8484               01.1333055087E+00-7.742991081E-01+
*       -6.315070279E-02               0
GRID*               8485               01.1655478223E+00-7.674160752E-01+
*       -7.243539750E-02               0
GRID*               8486               05.6221123114E-011.8042822172E-01+
*       1.5629633765E+00               0
GRID*               8487               01.1275325291E+00-6.561134248E-01+
*       -1.157003080E-01               0
GRID*               8488               05.3331107924E-011.5143722563E-01+
*       1.1260694348E+00               0
GRID*               8489               05.6463768902E-011.7285511308E-01+
*       1.1440159568E+00               0
GRID*               8490               05.9264629692E-012.4793095667E-01+
*       1.0710303417E+00               0
GRID*               8491               05.9272681761E-012.4635201187E-01+
*       1.1696950227E+00               0
GRID*               8492               05.6214472238E-012.7879456047E-01+
*       1.0866520818E+00               0
GRID*               8493               06.8757905904E-012.9882173633E-01+
*       1.1601180755E+00               0
GRID*               8494               05.3137295262E-015.6639072211E-02+
*       1.6333403122E+00               0
GRID*               8495               05.9358418376E-014.1505476341E-02+
*       1.6190792142E+00               0
GRID*               8496               01.1267664573E+00-6.839797502E-01+
*       -2.289732207E-01               0
GRID*               8497               01.1267656785E+00-6.839778135E-01+
*       -1.873063134E-01               0
GRID*               8498               01.1436472859E+00-6.819757635E-01+
*       -2.087073374E-01               0
GRID*               8499               07.0240887023E-011.1121224383E-01+
*       1.3156717542E+00               0
GRID*               8500               06.2933163677E-013.7084350669E-02+
*       1.2850001915E+00               0
GRID*               8501               07.1852884020E-019.6852066419E-01+
*       4.8318198278E-01               0
GRID*               8502               07.1972417445E-011.2231322165E-01+
*       1.7068697139E+00               0
GRID*               8503               06.5722503643E-011.5947186393E-01+
*       1.7026828589E+00               0
GRID*               8504               07.1972417445E-011.9620863826E-01+
*       1.6957319200E+00               0
GRID*               8505               01.0729481691E+00-5.603618541E-01+
*       -1.643052802E-01               0
GRID*               8506               01.0946366553E+00-5.760044929E-01+
*       -1.633581990E-01               0
GRID*               8507               01.1166859162E+00-6.748252399E-01+
*       -6.427436018E-02               0
GRID*               8508               01.1286017125E+00-6.568608515E-01+
*       -9.292046694E-02               0
GRID*               8509               01.1491356634E+00-6.515863418E-01+
*       -7.386193430E-02               0
GRID*               8510               01.1513267256E+00-6.881203599E-01+
*       -9.292059068E-02               0
GRID*               8511               06.3264744316E-017.3568759156E-01+
*       1.2893540118E+00               0
GRID*               8512               06.6342910450E-017.2263196915E-01+
*       1.2638499981E+00               0
GRID*               8513               01.1359509936E+00-6.271423260E-01+
*       -1.765250792E-01               0
GRID*               8514               01.1555001865E+00-6.152451557E-01+
*       -1.965211477E-01               0
GRID*               8515               06.5702452196E-01-9.098672124E-01+
*       1.0683399509E+00               0
GRID*               8516               06.8842464960E-013.6173704280E-01+
*       9.9436515930E-01               0
GRID*               8517               06.5818498892E-013.9249118114E-01+
*       1.0359575291E+00               0
GRID*               8518               07.1942307305E-018.9106706381E-01+
*       1.1354826485E+00               0
GRID*               8519               06.5692287323E-019.0601940924E-01+
*       1.1012119090E+00               0
GRID*               8520               07.1942307305E-019.1836895728E-01+
*       1.0659183686E+00               0
GRID*               8521               05.3083056946E-019.6537435598E-01+
*       7.8522291236E-01               0
GRID*               8522               01.0412684053E+00-8.754383009E-01+
*       -2.061540710E-02               0
GRID*               8523               01.0412684055E+00-8.754383009E-01+
*       -6.228207378E-02               0
GRID*               8524               01.0779793020E+00-8.634935276E-01+
*       -6.228177753E-02               0
GRID*               8525               06.9088223534E-01-1.821221816E-01+
*       1.2212318913E+00               0
GRID*               8526               06.5418977969E-01-2.881282213E-01+
*       1.6685121813E+00               0
GRID*               8527               06.5972572753E-01-1.883677648E-01+
*       1.5926287302E+00               0
GRID*               8528               06.3053520803E-01-1.949966971E-01+
*       1.6296881491E+00               0
GRID*               8529               06.5707926244E-01-2.513350537E-01+
*       1.6771842272E+00               0
GRID*               8530               06.8626978194E-01-2.447061215E-01+
*       1.6401248083E+00               0
GRID*               8531               06.6261521028E-01-1.515745972E-01+
*       1.6013007761E+00               0
GRID*               8532               05.9573483719E-014.7510811226E-01+
*       6.3095862179E-01               0
GRID*               8533               05.9617344628E-013.8759028378E-01+
*       6.2395760826E-01               0
GRID*               8534               05.9306139598E-013.9431503697E-01+
*       6.5717744432E-01               0
GRID*               8535               05.9262278690E-014.8183286545E-01+
*       6.6417845785E-01               0
GRID*               8536               05.6423320807E-014.1730125305E-01+
*       6.3819916785E-01               0
GRID*               8537               01.1844436735E+00-8.115257726E-01+
*       -1.464044116E-01               0
GRID*               8538               01.1522812248E+00-8.173497353E-01+
*       -1.569670064E-01               0
GRID*               8539               01.1679047860E+00-7.902205927E-01+
*       -1.762021510E-01               0
GRID*               8540               01.1691239720E+00-8.248231385E-01+
*       -1.770647745E-01               0
GRID*               8541               07.1868785664E-013.6851151391E-01+
*       5.7016090991E-01               0
GRID*               8542               06.5618867373E-013.9097544209E-01+
*       6.1935057293E-01               0
GRID*               8543               07.1868785664E-013.9097638412E-01+
*       6.1935365321E-01               0
GRID*               8544               01.0151364764E+00-6.150845519E-01+
*       -2.084126026E-02               0
GRID*               8545               0-5.308289425E-017.4334350239E-01+
*       1.3762081321E+00               0
GRID*               8546               0-5.861674777E-016.9958916658E-01+
*       1.3164656259E+00               0
GRID*               8547               0-5.933280802E-017.6773479543E-01+
*       1.3478645186E+00               0
GRID*               8548               01.0801717275E+00-9.702726428E-01+
*       -5.176747208E-02               0
GRID*               8549               01.1158172820E+00-9.702726428E-01+
*       -1.144224503E-01               0
GRID*               8550               05.3221859137E-013.5222292123E-01+
*       5.4959366492E-01               0
GRID*               8551               05.3367262918E-013.8759122582E-01+
*       6.2396068855E-01               0
GRID*               8552               05.3056057889E-013.9431597900E-01+
*       6.5718052461E-01               0
GRID*               8553               07.1855894037E-013.9975482836E-01+
*       6.8302200172E-01               0
GRID*               8554               01.1006021026E+00-8.379484334E-01+
*       -2.037753852E-02               0
GRID*               8555               05.3178794829E-01-9.487945369E-01+
*       9.3026025715E-01               0
GRID*               8556               05.6190095590E-014.7817067925E-01+
*       5.3470615439E-01               0
GRID*               8557               05.9287846374E-013.4086752247E-01+
*       5.1927770351E-01               0
GRID*               8558               05.3037870164E-013.4086709085E-01+
*       5.1927689089E-01               0
GRID*               8559               05.6259729301E-013.7341380072E-01+
*       5.2431399711E-01               0
GRID*               8560               0-6.204183624E-014.4846400797E-01+
*       4.7120027815E-01               0
GRID*               8561               01.0231360613E+00-8.814755614E-01+
*       -6.335859982E-02               0
GRID*               8562               01.0135433584E+00-8.971837391E-01+
*       -4.252126250E-02               0
GRID*               8563               01.0265778786E+00-9.127220098E-01+
*       -7.505035745E-02               0
GRID*               8564               05.9455129325E-013.9898334773E-01+
*       6.8468539438E-01               0
GRID*               8565               05.3205047616E-014.0668131149E-01+
*       7.3821745202E-01               0
GRID*               8566               01.0432107554E+00-9.494442710E-01+
*       -1.767983327E-01               0
GRID*               8567               05.9388409518E-012.7552834876E-01+
*       4.2377193385E-01               0
GRID*               8568               05.6219584589E-013.1450572484E-01+
*       4.1883344103E-01               0
GRID*               8569               06.0059259847E-013.7420928344E-01+
*       3.9399547087E-01               0
GRID*               8570               0-8.402195980E-019.1885793606E-01+
*       -1.657838619E-01               0
GRID*               8571               01.0419833583E+00-9.390190806E-01+
*       -1.051258964E-01               0
GRID*               8572               01.0385415409E+00-9.077726322E-01+
*       -9.343413876E-02               0
GRID*               8573               01.0616046419E+00-9.142482149E-01+
*       -7.345940522E-02               0
GRID*               8574               0-1.015815549E+009.1741347456E-01+
*       -1.778334167E-01               0
GRID*               8575               0-1.002556714E+009.1721302042E-01+
*       -2.078216318E-01               0
GRID*               8576               0-9.485341220E-019.0011302709E-01+
*       -1.374533773E-01               0
GRID*               8577               0-9.505586221E-019.3112135471E-01+
*       -1.278294670E-01               0
GRID*               8578               0-1.003116264E+009.0467758733E-01+
*       -9.337512609E-02               0
GRID*               8579               0-1.012825278E+009.2057841633E-01+
*       -7.377388477E-02               0
GRID*               8580               0-9.664027886E-018.9275745469E-01+
*       -9.337484397E-02               0
GRID*               8581               01.0106640586E+006.0614684370E-01+
*       -2.281662581E-01               0
GRID*               8582               01.0473706100E+006.1808842181E-01+
*       -1.864998751E-01               0
GRID*               8583               09.8811488910E-016.0756506500E-01+
*       -2.287963787E-01               0
GRID*               8584               09.5135161757E-016.1949457508E-01+
*       -2.287963787E-01               0
GRID*               8585               0-1.103702779E+009.8068429505E-01+
*       -2.183210999E-01               0
GRID*               8586               0-1.081324812E+009.4150387840E-01+
*       -2.183210999E-01               0
GRID*               8587               0-1.070150822E+009.6138247050E-01+
*       -1.877723469E-01               0
GRID*               8588               09.7374727317E-01-9.688605490E-01+
*       -1.375957052E-01               0
GRID*               8589               09.9514559169E-01-9.691082073E-01+
*       -1.653203640E-01               0
GRID*               8590               01.0779770891E+00-8.634951607E-01+
*       -2.061540710E-02               0
GRID*               8591               01.0893330856E+00-8.541096364E-01+
*       -2.102725702E-02               0
GRID*               8592               01.0938198473E+00-8.664910988E-01+
*       -4.164266412E-02               0
GRID*               8593               01.0893352985E+00-8.541080033E-01+
*       -6.269362745E-02               0
GRID*               8594               01.0949933231E+00-8.684136428E-01+
*       -6.384744649E-02               0
GRID*               8595               01.1108338684E+00-8.714112139E-01+
*       -4.320833308E-02               0
GRID*               8596               01.0994778719E+00-8.807967383E-01+
*       -4.279648316E-02               0
GRID*               8597               01.0527693317E+00-6.160389087E-01+
*       -1.870419776E-01               0
GRID*               8598               05.2067681773E-019.0098728517E-01+
*       -2.182683656E-01               0
GRID*               8599               03.6293192843E-018.1536313891E-01+
*       -5.168214936E-02               0
GRID*               8600               09.4767217429E-01-8.989805135E-01+
*       -9.545078389E-02               0
GRID*               8601               01.0568383356E+00-9.005674534E-01+
*       -9.382831285E-02               0
GRID*               8602               01.0935492320E+00-8.886226801E-01+
*       -9.382801660E-02               0
GRID*               8603               01.0980337809E+00-9.010057756E-01+
*       -7.277705327E-02               0
GRID*               8604               01.2242331880E+00-5.719497911E-01+
*       -2.181914497E-01               0
GRID*               8605               01.1892746948E+00-8.591645590E-01+
*       -2.191582738E-01               0
GRID*               8606               01.2342595743E+00-7.894830603E-01+
*       -2.191554585E-01               0
GRID*               8607               01.2014847208E+00-7.750867641E-01+
*       -2.191554585E-01               0
GRID*               8608               01.8548338202E-01-2.620052489E-01+
*       -1.255196559E-01               0
GRID*               8609               06.2199052086E-012.8243844543E-01+
*       3.9196858328E-01               0
GRID*               8610               05.9360424031E-012.4195887917E-01+
*       4.2086608149E-01               0
GRID*               8611               05.6248541218E-012.6864986193E-01+
*       3.8182917577E-01               0
GRID*               8612               06.2171066600E-012.4886897583E-01+
*       3.8906273091E-01               0
GRID*               8613               09.1393436462E-015.7179583330E-01+
*       -1.695049900E-01               0
GRID*               8614               01.1165522665E+006.4080633534E-01+
*       -1.151796998E-01               0
GRID*               8615               08.0624082445E-018.4299765623E-01+
*       -2.036893714E-02               0
GRID*               8616               07.8257702176E-018.3157340017E-01+
*       -2.304123682E-02               0
GRID*               8617               08.2378463845E-018.4666122917E-01+
*       -8.899517930E-02               0
GRID*               8618               08.3881784620E-018.2841721024E-01+
*       -4.341017396E-02               0
GRID*               8619               0-9.690964535E-014.2855295739E-01+
*       -1.830916379E-01               0
GRID*               8620               06.3476033654E-01-3.607444871E-01+
*       1.6958247416E-01               0
GRID*               8621               08.9724442580E-01-5.796355292E-01+
*       -7.121857465E-02               0
GRID*               8622               09.2528999453E-01-5.668592255E-01+
*       -7.070001699E-02               0
GRID*               8623               07.1425004738E-019.6005583730E-01+
*       -2.479248745E-02               0
GRID*               8624               05.2464071659E-019.6050002080E-01+
*       -2.532784530E-02               0
GRID*               8625               04.8458618404E-019.6035217175E-01+
*       -3.066164783E-02               0
GRID*               8626               09.3101722296E-015.7692377292E-01+
*       -8.735361253E-02               0
GRID*               8627               09.5135080587E-016.1949523701E-01+
*       -1.871298192E-01               0
GRID*               8628               01.0719997311E+005.5474998228E-01+
*       -9.008728430E-02               0
GRID*               8629               06.6398175225E-013.9665358262E-01+
*       4.4459335852E-01               0
GRID*               8630               0-5.280331770E-01-3.318740247E-01+
*       1.1045382405E+00               0
GRID*               8631               0-5.871890406E-01-3.542487431E-01+
*       1.1890839496E+00               0
GRID*               8632               09.4383423099E-018.7530964771E-01+
*       -2.175489221E-02               0
GRID*               8633               09.7103325290E-018.8470891127E-01+
*       -2.106164052E-02               0
GRID*               8634               01.2211411051E+003.4362297972E-01+
*       -2.186717700E-01               0
GRID*               8635               02.8669750095E-01-8.525162619E-01+
*       -8.853339929E-02               0
GRID*               8636               02.7946532830E-01-9.564687843E-01+
*       -9.277970950E-02               0
GRID*               8637               03.0859856948E-01-9.745864282E-01+
*       -9.330282237E-02               0
GRID*               8638               03.1583074214E-01-8.706339058E-01+
*       -8.905651215E-02               0
GRID*               8639               02.9820604698E-01-9.310552125E-01+
*       -6.113205728E-02               0
GRID*               8640               0-7.190199202E-01-4.278167653E-02+
*       1.7102520934E+00               0
GRID*               8641               0-5.315434808E-012.3349442810E-01+
*       1.6870854385E+00               0
GRID*               8642               01.0343497864E+009.8438760464E-01+
*       -3.033236589E-02               0
GRID*               8643               09.5101645311E-019.8438760464E-01+
*       -3.033236589E-02               0
GRID*               8644               09.9903665357E-019.8438760464E-01+
*       -9.301927288E-02               0
GRID*               8645               01.0389888588E+001.6236415766E-01+
*       -5.554924791E-02               0
GRID*               8646               0-5.920634566E-01-4.580306541E-02+
*       1.2235395533E+00               0
GRID*               8647               01.2035247207E+008.1358346238E-01+
*       -1.745829168E-01               0
GRID*               8648               01.1275108199E+006.5642569260E-01+
*       -1.352944378E-01               0
GRID*               8649               01.2172107461E+008.0408823871E-01+
*       -1.143090868E-01               0
GRID*               8650               01.2179751264E+007.8867827586E-01+
*       -8.434216612E-02               0
GRID*               8651               0-5.302251137E-019.6557248954E-01+
*       2.5967626698E-01               0
GRID*               8652               0-6.976538539E-018.3057624589E-01+
*       9.1272381066E-01               0
GRID*               8653               0-1.211154499E+00-1.262820137E-01+
*       -2.196177288E-01               0
GRID*               8654               0-9.063380931E-01-8.611554876E-01+
*       -2.286985475E-01               0
GRID*               8655               0-9.381840286E-01-8.789621838E-01+
*       -2.073347997E-01               0
GRID*               8656               0-9.821529885E-01-6.082659525E-01+
*       -2.288794387E-01               0
GRID*               8657               0-9.946396637E-01-5.922678452E-01+
*       -2.067596216E-01               0
GRID*               8658               0-1.012486675E+00-6.090018927E-01+
*       -2.278801830E-01               0
GRID*               8659               0-5.937691480E-01-3.608976796E-01+
*       9.3318654841E-01               0
GRID*               8660               0-5.312689101E-01-3.608972480E-01+
*       9.3318736102E-01               0
GRID*               8661               0-5.312689101E-01-4.196148755E-01+
*       9.3708316416E-01               0
GRID*               8662               0-5.256986959E-01-3.406232919E-01+
*       9.5604028358E-01               0
GRID*               8663               0-5.569676060E-01-3.818443409E-01+
*       9.3378419712E-01               0
GRID*               8664               0-5.256986959E-01-3.993409193E-01+
*       9.5993608672E-01               0
GRID*               8665               0-5.946682500E-01-4.835762202E-01+
*       8.4823974379E-01               0
GRID*               8666               0-6.538658089E-01-3.569678285E-01+
*       3.9568720709E-01               0
GRID*               8667               0-6.540706715E-01-3.813658218E-01+
*       4.1742602135E-01               0
GRID*               8668               0-9.479678508E-018.9955466371E-01+
*       -1.586771778E-01               0
GRID*               8669               0-9.112500444E-018.8763135016E-01+
*       -1.586774740E-01               0
GRID*               8670               0-9.177211981E-019.0768188504E-01+
*       -1.794567134E-01               0
GRID*               8671               0-5.318781076E-01-3.866760164E-01+
*       6.2420834827E-01               0
GRID*               8672               0-6.229009464E-012.0127014123E-01+
*       3.5906784963E-01               0
GRID*               8673               06.5693540559E-011.3216123641E-01+
*       1.6149875101E+00               0
GRID*               8674               06.5635579495E-011.1765839300E-01+
*       1.7045318256E+00               0
GRID*               8675               06.5606616411E-019.0347765486E-02+
*       1.6168364769E+00               0
GRID*               8676               06.8857910742E-011.2808290748E-01+
*       1.6683850583E+00               0
GRID*               8677               0-1.225948008E+009.7720101908E-01+
*       -1.876728543E-01               0
GRID*               8678               0-1.151060481E+008.1778858556E-01+
*       -9.271946798E-02               0
GRID*               8679               0-1.128375123E+008.4902798145E-01+
*       -9.271935698E-02               0
GRID*               8680               0-1.128375390E+008.4902776419E-01+
*       -1.343859889E-01               0
GRID*               8681               0-1.016734719E+006.0688688989E-01+
*       -1.869862885E-01               0
GRID*               8682               0-1.002776797E+005.9151912363E-01+
*       -2.070595638E-01               0
GRID*               8683               0-1.042127791E+005.3346426999E-01+
*       -1.617445930E-01               0
GRID*               8684               0-7.174538251E-01-9.612667472E-01+
*       1.9630061320E-02               0
GRID*               8685               0-1.199383096E+007.2440919790E-01+
*       -5.221423825E-02               0
GRID*               8686               0-1.223412717E+006.5551861804E-01+
*       -3.002493483E-02               0
GRID*               8687               0-1.191948824E+006.5947172883E-01+
*       -5.196060959E-02               0
GRID*               8688               0-1.223412717E+005.7859554112E-01+
*       -3.002493483E-02               0
GRID*               8689               0-6.615918743E-011.0349137555E-01+
*       2.6260976507E-01               0
GRID*               8690               0-6.252707541E-014.2208102236E-01+
*       1.6626854487E-01               0
GRID*               8691               0-6.875067010E-016.2196762460E-01+
*       1.4388636446E+00               0
GRID*               8692               0-6.500433069E-015.6848040309E-01+
*       1.4270998357E+00               0
GRID*               8693               0-5.633022335E-015.6046489657E-01+
*       2.4863367968E-01               0
GRID*               8694               0-6.158360831E-015.7507851277E-01+
*       1.6447488808E-01               0
GRID*               8695               0-6.260682023E-015.3883458051E-01+
*       2.2792650508E-01               0
GRID*               8696               0-6.778984316E-016.2731138455E-01+
*       2.6659713065E-01               0
GRID*               8697               0-5.317262328E-018.1233731436E-01+
*       1.2876327845E+00               0
GRID*               8698               0-7.190939392E-018.1738264231E-01+
*       1.2648483664E+00               0
GRID*               8699               0-1.073652727E+008.6927128984E-01+
*       -6.309736926E-02               0
GRID*               8700               0-1.060541170E+009.0609466263E-01+
*       -7.325131405E-02               0
GRID*               8701               0-9.914699617E-018.8461253567E-01+
*       -2.117321902E-02               0
GRID*               8702               0-9.380682049E-018.8553229442E-01+
*       -4.289769734E-02               0
GRID*               8703               0-9.547564866E-018.7269240303E-01+
*       -6.283960356E-02               0
GRID*               8704               06.8721123114E-011.4609480145E-01+
*       1.5797709272E+00               0
GRID*               8705               0-5.620673124E-015.3841435621E-01+
*       2.7132620869E-01               0
GRID*               8706               0-6.248332812E-015.1678404014E-01+
*       2.5061903409E-01               0
GRID*               8707               0-6.201278861E-014.8058604156E-01+
*       3.3886109805E-01               0
GRID*               8708               0-6.533999436E-012.1916845916E-01+
*       4.0490942528E-01               0
GRID*               8709               0-6.245692737E-012.2549160814E-01+
*       3.7412764882E-01               0
GRID*               8710               0-8.961837194E-016.5192818927E-01+
*       -6.263202337E-02               0
GRID*               8711               0-8.350994274E-016.2166178871E-01+
*       -9.090508476E-02               0
GRID*               8712               0-5.565133211E-01-9.297794227E-01+
*       4.3207877020E-01               0
GRID*               8713               0-6.186646225E-01-9.297794227E-01+
*       3.1935339436E-01               0
GRID*               8714               0-6.502108555E-01-8.973340701E-01+
*       3.5499353239E-01               0
GRID*               8715               01.1510507329E+00-7.441412423E-01+
*       -1.144374024E-01               0
GRID*               8716               0-7.186073585E-01-9.706434100E-01+
*       3.3368219110E-01               0
GRID*               8717               0-6.557586600E-01-9.706434100E-01+
*       2.9595681526E-01               0
GRID*               8718               0-5.309612983E-01-9.723647828E-01+
*       1.5587734679E-01               0
GRID*               8719               01.1509116543E+00-2.626111216E-01+
*       -1.504530274E-01               0
GRID*               8720               03.7860985483E-01-9.749304122E-01+
*       -3.031095805E-02               0
GRID*               8721               04.1931513333E-01-9.749304122E-01+
*       -9.028338772E-02               0
GRID*               8722               03.4496735166E-01-9.749304122E-01+
*       -9.278619535E-02               0
GRID*               8723               0-6.543273377E-01-9.669190195E-01+
*       1.4521096772E-01               0
GRID*               8724               01.0962159455E+00-9.810245341E-01+
*       -2.199821478E-02               0
GRID*               8725               01.1324638905E+00-9.610920165E-01+
*       -5.228662716E-02               0
GRID*               8726               01.1318615000E+00-9.810245341E-01+
*       -8.465319300E-02               0
GRID*               8727               01.1150478019E+00-9.059258907E-01+
*       -7.434272223E-02               0
GRID*               8728               01.1291356959E+00-9.119727978E-01+
*       -1.989954382E-01               0
GRID*               8729               0-5.316020166E-01-6.191373152E-01+
*       1.4994473525E+00               0
GRID*               8730               0-5.885941166E-01-4.111953161E-01+
*       1.5194702018E+00               0
GRID*               8731               01.0753136672E+00-9.068971507E-01+
*       -1.666940744E-01               0
GRID*               8732               01.0832169407E+00-9.443424379E-01+
*       -2.086854715E-01               0
GRID*               8733               01.0578865894E+00-9.131621642E-01+
*       -1.664695200E-01               0
GRID*               8734               01.2190980476E+00-3.852997650E-02+
*       -3.112669492E-02               0
GRID*               8735               01.1647715003E+00-3.854879150E-02+
*       -9.034695892E-02               0
GRID*               8736               0-5.600903932E-01-3.856107212E-01+
*       1.0014065721E+00               0
GRID*               8737               0-5.247187505E-01-3.286638250E-01+
*       9.8083777856E-01               0
GRID*               8738               0-5.848091437E-01-3.945983473E-01+
*       1.0268009032E+00               0
GRID*               8739               0-5.247187505E-01-3.541990838E-01+
*       1.0532249875E+00               0
GRID*               8740               01.0216977235E+008.9965990900E-01+
*       -1.142240810E-01               0
GRID*               8741               08.3519661223E-01-8.808602618E-01+
*       -8.524960394E-02               0
GRID*               8742               09.3337791343E-016.2456292479E-01+
*       -1.871183487E-01               0
GRID*               8743               09.3456117455E-015.6827217413E-01+
*       -1.696262531E-01               0
GRID*               8744               09.1958422361E-016.0378914344E-01+
*       -2.074485532E-01               0
GRID*               8745               0-5.881989338E-01-3.406237235E-01+
*       9.5603947096E-01               0
GRID*               8746               0-5.872189884E-01-3.286642566E-01+
*       9.8083696595E-01               0
GRID*               8747               0-5.504174464E-01-3.496109180E-01+
*       9.8143461466E-01               0
GRID*               8748               01.2189414988E+005.6483072735E-01+
*       -2.195612306E-01               0
GRID*               8749               01.1579109458E+005.8099347806E-01+
*       -2.195612306E-01               0
GRID*               8750               01.1398104009E+005.5302519977E-01+
*       -1.637023784E-01               0
GRID*               8751               0-5.958365405E-01-1.334541916E-01+
*       2.8163863592E-01               0
GRID*               8752               0-5.627228152E-01-1.573139723E-01+
*       3.4167588610E-01               0
GRID*               8753               06.5611636051E-013.7494327432E-01+
*       1.0573615542E+00               0
GRID*               8754               0-7.164808811E-01-3.580394569E-01+
*       5.4383080853E-01               0
GRID*               8755               06.2388399341E-011.8598500775E-01+
*       1.2296540838E+00               0
GRID*               8756               0-6.572356219E-017.8296028963E-01+
*       1.3235267179E+00               0
GRID*               8757               0-5.944025072E-017.1741688482E-01+
*       1.2529742395E+00               0
GRID*               8758               01.1432414156E+001.8906285103E-01+
*       -9.874580444E-02               0
GRID*               8759               05.9257721622E-01-9.080458595E-01+
*       7.8529835077E-01               0
GRID*               8760               0-7.188399559E-01-8.119655095E-01+
*       1.2869776756E+00               0
GRID*               8761               01.0231360610E+00-8.814755614E-01+
*       -2.169193314E-02               0
GRID*               8762               0-6.244348777E-01-2.483111500E-01+
*       3.8882712075E-01               0
GRID*               8763               0-5.929391878E-01-2.414981140E-01+
*       3.4551993114E-01               0
GRID*               8764               0-5.938442122E-01-2.751724283E-01+
*       3.4952354920E-01               0
GRID*               8765               0-5.629165679E-01-2.688856170E-01+
*       3.8019808592E-01               0
GRID*               8766               07.1916217955E-01-9.693775087E-01+
*       3.0384168819E-01               0
GRID*               8767               06.8812935860E-01-9.311573897E-01+
*       2.7022779784E-01               0
GRID*               8768               06.5636049120E-01-9.693775087E-01+
*       2.6607015494E-01               0
GRID*               8769               0-5.308291473E-01-9.622181636E-01+
*       1.9188523015E-01               0
GRID*               8770               06.6189286833E-018.2171598632E-01+
*       1.0847066749E+00               0
GRID*               8771               07.1907779619E-013.8884530940E-01+
*       8.8716660125E-01               0
GRID*               8772               07.1908064380E-013.9468492975E-01+
*       8.5022374173E-01               0
GRID*               8773               06.5657982670E-013.9468398772E-01+
*       8.5022682201E-01               0
GRID*               8774               06.8815843999E-014.1892428738E-01+
*       8.8033238828E-01               0
GRID*               8775               0-5.317273250E-013.1079284542E-01+
*       1.0093432346E+00               0
GRID*               8776               06.7205100341E-01-8.635542727E-01+
*       9.2247279068E-01               0
GRID*               8777               05.3035274949E-01-1.961901282E-01+
*       1.6956157445E+00               0
GRID*               8778               0-5.311468305E-01-3.948186958E-01+
*       6.5733516997E-01               0
GRID*               8779               05.3137295262E-01-4.307260332E-02+
*       1.7109614180E+00               0
GRID*               8780               05.3137295262E-013.1657461587E-02+
*       1.7109614180E+00               0
GRID*               8781               05.3115221235E-01-8.056212354E-02+
*       1.7085372880E+00               0
GRID*               8782               0-5.307306334E-018.0679173404E-02+
*       1.7084176267E+00               0
GRID*               8783               07.1875709634E-01-1.803657068E-01+
*       1.6962937078E+00               0
GRID*               8784               06.5625623436E-01-1.436289325E-01+
*       1.7032446466E+00               0
GRID*               8785               07.1875709634E-01-1.064702902E-01+
*       1.7074315016E+00               0
GRID*               8786               07.1753470670E-012.3420154309E-01+
*       1.6858505004E+00               0
GRID*               8787               07.1821319727E-014.3889612793E-02+
*       1.7114730825E+00               0
GRID*               8788               06.5571405925E-018.1048255066E-02+
*       1.7072862275E+00               0
GRID*               8789               05.3205966818E-014.0402740685E-01+
*       7.7179170369E-01               0
GRID*               8790               05.3259298069E-013.8356303179E-01+
*       8.8421352003E-01               0
GRID*               8791               05.6268824150E-014.1167549748E-01+
*       8.7919484467E-01               0
GRID*               8792               05.9772573183E-014.8172677221E-01+
*       8.4188493126E-01               0
GRID*               8793               0-1.092392792E+006.4463308342E-01+
*       -2.289488442E-01               0
GRID*               8794               0-1.093226751E+006.2093559543E-01+
*       -2.068105223E-01               0
GRID*               8795               0-1.092393604E+006.4463374535E-01+
*       -1.872822847E-01               0
GRID*               8796               05.3014775857E-012.4793541022E-01+
*       1.0710266946E+00               0
GRID*               8797               0-6.162006651E-016.1980918382E-01+
*       2.6830636587E-01               0
GRID*               8798               0-6.149657440E-015.9775864346E-01+
*       2.9099889488E-01               0
GRID*               8799               0-6.253695458E-015.4640016508E-01+
*       2.6806135091E-01               0
GRID*               8800               0-7.817421823E-017.5316230048E-01+
*       -2.133204198E-02               0
GRID*               8801               0-8.145170493E-017.5794320472E-01+
*       -2.133204198E-02               0
GRID*               8802               0-6.266297451E-013.4988011089E-01+
*       1.3409291815E-01               0
GRID*               8803               06.1823162797E-01-4.225765902E-01+
*       1.5525121413E+00               0
GRID*               8804               06.8073058555E-01-4.080748195E-01+
*       1.4857711296E+00               0
GRID*               8805               06.8073058555E-01-3.388528604E-01+
*       1.5082705017E+00               0
GRID*               8806               03.8700125322E-01-8.244254126E-01+
*       -1.208562343E-01               0
GRID*               8807               03.8594402366E-01-8.559800946E-01+
*       -8.816983489E-02               0
GRID*               8808               02.9859050677E-01-8.634349100E-01+
*       -1.522208318E-01               0
GRID*               8809               0-5.576231664E-01-9.671982392E-01+
*       -2.107328896E-01               0
GRID*               8810               04.7630804441E-01-9.679166953E-01+
*       -1.531721094E-01               0
GRID*               8811               05.1438427852E-01-9.679166953E-01+
*       -2.181996797E-01               0
GRID*               8812               04.7748417267E-01-9.667467149E-01+
*       -2.173712282E-01               0
GRID*               8813               04.7716256884E-01-9.346634102E-01+
*       -1.855709080E-01               0
GRID*               8814               0-5.625008623E-01-7.424308138E-01+
*       1.3316743453E+00               0
GRID*               8815               02.4167926004E-01-9.564687843E-01+
*       -3.030447221E-02               0
GRID*               8816               02.7081250122E-01-9.745864282E-01+
*       -3.082758508E-02               0
GRID*               8817               04.3791366845E-01-7.725481803E-01+
*       -1.222415730E-01               0
GRID*               8818               08.0289404125E-01-9.734841171E-01+
*       -3.174926341E-02               0
GRID*               8819               01.6907755955E-012.6236968375E-01+
*       -1.275431962E-01               0
GRID*               8820               09.8480701154E-022.3326898760E-01+
*       -1.207900816E-01               0
GRID*               8821               0-8.018258520E-01-9.697820097E-01+
*       -2.250438048E-01               0
GRID*               8822               0-7.724334049E-01-9.711410146E-01+
*       -2.250095258E-01               0
GRID*               8823               0-8.299996208E-01-9.697820097E-01+
*       -1.650145699E-01               0
GRID*               8824               05.1603540382E-01-9.693055833E-01+
*       -1.468372162E-01               0
GRID*               8825               0-8.055213487E-01-8.761594604E-01+
*       -1.329190370E-01               0
GRID*               8826               03.5146930195E-029.6716347444E-01+
*       -2.188535873E-01               0
GRID*               8827               07.1923971493E-01-4.599718374E-01+
*       1.5999748621E+00               0
GRID*               8828               06.5674075735E-01-4.269108606E-01+
*       1.6174479132E+00               0
GRID*               8829               07.1923971493E-01-3.926424588E-01+
*       1.6323992159E+00               0
GRID*               8830               03.2891305382E-017.5418551520E-01+
*       -6.521550262E-02               0
GRID*               8831               03.1161413489E-029.1922543919E-01+
*       -1.337332732E-01               0
GRID*               8832               07.1813234312E-018.8744901464E-02+
*       -6.280677266E-02               0
GRID*               8833               07.2250946677E-019.5673720850E-02+
*       -1.250407081E-01               0
GRID*               8834               06.7274060716E-015.6576770183E-02+
*       -1.193556922E-01               0
GRID*               8835               0-4.045744051E-019.6868923141E-01+
*       -2.189102311E-01               0
GRID*               8836               0-1.134997417E+006.3561991822E-01+
*       -1.775222319E-01               0
GRID*               8837               0-2.301022064E-018.8314752534E-01+
*       -3.033976512E-02               0
GRID*               8838               0-1.139387716E+00-6.701183858E-01+
*       -1.576764150E-01               0
GRID*               8839               0-1.050255841E+00-8.738001351E-01+
*       -2.283660022E-01               0
GRID*               8840               0-7.191828777E-019.6198704243E-01+
*       2.6639272743E-01               0
GRID*               8841               0-7.192661005E-019.6968821488E-01+
*       3.0370287995E-01               0
GRID*               8842               0-5.716487632E-01-2.580925156E-01+
*       1.1071973752E+00               0
GRID*               8843               0-5.436155862E-01-2.328893231E-01+
*       1.1375983252E+00               0
GRID*               8844               0-5.640722879E-01-2.322275778E-01+
*       1.0957456862E+00               0
GRID*               8845               0-6.556462761E-01-2.489152674E-01+
*       1.0695158449E+00               0
GRID*               8846               0-6.854509781E-01-2.752753704E-01+
*       1.0820463829E+00               0
GRID*               8847               0-6.211809148E-01-2.709972480E-01+
*       1.1053495624E+00               0
GRID*               8848               0-6.270556136E-012.7523974150E-01+
*       1.9758126442E-01               0
GRID*               8849               0-5.622395002E-013.0871439822E-01+
*       2.0399469522E-01               0
GRID*               8850               0-6.268388255E-013.1006694899E-01+
*       2.0001167079E-01               0
GRID*               8851               0-6.246957886E-012.9035426725E-01+
*       2.3492356661E-01               0
GRID*               8852               0-6.227013570E-01-4.566806707E-01+
*       4.7327708493E-01               0
GRID*               8853               0-1.016734720E+006.0688688989E-01+
*       -2.286529552E-01               0
GRID*               8854               0-8.481503908E-016.0569493837E-01+
*       -9.145844249E-02               0
GRID*               8855               0-6.593758502E-01-4.899041861E-01+
*       6.4261522854E-01               0
GRID*               8856               0-6.592363870E-01-4.937385880E-01+
*       6.7914281502E-01               0
GRID*               8857               0-6.544910825E-014.4310601827E-01+
*       1.4990367377E+00               0
GRID*               8858               0-6.563252659E-01-2.267419526E-01+
*       1.0837796779E+00               0
GRID*               8859               0-5.436155862E-01-2.360149886E-01+
*       1.0713600106E+00               0
GRID*               8860               0-6.061141245E-01-2.360105350E-01+
*       1.0713636577E+00               0
GRID*               8861               0-6.548034782E-01-3.106173199E-01+
*       1.0088470395E+00               0
GRID*               8862               0-5.309075216E-01-1.250776958E-01+
*       1.1325325501E+00               0
GRID*               8863               0-5.309075216E-01-1.095528926E-01+
*       1.1904347173E+00               0
GRID*               8864               0-5.304986934E-011.1543583089E-02+
*       1.1523128662E+00               0
GRID*               8865               0-1.501771617E-01-3.939976980E-01+
*       -1.308545689E-01               0
GRID*               8866               07.0286155390E-01-9.685856541E-01+
*       -2.237876054E-01               0
GRID*               8867               0-8.650308842E-017.6785978755E-01+
*       -2.103228335E-02               0
GRID*               8868               0-8.650313942E-017.6786105610E-01+
*       -6.269879163E-02               0
GRID*               8869               0-8.554824750E-017.9285771247E-01+
*       -4.157482604E-02               0
GRID*               8870               0-8.872155798E-019.7465338282E-01+
*       -3.287779674E-02               0
GRID*               8871               07.0590625250E-01-9.410439897E-01+
*       -3.264694736E-02               0
GRID*               8872               07.1818736429E-01-9.594523856E-01+
*       1.8233414058E-02               0
GRID*               8873               0-1.150837891E+006.8843716219E-01+
*       -1.142518819E-01               0
GRID*               8874               0-1.115768704E+006.4024285382E-01+
*       -1.356630692E-01               0
GRID*               8875               0-1.198462991E+007.8194619223E-01+
*       -5.210131360E-02               0
GRID*               8876               0-1.142857595E+007.9961805460E-01+
*       -4.136065801E-02               0
GRID*               8877               0-8.091455812E-016.4457391129E-01+
*       -9.303484043E-02               0
GRID*               8878               08.5051530651E-01-6.244171422E-01+
*       -7.928283626E-02               0
GRID*               8879               0-8.568570710E-017.0788545429E-01+
*       -2.287584915E-01               0
GRID*               8880               0-8.425162312E-017.2978054839E-01+
*       -2.081363889E-01               0
GRID*               8881               0-8.679638071E-017.9182705591E-01+
*       -2.280449169E-01               0
GRID*               8882               0-8.679530218E-017.5322237939E-01+
*       -1.863784058E-01               0
GRID*               8883               0-1.149273177E+005.1259838173E-01+
*       -3.159499193E-02               0
GRID*               8884               0-1.117176714E+005.1133877982E-01+
*       -8.968662978E-02               0
GRID*               8885               0-1.148726913E+004.7579851548E-01+
*       -3.046782122E-02               0
GRID*               8886               0-1.183093942E+005.0772291192E-01+
*       -6.206281315E-02               0
GRID*               8887               0-1.116630451E+004.7453891358E-01+
*       -8.855945907E-02               0
GRID*               8888               01.1372329017E+00-9.029653066E-01+
*       -1.029944898E-01               0
GRID*               8889               01.1171784228E+00-8.654530586E-01+
*       -9.249921410E-02               0
GRID*               8890               01.1386769927E+00-8.827562692E-01+
*       -7.301391972E-02               0
GRID*               8891               0-8.720330142E-01-8.104217718E-01+
*       -2.292499855E-01               0
GRID*               8892               0-9.210244119E-01-9.355986338E-01+
*       -2.286985475E-01               0
GRID*               8893               0-9.147821200E-01-8.987770323E-01+
*       -2.066334228E-01               0
GRID*               8894               0-8.299001144E-01-8.527347838E-01+
*       -9.729120445E-02               0
GRID*               8895               0-9.171184552E-01-9.124554872E-01+
*       -7.318292529E-02               0
GRID*               8896               0-1.133987926E+00-7.163026447E-01+
*       -2.295510285E-01               0
GRID*               8897               0-1.133976667E+00-7.549552328E-01+
*       -1.878843600E-01               0
GRID*               8898               0-1.133987939E+00-7.163026827E-01+
*       -1.878843633E-01               0
GRID*               8899               0-1.217430866E+00-8.421953969E-01+
*       -1.146202095E-01               0
GRID*               8900               0-1.217775935E+00-8.633729791E-01+
*       -8.432444132E-02               0
GRID*               8901               08.9944016431E-01-9.008958263E-01+
*       -1.785577529E-01               0
GRID*               8902               0-1.165760479E+00-4.770713727E-01+
*       -1.186281965E-01               0
GRID*               8903               0-1.139004799E+00-5.195639756E-01+
*       -1.500745390E-01               0
GRID*               8904               0-1.223244320E+00-5.040310644E-01+
*       -1.564463425E-01               0
GRID*               8905               0-1.232086798E+00-4.558825997E-01+
*       -1.613909339E-01               0
GRID*               8906               0-1.147847277E+00-4.714155109E-01+
*       -1.550191304E-01               0
GRID*               8907               0-1.167623096E+00-7.289347332E-01+
*       -1.791273677E-01               0
GRID*               8908               05.9244645840E-019.7127164112E-01+
*       3.4210552259E-01               0
GRID*               8909               09.0707788816E-018.6335864504E-01+
*       -2.175489221E-02               0
GRID*               8910               05.5624224451E-019.6801977585E-01+
*       -2.122944694E-01               0
GRID*               8911               05.1637816456E-019.6770828878E-01+
*       -2.176137032E-01               0
GRID*               8912               02.8639446910E-014.5418779386E-01+
*       -5.443205703E-02               0
GRID*               8913               04.7970169681E-019.6439297775E-01+
*       -2.182683656E-01               0
GRID*               8914               05.1825929284E-013.0519732541E-01+
*       -5.540249660E-02               0
GRID*               8915               07.1749830481E-019.6046490501E-01+
*       1.8884796889E-02               0
GRID*               8916               04.4320111089E-016.8277214004E-01+
*       -1.272240634E-01               0
GRID*               8917               01.0751008123E+008.6810933089E-01+
*       -6.325205013E-02               0
GRID*               8918               06.2829598991E-012.7204382660E-01+
*       1.5598704660E+00               0
GRID*               8919               05.6478766648E-012.4934266955E-01+
*       1.5692244203E+00               0
GRID*               8920               06.2673362691E-012.4138461937E-01+
*       1.5368728950E+00               0
GRID*               8921               06.2699889762E-011.6334054224E-01+
*       1.5696999725E+00               0
GRID*               8922               06.2415719157E-011.7247017154E-01+
*       1.5306118512E+00               0
GRID*               8923               06.8699752155E-011.8334291917E-01+
*       3.5754542159E-01               0
GRID*               8924               05.3138263352E-012.7553280228E-01+
*       4.2377558147E-01               0
GRID*               8925               05.3110277866E-012.4196333269E-01+
*       4.2086972910E-01               0
GRID*               8926               0-2.622135858E-011.8311823163E-01+
*       -1.876837885E-01               0
GRID*               8927               0-2.268155811E-011.6647390370E-01+
*       -1.242357628E-01               0
GRID*               8928               0-2.548358339E-012.2459699535E-01+
*       -1.225979909E-01               0
GRID*               8929               01.8008227590E-019.6745208078E-01+
*       -1.553919144E-01               0
GRID*               8930               06.5625672644E-01-2.164838345E-01+
*       1.6866156336E+00               0
GRID*               8931               05.3246130483E-019.6172944517E-01+
*       2.6602271447E-01               0
GRID*               8932               05.3010065843E-019.7127164112E-01+
*       3.0522649186E-01               0
GRID*               8933               06.8454232253E-012.1097336940E-01+
*       2.8329823283E-01               0
GRID*               8934               05.5923622168E-018.6832828091E-01+
*       4.0282970608E-01               0
GRID*               8935               03.2594453529E-016.7799979550E-01+
*       -6.521550262E-02               0
GRID*               8936               05.3178794829E-01-9.321654210E-01+
*       1.0031166574E+00               0
GRID*               8937               05.3010065843E-019.7127164112E-01+
*       3.8022649186E-01               0
GRID*               8938               05.3010065843E-019.1093247552E-01+
*       3.4921179045E-01               0
GRID*               8939               06.5411081212E-013.8012648708E-01+
*       5.9288199192E-01               0
GRID*               8940               07.1885493297E-018.0499750732E-02+
*       1.7087186806E+00               0
GRID*               8941               05.3085177160E-01-9.597843339E-01+
*       1.8293684557E-02               0
GRID*               8942               01.2159088000E+009.7776965573E-01+
*       -2.358513231E-02               0
GRID*               8943               01.1902926356E+009.2834995984E-01+
*       -5.486983015E-02               0
GRID*               8944               01.1676545157E+009.2450979865E-01+
*       -2.358513231E-02               0
GRID*               8945               0-6.507539135E-01-7.367040433E-01+
*       1.2163667118E+00               0
GRID*               8946               0-8.933800874E-01-5.723392946E-01+
*       -1.734806745E-01               0
GRID*               8947               08.3945216668E-018.8489494503E-01+
*       -6.595394248E-02               0
GRID*               8948               08.7179829656E-018.1422971586E-01+
*       -2.036893714E-02               0
GRID*               8949               08.6529981966E-017.7493477748E-01+
*       -2.078718112E-02               0
GRID*               8950               08.5598317199E-018.0054652792E-01+
*       -4.115611826E-02               0
GRID*               8951               08.6529980557E-017.7493472722E-01+
*       -6.245384960E-02               0
GRID*               8952               01.4674939383E-019.1669080049E-01+
*       -3.143068782E-02               0
GRID*               8953               05.2322800354E-019.7693625225E-01+
*       4.2472134705E-01               0
GRID*               8954               05.8557380351E-019.7693625225E-01+
*       3.8660037778E-01               0
GRID*               8955               05.8246422522E-019.0560369877E-01+
*       4.0856575453E-01               0
GRID*               8956               06.0826839653E-011.1631650313E-02+
*       2.6462287501E-01               0
GRID*               8957               03.1473832953E-019.6557830134E-01+
*       -3.178412129E-02               0
GRID*               8958               03.0894569662E-018.9827381817E-01+
*       -8.346627065E-02               0
GRID*               8959               07.9974234754E-018.0370271785E-01+
*       -2.078718112E-02               0
GRID*               8960               08.3231936930E-017.8912227186E-01+
*       -4.382841794E-02               0
GRID*               8961               07.1921201011E-018.4966295985E-01+
*       1.2224890236E+00               0
GRID*               8962               06.5671087411E-018.3218942852E-01+
*       1.2555500698E+00               0
GRID*               8963               06.8828286790E-017.9727061777E-01+
*       1.2258708674E+00               0
GRID*               8964               05.3109281135E-019.6959250893E-01+
*       7.0444415356E-01               0
GRID*               8965               05.4528437364E-01-4.191933160E-01+
*       -6.973214793E-02               0
GRID*               8966               05.9109129391E-01-1.142394731E-01+
*       2.8611147977E-01               0
GRID*               8967               06.5609240579E-01-3.926523890E-01+
*       1.6274790945E+00               0
GRID*               8968               07.1859136337E-01-3.583839872E-01+
*       1.6424303971E+00               0
GRID*               8969               06.8783107829E-01-3.856854428E-01+
*       1.5939559037E+00               0
GRID*               8970               06.8660726194E-011.7391765810E-01+
*       1.1468035972E+00               0
GRID*               8971               07.1669014960E-01-3.234201461E-01+
*       1.6561632359E+00               0
GRID*               8972               06.5419119202E-01-3.576885480E-01+
*       1.6412119333E+00               0
GRID*               8973               0-9.552225103E-01-5.687026389E-01+
*       -1.610876063E-01               0
GRID*               8974               06.1360364692E-012.4009503949E-01+
*       1.4404949978E+00               0
GRID*               8975               01.3035317200E-018.8368395025E-01+
*       -1.026960266E-01               0
GRID*               8976               0-3.838248157E-029.6716347444E-01+
*       -2.188535873E-01               0
GRID*               8977               08.5824596881E-018.6657148530E-01+
*       -1.696962789E-01               0
GRID*               8978               0-1.139035636E+00-5.487342692E-01+
*       -8.723078828E-02               0
GRID*               8979               08.9463396593E-018.3883162579E-01+
*       -2.288290796E-01               0
GRID*               8980               0-1.113565179E+00-6.674651878E-01+
*       -2.147055120E-02               0
GRID*               8981               05.7985919608E-013.0531388076E-01+
*       -5.474104839E-02               0
GRID*               8982               06.2990312292E-014.2750748627E-01+
*       -7.227217070E-02               0
GRID*               8983               06.8641032419E-01-4.115404911E-01+
*       8.7864060907E-01               0
GRID*               8984               05.3081321237E-013.2323416477E-01+
*       4.9874420632E-01               0
GRID*               8985               05.9350449441E-011.4302715887E-01+
*       3.6993719764E-01               0
GRID*               8986               05.6432448030E-011.5835777132E-01+
*       3.4143716257E-01               0
GRID*               8987               05.9054758624E-011.3893398161E-01+
*       2.8041953821E-01               0
GRID*               8988               0-5.997546147E-01-3.843138132E-01+
*       1.0377716297E+00               0
GRID*               8989               0-6.021644594E-01-3.183797225E-01+
*       9.9180769252E-01               0
GRID*               8990               05.3331921660E-012.1868513372E-01+
*       4.0507960790E-01               0
GRID*               8991               05.9582067825E-012.1868068020E-01+
*       4.0507596029E-01               0
GRID*               8992               0-1.162302163E+00-8.736460783E-01+
*       -1.992842053E-01               0
GRID*               8993               07.1907672974E-01-3.418213727E-02+
*       3.4601833130E-01               0
GRID*               8994               06.7055109029E-01-3.286848010E-02+
*       2.6366028435E-01               0
GRID*               8995               06.5657543479E-01-3.417707162E-02+
*       3.4601783785E-01               0
GRID*               8996               0-8.387874757E-017.7025175994E-01+
*       -2.054254269E-02               0
GRID*               8997               05.9133635851E-011.1219597514E-01+
*       2.7270044643E-01               0
GRID*               8998               0-1.124440631E+00-8.158009832E-01+
*       -2.285563643E-01               0
GRID*               8999               0-1.124440649E+00-8.158009323E-01+
*       -1.868896958E-01               0
GRID*               9000               0-1.139583259E+00-8.031901696E-01+
*       -2.085243063E-01               0
GRID*               9001               0-1.040011823E+009.1090055455E-01+
*       -7.313927121E-02               0
GRID*               9002               0-9.765782417E-019.0972066004E-01+
*       -7.223843026E-02               0
GRID*               9003               07.1669014960E-01-2.520100936E-01+
*       1.6781902555E+00               0
GRID*               9004               07.1957963235E-01-2.152169260E-01+
*       1.6868623013E+00               0
GRID*               9005               06.4932194891E-01-3.813511724E-01+
*       1.5290201317E+00               0
GRID*               9006               06.4997030047E-01-4.156096440E-01+
*       1.5189889505E+00               0
GRID*               9007               06.2431664592E-01-3.386817344E-01+
*       1.6110445862E+00               0
GRID*               9008               05.9169014960E-01-3.208693136E-01+
*       1.5790248934E+00               0
GRID*               9009               06.2287886891E-01-3.044242657E-01+
*       1.6251745839E+00               0
GRID*               9010               0-9.505864386E-018.7617584007E-01+
*       -2.288549372E-01               0
GRID*               9011               0-9.138686321E-018.6425252652E-01+
*       -1.871885667E-01               0
GRID*               9012               0-9.138708466E-018.6425415856E-01+
*       -2.288549372E-01               0
GRID*               9013               0-8.597345648E-01-7.832142936E-01+
*       -2.284806294E-01               0
GRID*               9014               0-8.597458508E-01-7.446108634E-01+
*       -2.284806294E-01               0
GRID*               9015               01.2264453925E+009.7671403059E-01+
*       -1.873686784E-01               0
GRID*               9016               01.2264453925E+009.7671403059E-01+
*       -1.248686784E-01               0
GRID*               9017               01.1787576182E+009.7671403059E-01+
*       -1.250236584E-01               0
GRID*               9018               07.1732211583E-019.6847502136E-01+
*       7.0165862968E-02               0
GRID*               9019               07.8468362440E-017.7562541291E-01+
*       -9.432595455E-02               0
GRID*               9020               01.0527671194E+00-6.160372762E-01+
*       -2.287083480E-01               0
GRID*               9021               06.5546642936E-01-4.584269886E-01+
*       1.5996249529E+00               0
GRID*               9022               0-1.139550789E+00-8.344235859E-01+
*       -1.352599261E-01               0
GRID*               9023               06.9088223534E-01-2.400157308E-01+
*       1.2003301323E+00               0
GRID*               9024               05.8516310409E-01-3.899753681E-01+
*       8.3711698513E-01               0
GRID*               9025               05.7676302036E-01-4.809728742E-01+
*       8.2852119650E-01               0
GRID*               9026               05.5316310350E-01-4.138591662E-01+
*       8.6586114221E-01               0
GRID*               9027               0-1.151083228E+00-7.820699934E-01+
*       -1.573833696E-01               0
GRID*               9028               0-1.151094499E+00-7.434174433E-01+
*       -1.573833729E-01               0
GRID*               9029               0-1.166197388E+00-7.483380346E-01+
*       -1.786010667E-01               0
GRID*               9030               07.1560788734E-012.1025750990E-01+
*       4.0177122164E-01               0
GRID*               9031               07.1560788734E-012.5575191618E-01+
*       4.3100913661E-01               0
GRID*               9032               06.5310711805E-012.1026016442E-01+
*       4.0177264478E-01               0
GRID*               9033               07.1827498358E-012.8037254683E-01+
*       4.5435865591E-01               0
GRID*               9034               05.3081321237E-012.8781919560E-01+
*       4.5787399436E-01               0
GRID*               9035               07.1775681112E-011.8523407556E-01+
*       3.8769192691E-01               0
GRID*               9036               06.5350653136E-018.9825428329E-01+
*       3.9328617095E-01               0
GRID*               9037               0-1.216511487E+00-6.951815622E-01+
*       -6.184430263E-02               0
GRID*               9038               05.9958866658E-014.0412860285E-01+
*       4.4862656834E-01               0
GRID*               9039               05.6203377727E-013.0101377547E-01+
*       3.0901155540E-01               0
GRID*               9040               05.3344284817E-012.0249953741E-01+
*       1.6118224796E+00               0
GRID*               9041               05.9565407931E-011.8736594154E-01+
*       1.5975613817E+00               0
GRID*               9042               08.0184895019E-017.4775473059E-01+
*       -9.207189885E-02               0
GRID*               9043               07.1900777345E-013.5309161666E-01+
*       9.6210797847E-01               0
GRID*               9044               06.6435859097E-017.4394914761E-01+
*       1.2331585737E+00               0
GRID*               9045               01.0518520696E+00-6.270062234E-01+
*       -2.084126026E-02               0
GRID*               9046               01.2242331880E+00-6.488728681E-01+
*       -2.181914497E-01               0
GRID*               9047               06.6179267428E-01-1.167233781E-01+
*       1.6107321825E+00               0
GRID*               9048               01.1233072351E+00-8.066759172E-01+
*       -2.037753852E-02               0
GRID*               9049               01.1333062863E+00-7.742971721E-01+
*       -2.148379565E-02               0
GRID*               9050               01.1377129290E+00-7.924044235E-01+
*       -4.186133418E-02               0
GRID*               9051               01.1330189682E+00-8.684506298E-01+
*       -7.186010069E-02               0
GRID*               9052               05.3331921660E-011.7319072744E-01+
*       3.7584169293E-01               0
GRID*               9053               05.3100526371E-011.4302450434E-01+
*       3.6993577449E-01               0
GRID*               9054               09.3337872514E-016.2456226286E-01+
*       -2.287849081E-01               0
GRID*               9055               01.1360973156E+008.7616018077E-01+
*       -7.295108238E-02               0
GRID*               9056               01.1565234665E+009.1279856362E-01+
*       -8.180619974E-02               0
GRID*               9057               01.0938531109E+008.8779813618E-01+
*       -9.218788644E-02               0
GRID*               9058               01.0949427164E+008.6206022922E-01+
*       -6.294529242E-02               0
GRID*               9059               01.1576130720E+008.8706065666E-01+
*       -5.256360571E-02               0
GRID*               9060               01.1153688673E+008.9869861207E-01+
*       -7.180040977E-02               0
GRID*               9061               09.2491517714E-01-9.845571468E-01+
*       -9.666106798E-02               0
GRID*               9062               05.7458639395E-01-8.820602291E-01+
*       5.4886715724E-01               0
GRID*               9063               04.5003842626E-01-9.749304122E-01+
*       -3.031095805E-02               0
GRID*               9064               07.1907779619E-013.6638043606E-01+
*       9.3635934281E-01               0
GRID*               9065               07.1818736429E-01-9.058836409E-01+
*       6.8354815794E-02               0
GRID*               9066               06.6171111482E-014.8369328450E-01+
*       8.4006939365E-01               0
GRID*               9067               01.1759502956E+006.2173420537E-01+
*       -2.195612306E-01               0
GRID*               9068               05.9309765038E-013.3392818327E-01+
*       9.9091904911E-01               0
GRID*               9069               05.9436552525E-013.9809730155E-01+
*       1.0391767722E+00               0
GRID*               9070               05.6110322588E-013.6310529047E-01+
*       9.9338636582E-01               0
GRID*               9071               05.9427392618E-014.1302329383E-01+
*       1.0061668524E+00               0
GRID*               9072               0-1.151536992E+007.2299655867E-01+
*       -1.357598345E-01               0
GRID*               9073               0-1.183512376E+007.0012095820E-01+
*       -1.250117196E-01               0
GRID*               9074               0-9.023923777E-018.4943375189E-01+
*       -1.867877255E-01               0
GRID*               9075               01.2351092587E+007.1379357497E-01+
*       -2.288323326E-01               0
GRID*               9076               01.1985474004E+007.3418117052E-01+
*       -2.288323326E-01               0
GRID*               9077               01.2036206437E+007.1840444875E-01+
*       -2.064104306E-01               0
GRID*               9078               0-3.325426458E-019.1975607638E-01+
*       -9.407774237E-02               0
GRID*               9079               0-3.144129162E-019.1552527884E-01+
*       -1.573475123E-01               0
GRID*               9080               0-3.494724627E-019.4555275905E-01+
*       -1.239695918E-01               0
GRID*               9081               0-3.678825187E-019.6939567683E-01+
*       -2.166220795E-01               0
GRID*               9082               0-3.306792359E-019.4066141804E-01+
*       -1.849213972E-01               0
GRID*               9083               05.9363597523E-019.0670118108E-01+
*       6.9327077586E-01               0
GRID*               9084               01.1166864270E+00-6.748265057E-01+
*       -2.260785190E-02               0
GRID*               9085               0-3.414661976E-016.6211802929E-02+
*       -5.531224116E-02               0
GRID*               9086               01.2255504774E+00-9.767490434E-01+
*       -6.273079386E-02               0
GRID*               9087               01.1784650891E+00-9.568165257E-01+
*       -9.301920623E-02               0
GRID*               9088               01.1794563023E+00-7.155424902E-01+
*       -2.074452388E-02               0
GRID*               9089               01.2012658070E+00-7.165826757E-01+
*       -4.257719599E-02               0
GRID*               9090               06.5590329981E-01-8.964625265E-01+
*       3.6373174144E-01               0
GRID*               9091               01.1514934479E+00-7.774552739E-01+
*       -2.037753852E-02               0
GRID*               9092               01.1273446753E+00-6.913498676E-01+
*       -6.192526892E-02               0
GRID*               9093               01.1273451861E+00-6.913511334E-01+
*       -2.025876064E-02               0
GRID*               9094               01.1334974529E+00-7.164610755E-01+
*       -2.078998075E-02               0
GRID*               9095               01.1334969421E+00-7.164598096E-01+
*       -6.245648903E-02               0
GRID*               9096               01.1419646390E+00-6.964504193E-01+
*       -4.104874138E-02               0
GRID*               9097               05.3410826256E-01-2.565366280E-01+
*       4.3084653745E-01               0
GRID*               9098               05.3410826256E-01-2.110422226E-01+
*       4.0160862110E-01               0
GRID*               9099               01.2264453925E+009.7671403059E-01+
*       -6.236867839E-02               0
GRID*               9100               01.2232218057E+008.7490148216E-01+
*       -2.194369578E-01               0
GRID*               9101               01.0571396309E+008.9971825952E-01+
*       -9.218816857E-02               0
GRID*               9102               01.0955269632E+009.0474771374E-01+
*       -7.210716749E-02               0
GRID*               9103               04.8142157701E-011.8835457501E-01+
*       -1.177299869E-01               0
GRID*               9104               0-2.201074930E-019.6842845798E-01+
*       -2.185099143E-01               0
GRID*               9105               0-2.588128182E-019.0779665460E-01+
*       -2.185099143E-01               0
GRID*               9106               0-1.223244320E+00-5.424926029E-01+
*       -2.189463425E-01               0
GRID*               9107               0-2.852399628E-012.4287698975E-01+
*       -1.212191128E-01               0
GRID*               9108               0-2.926177147E-012.0139822603E-01+
*       -1.863049105E-01               0
GRID*               9109               0-2.889090209E-011.6671030059E-01+
*       -1.239886990E-01               0
GRID*               9110               0-2.446489265E-011.4928822297E-01+
*       -1.876389020E-01               0
GRID*               9111               0-8.732186076E-016.8814304528E-01+
*       -2.295686163E-01               0
GRID*               9112               0-1.080582221E+009.2586198353E-01+
*       -1.473133700E-01               0
GRID*               9113               0-1.059662225E+008.8919346181E-01+
*       -1.570782706E-01               0
GRID*               9114               0-1.055417998E+009.0714662653E-01+
*       -1.768507457E-01               0
GRID*               9115               0-1.050547392E+008.7445414415E-01+
*       -2.291239936E-01               0
GRID*               9116               0-7.901505271E-017.5291404436E-01+
*       -1.737407262E-01               0
GRID*               9117               0-8.000520807E-017.7835499308E-01+
*       -1.743601321E-01               0
GRID*               9118               0-6.482033217E-014.8685000838E-01+
*       8.1416217749E-01               0
GRID*               9119               0-1.039954977E+005.4089594137E-01+
*       -7.930433051E-02               0
GRID*               9120               0-1.216820103E+005.4149215831E-01+
*       -3.159499193E-02               0
GRID*               9121               0-1.216273839E+005.0469229207E-01+
*       -3.046782122E-02               0
GRID*               9122               05.9190907337E-01-4.044693274E-01+
*       4.4670221747E-01               0
GRID*               9123               0-9.188126670E-015.7701629249E-01+
*       -1.669531983E-01               0
GRID*               9124               06.5669584730E-01-2.876351345E-01+
*       4.5721162017E-01               0
GRID*               9125               06.5619884261E-01-3.932991452E-01+
*       4.2954799703E-01               0
GRID*               9126               06.8782902898E-01-3.154126925E-01+
*       4.1931330253E-01               0
GRID*               9127               01.2240668272E+00-5.806728721E-01+
*       -3.070697007E-02               0
GRID*               9128               0-8.331480033E-01-9.710908958E-01+
*       -2.216485762E-01               0
GRID*               9129               0-9.066774150E-01-9.710908958E-01+
*       -2.216485762E-01               0
GRID*               9130               0-8.613217721E-01-9.710908958E-01+
*       -1.616193413E-01               0
GRID*               9131               0-5.876333854E-01-9.006137063E-01+
*       4.6762281999E-01               0
GRID*               9132               0-2.962040806E-017.8503001529E-01+
*       -1.216600459E-01               0
GRID*               9133               0-5.895465755E-018.5472419767E-01+
*       3.0824995594E-01               0
GRID*               9134               0-6.874991377E-017.4243081424E-01+
*       1.3316743447E+00               0
GRID*               9135               01.2167738743E+00-8.047549428E-01+
*       -1.137143057E-01               0
GRID*               9136               01.2186590337E+00-7.882670195E-01+
*       -8.365543901E-02               0
GRID*               9137               0-5.311200643E-01-9.708342836E-01+
*       4.8554404979E-01               0
GRID*               9138               0-6.533758535E-01-2.314798590E-01+
*       4.1641089961E-01               0
GRID*               9139               0-7.193306102E-01-3.532445513E-01+
*       9.6146455146E-01               0
GRID*               9140               0-7.188002256E-01-3.288678405E-01+
*       9.8748828178E-01               0
GRID*               9141               0-7.181477378E-01-2.489197209E-01+
*       1.0695121978E+00               0
GRID*               9142               0-7.193306102E-01-3.757094261E-01+
*       9.1227181058E-01               0
GRID*               9143               0-7.186645124E-014.1999210011E-02+
*       1.1524783044E+00               0
GRID*               9144               0-6.875473912E-01-7.195329484E-02+
*       3.2305908011E-01               0
GRID*               9145               0-5.879987338E-01-1.470786232E-02+
*       2.6350254430E-01               0
GRID*               9146               0-5.324571582E-014.7117479101E-02+
*       3.4562542919E-01               0
GRID*               9147               0-7.198791111E-01-9.492779513E-01+
*       9.3061120493E-01               0
GRID*               9148               0-7.186215068E-017.1985615269E-02+
*       1.1469733573E+00               0
GRID*               9149               0-5.593190832E-01-3.020160132E-01+
*       1.0886198754E+00               0
GRID*               9150               0-5.913762993E-01-3.812879685E-01+
*       1.0578754159E+00               0
GRID*               9151               0-6.302742152E-011.9461768781E-01+
*       2.1997305986E-01               0
GRID*               9152               01.1166556966E+00-6.399621399E-01+
*       -9.410176993E-02               0
GRID*               9153               01.1183118772E+00-5.790203785E-01+
*       -1.124638864E-01               0
GRID*               9154               01.1371896475E+00-6.346876303E-01+
*       -7.504323728E-02               0
GRID*               9155               0-7.187361604E-01-2.108222007E-01+
*       4.0269604256E-01               0
GRID*               9156               0-7.185659241E-01-3.894663063E-01+
*       8.8713429964E-01               0
GRID*               9157               0-5.312236566E-019.6747369822E-01+
*       2.9815253470E-01               0
GRID*               9158               0-3.846900057E-019.7615708222E-01+
*       -9.232143812E-02               0
GRID*               9159               0-5.937794178E-018.0407833368E-02+
*       1.7062670994E+00               0
GRID*               9160               0-5.626930844E-017.1565271451E-02+
*       3.2252595853E-01               0
GRID*               9161               0-1.222521347E+00-4.993037403E-01+
*       -3.135406069E-02               0
GRID*               9162               0-5.310306562E-019.6781725042E-01+
*       7.0401423779E-01               0
GRID*               9163               0-1.133286285E+008.7763102654E-01+
*       -1.771481272E-01               0
GRID*               9164               0-1.154206281E+009.1429954827E-01+
*       -1.673832266E-01               0
GRID*               9165               0-1.150580298E+008.8945453321E-01+
*       -1.977286850E-01               0
GRID*               9166               0-1.178065865E+009.5082214323E-01+
*       -9.403523830E-02               0
GRID*               9167               06.2689044403E-01-5.169091671E-01+
*       2.4736573626E-01               0
GRID*               9168               0-1.106091150E+00-1.178267032E-01+
*       -1.576293203E-01               0
GRID*               9169               0-8.144047162E-017.9506459769E-01+
*       -1.116487430E-01               0
GRID*               9170               0-5.320585652E-013.7997676440E-01+
*       5.9286574599E-01               0
GRID*               9171               0-6.344870427E-012.3861314459E-01+
*       3.9191806842E-01               0
GRID*               9172               0-1.217513755E+00-3.953326400E-01+
*       -1.556250914E-01               0
GRID*               9173               0-1.227754212E+00-4.284095890E-01+
*       -1.593891775E-01               0
GRID*               9174               0-8.606075108E-018.9981047386E-01+
*       -1.372102530E-01               0
GRID*               9175               0-8.985542895E-019.0073050378E-01+
*       -1.791987817E-01               0
GRID*               9176               0-8.632260986E-018.7643165021E-01+
*       -1.657213457E-01               0
GRID*               9177               0-6.149431736E-01-9.062016570E-01+
*       1.1011725414E-01               0
GRID*               9178               06.2651201667E-01-2.002556359E-01+
*       3.5946827037E-01               0
GRID*               9179               0-1.161595213E+00-6.664664059E-01+
*       -1.785426619E-01               0
GRID*               9180               0-1.216273839E+004.2776921514E-01+
*       -3.046782122E-02               0
GRID*               9181               0-1.218350522E+002.6295868713E-01+
*       -2.193242079E-01               0
GRID*               9182               0-1.218350522E+003.3988176405E-01+
*       -2.193242079E-01               0
GRID*               9183               01.1021203148E+006.5209807907E-01+
*       -2.028553353E-02               0
GRID*               9184               01.1522584614E+007.6346018329E-01+
*       -1.570054484E-01               0
GRID*               9185               01.1522700265E+007.2485356513E-01+
*       -1.570058446E-01               0
GRID*               9186               01.1673299199E+007.3087362037E-01+
*       -1.771203749E-01               0
GRID*               9187               06.2736048582E-014.1396165816E-01+
*       6.0037229646E-01               0
GRID*               9188               06.5575006464E-014.7849327056E-01+
*       6.2635158645E-01               0
GRID*               9189               01.1176682405E+008.3079945025E-01+
*       -2.127890788E-02               0
GRID*               9190               01.0949448336E+008.6205867823E-01+
*       -2.127890788E-02               0
GRID*               9191               0-5.308289425E-017.8993704078E-01+
*       1.3177818773E+00               0
GRID*               9192               0-7.272913746E-017.3554732590E-01+
*       1.3949383737E+00               0
GRID*               9193               0-6.576299098E-016.9179299009E-01+
*       1.3351958675E+00               0
GRID*               9194               0-7.272913746E-017.2053513955E-01+
*       1.3247837570E+00               0
GRID*               9195               01.0391181544E+009.0614771942E-01+
*       -9.262918782E-02               0
GRID*               9196               01.0630357818E+009.3889379284E-01+
*       -7.238985518E-02               0
GRID*               9197               01.0775054867E+009.1117717365E-01+
*       -7.254818674E-02               0
GRID*               9198               0-6.989039931E-01-9.711410146E-01+
*       -2.250095258E-01               0
GRID*               9199               0-7.718864055E-01-9.726424868E-01+
*       -3.616145217E-02               0
GRID*               9200               0-7.472155872E-01-9.614836691E-01+
*       -3.679798144E-02               0
GRID*               9201               05.3344284817E-012.5141334339E-01+
*       1.6783057916E+00               0
GRID*               9202               08.6371422812E-01-7.691699986E-01+
*       -2.044812244E-02               0
GRID*               9203               08.6371421814E-01-7.691699630E-01+
*       -6.211478776E-02               0
GRID*               9204               08.7232123287E-01-8.140996747E-01+
*       -2.196451996E-02               0
GRID*               9205               08.5489795854E-01-7.945823298E-01+
*       -4.241264240E-02               0
GRID*               9206               08.7232122289E-01-8.140996391E-01+
*       -6.363118528E-02               0
GRID*               9207               08.6370296539E-01-7.305173460E-01+
*       -2.044812244E-02               0
GRID*               9208               09.2484162889E-01-8.697575241E-01+
*       -2.133363811E-02               0
GRID*               9209               0-7.149542779E-01-9.607958308E-01+
*       -2.534027093E-02               0
GRID*               9210               01.0686028783E+009.8001669826E-01+
*       -2.197458020E-01               0
GRID*               9211               09.9507346652E-019.8001669826E-01+
*       -2.197458020E-01               0
GRID*               9212               01.0462131538E+009.4084394510E-01+
*       -2.197458020E-01               0
GRID*               9213               0-7.174538251E-01-9.612667472E-01+
*       9.4630061320E-02               0
GRID*               9214               0-6.530130698E-01-9.612667472E-01+
*       5.6033648897E-02               0
GRID*               9215               0-8.851432093E-01-9.751995853E-01+
*       -3.213130007E-02               0
GRID*               9216               0-8.848646410E-01-9.602247522E-01+
*       -6.381052774E-02               0
GRID*               9217               0-9.997214317E-01-9.850251669E-01+
*       -3.167922766E-02               0
GRID*               9218               0-9.372032018E-01-9.537751616E-01+
*       -3.167922766E-02               0
GRID*               9219               08.6529156089E-016.9555907796E-01+
*       -2.285334467E-01               0
GRID*               9220               01.1335087491E+00-7.550645135E-01+
*       -2.078998075E-02               0
GRID*               9221               01.1581465103E+00-6.599921598E-01+
*       -1.780071442E-01               0
GRID*               9222               01.2269862701E+00-9.569467173E-01+
*       -3.094812372E-02               0
GRID*               9223               01.1810338278E+00-9.165873192E-01+
*       -3.094812372E-02               0
GRID*               9224               01.2269862701E+00-8.800236403E-01+
*       -3.094812372E-02               0
GRID*               9225               06.2766494926E-01-9.103495731E-01+
*       -1.195117339E-01               0
GRID*               9226               06.2507228054E-013.3723119322E-01+
*       1.6099981108E+00               0
GRID*               9227               05.9285262246E-011.5110312624E-01+
*       1.6061960984E+00               0
GRID*               9228               05.3189446343E-011.0579472183E-01+
*       1.7078891497E+00               0
GRID*               9229               05.3095957968E-016.8900564351E-02+
*       1.7088725844E+00               0
GRID*               9230               06.5668143151E-014.8369103284E-01+
*       6.6200420442E-01               0
GRID*               9231               06.5712004060E-013.9617320437E-01+
*       6.5500319090E-01               0
GRID*               9232               06.8830708014E-014.2254457874E-01+
*       6.3141787909E-01               0
GRID*               9233               07.1977178730E-012.9797710146E-01+
*       4.7437346912E-01               0
GRID*               9234               07.1961922350E-013.9617414640E-01+
*       6.5500627118E-01               0
GRID*               9235               05.3056057889E-014.0201300073E-01+
*       7.1070950196E-01               0
GRID*               9236               06.6128272768E-01-4.780210096E-03+
*       1.2316470272E+00               0
GRID*               9237               07.1896510659E-01-1.957995155E-01+
*       3.9077128125E-01               0
GRID*               9238               07.1921201011E-018.1229809502E-01+
*       1.2872072685E+00               0
GRID*               9239               0-1.235719088E+00-7.352369960E-01+
*       -2.277029723E-01               0
GRID*               9240               0-1.235719088E+00-7.705214348E-01+
*       -1.652029723E-01               0
GRID*               9241               06.0142194534E-017.4894023198E-01+
*       1.2109745415E+00               0
GRID*               9242               0-9.721569901E-01-8.964261765E-01+
*       -2.286985475E-01               0
GRID*               9243               0-1.126909247E+00-9.563225111E-01+
*       -1.881414965E-01               0
GRID*               9244               0-1.047516033E+00-9.732420907E-01+
*       -9.428813044E-02               0
GRID*               9245               0-1.118474725E+00-9.732420907E-01+
*       -9.425620351E-02               0
GRID*               9246               06.8706220801E-015.0524395514E-01+
*       6.0072956374E-01               0
GRID*               9247               05.3059741248E-013.3392775164E-01+
*       9.9091986173E-01               0
GRID*               9248               0-9.352357521E-019.7465338282E-01+
*       -9.556469325E-02               0
GRID*               9249               01.0440989166E+009.3799169245E-01+
*       -1.034386534E-01               0
GRID*               9250               01.0815255798E+009.4146956466E-01+
*       -2.192592737E-01               0
GRID*               9251               01.1039153043E+009.8064231782E-01+
*       -2.192592737E-01               0
GRID*               9252               01.0695770062E+009.6065901608E-01+
*       -1.890050757E-01               0
GRID*               9253               09.6732640036E-019.0652188718E-01+
*       -9.523076057E-02               0
GRID*               9254               09.5767293703E-019.2367837058E-01+
*       -7.519212256E-02               0
GRID*               9255               09.7230716261E-019.3836586021E-01+
*       -1.060402262E-01               0
GRID*               9256               06.1139163596E-011.6317299610E-01+
*       -1.182092693E-01               0
GRID*               9257               06.2392710394E-012.2559077687E-01+
*       3.7327260972E-01               0
GRID*               9258               06.9587254986E-015.5569929964E-01+
*       1.3881207802E+00               0
GRID*               9259               0-6.242699201E-013.6499463663E-01+
*       1.7143522034E-01               0
GRID*               9260               01.0191536897E+00-9.503056380E-01+
*       -1.656855760E-01               0
GRID*               9261               07.1919730895E-01-2.876395880E-01+
*       4.5721526779E-01               0
GRID*               9262               0-5.980538531E-011.1834171909E-01+
*       2.6756139992E-01               0
GRID*               9263               03.7143780513E-01-8.960474776E-01+
*       -1.182013567E-01               0
GRID*               9264               06.4170844056E-01-9.410439897E-01+
*       3.4651874225E-03               0
GRID*               9265               03.4224107265E-01-9.745864282E-01+
*       -3.082758508E-02               0
GRID*               9266               05.2531928754E-01-9.620897735E-01+
*       -2.555639324E-02               0
GRID*               9267               03.3532696166E-01-8.624317506E-01+
*       -1.518557909E-01               0
GRID*               9268               03.7229232955E-01-8.627941926E-01+
*       -1.506001553E-01               0
GRID*               9269               03.5219952432E-01-8.709778899E-01+
*       -8.853988513E-02               0
GRID*               9270               05.3104706907E-01-9.682479581E-01+
*       7.0229760983E-02               0
GRID*               9271               0-8.836329674E-01-8.298829728E-01+
*       -2.286985475E-01               0
GRID*               9272               0-8.719199217E-01-8.568668507E-01+
*       -4.377810657E-02               0
GRID*               9273               0-8.121034240E-01-8.620196691E-01+
*       -7.431259575E-02               0
GRID*               9274               0-8.541232314E-01-8.661517361E-01+
*       -2.079949787E-02               0
GRID*               9275               0-8.483259809E-01-8.026917227E-01+
*       -6.286738166E-02               0
GRID*               9276               0-8.340210546E-01-7.885684054E-01+
*       -4.371203471E-02               0
GRID*               9277               05.6675957817E-01-8.688312818E-01+
*       -1.878538115E-01               0
GRID*               9278               04.9281879032E-01-8.681001811E-01+
*       -1.878538115E-01               0
GRID*               9279               05.7347346091E-01-9.318267596E-01+
*       -1.128027355E-01               0
GRID*               9280               05.6856173249E-01-9.011323430E-01+
*       -1.497185980E-01               0
GRID*               9281               04.9107974280E-01-9.318267596E-01+
*       -1.228262412E-01               0
GRID*               9282               05.2883437307E-01-8.997434549E-01+
*       -1.560534913E-01               0
GRID*               9283               04.9193426723E-01-8.985734746E-01+
*       -1.552250398E-01               0
GRID*               9284               04.5585590975E-01-8.646513564E-01+
*       -1.876273072E-01               0
GRID*               9285               04.5411686222E-01-9.283779350E-01+
*       -1.225997369E-01               0
GRID*               9286               04.5497138665E-01-8.951246499E-01+
*       -1.549985354E-01               0
GRID*               9287               07.0360244493E-019.6856558271E-01+
*       -1.731148963E-01               0
GRID*               9288               06.3585759040E-019.6856558271E-01+
*       -1.492085740E-01               0
GRID*               9289               07.0163290470E-019.3806425490E-01+
*       -1.988411958E-01               0
GRID*               9290               07.3684982747E-019.6949867219E-01+
*       -1.735112538E-01               0
GRID*               9291               0-1.093958191E+008.7960338400E-01+
*       -4.298844659E-02               0
GRID*               9292               0-1.113651006E+008.9045315706E-01+
*       -2.143081178E-02               0
GRID*               9293               0-1.057728892E+009.1247296722E-01+
*       -2.143081178E-02               0
GRID*               9294               0-1.078748787E+009.1801685445E-01+
*       -5.237779680E-02               0
GRID*               9295               0-1.043249065E+009.4372296722E-01+
*       -8.411770829E-02               0
GRID*               9296               0-1.049447783E+009.2713222810E-01+
*       -5.173276358E-02               0
GRID*               9297               0-1.030542348E+009.2215082901E-01+
*       -2.206542534E-02               0
GRID*               9298               0-1.001178976E+009.0051336467E-01+
*       -4.323864436E-02               0
GRID*               9299               0-9.948172945E-019.1600895338E-01+
*       -7.313063658E-02               0
GRID*               9300               0-1.016062520E+009.5340082901E-01+
*       -8.475232185E-02               0
GRID*               9301               0-1.022261238E+009.3681008988E-01+
*       -5.236737714E-02               0
GRID*               9302               0-5.617821556E-013.9989880405E-01+
*       9.4319247858E-01               0
GRID*               9303               0-5.316668392E-014.3447446495E-01+
*       9.4833180500E-01               0
GRID*               9304               0-5.316668392E-014.4751372501E-01+
*       8.7288565568E-01               0
GRID*               9305               0-5.301153164E-014.2199373103E-01+
*       9.7389943861E-01               0
GRID*               9306               0-5.301153164E-013.6969102598E-01+
*       1.0272378640E+00               0
GRID*               9307               07.6134759964E-014.8561176819E-01+
*       -1.874724941E-01               0
GRID*               9308               07.8080041664E-014.0862863377E-01+
*       -1.874724941E-01               0
GRID*               9309               07.5747158682E-014.9032957471E-01+
*       -1.251610845E-01               0
GRID*               9310               07.9027805266E-013.7099578941E-01+
*       -1.875119426E-01               0
GRID*               9311               01.0624009144E+00-9.044549653E-01+
*       -2.285589679E-01               0
GRID*               9312               01.0650475186E+00-8.879781228E-01+
*       -1.872444394E-01               0
GRID*               9313               01.0461013502E+00-8.939413229E-01+
*       -2.065576474E-01               0
GRID*               9314               01.0608461007E+00-9.051617183E-01+
*       -2.086854715E-01               0
GRID*               9315               01.0552399851E+00-9.296390068E-01+
*       -2.077840485E-01               0
GRID*               9316               01.0445465365E+00-8.946480759E-01+
*       -1.866841510E-01               0
GRID*               9317               01.0298707025E+00-9.309301826E-01+
*       -1.970129637E-01               0
GRID*               9318               01.0418999323E+00-9.111249185E-01+
*       -2.279986795E-01               0
GRID*               9319               09.5405165482E-01-9.038400945E-01+
*       -2.279986795E-01               0
GRID*               9320               01.0157015758E+00-8.870289123E-01+
*       -1.242824066E-01               0
GRID*               9321               01.0284652797E+00-8.998345609E-01+
*       -1.856144194E-01               0
GRID*               9322               01.0474114482E+00-8.938713608E-01+
*       -1.663012114E-01               0
GRID*               9323               01.0191433932E+00-9.182753607E-01+
*       -1.359741642E-01               0
GRID*               9324               0-9.516687721E-01-6.109910234E-01+
*       -4.260272744E-02               0
GRID*               9325               0-9.361678643E-01-6.020387076E-01+
*       -2.186643585E-02               0
GRID*               9326               0-8.913192361E-01-6.228071205E-01+
*       -2.186643585E-02               0
GRID*               9327               0-8.687083382E-01-6.346504120E-01+
*       -2.222528219E-02               0
GRID*               9328               0-8.759497894E-01-6.560417258E-01+
*       -4.299566294E-02               0
GRID*               9329               01.1466072808E+008.6661238205E-01+
*       -2.117342004E-02               0
GRID*               9330               01.1692454007E+008.7045254324E-01+
*       -5.245811788E-02               0
GRID*               9331               01.1280908015E+008.5635259169E-01+
*       -4.245232791E-02               0
GRID*               9332               01.1948615651E+008.7338130795E-01+
*       -8.367342004E-02               0
GRID*               9333               01.2243838356E+009.0408937292E-01+
*       -9.378469784E-02               0
GRID*               9334               01.1174256764E+008.6601618858E-01+
*       -9.393148958E-02               0
GRID*               9335               01.1800960320E+008.9101661602E-01+
*       -8.354980288E-02               0
GRID*               9336               01.1505737614E+008.6030855105E-01+
*       -7.343852508E-02               0
GRID*               9337               01.1378518273E+009.0265457143E-01+
*       -1.027866069E-01               0
GRID*               9338               01.1766960613E+009.5058030410E-01+
*       -9.393967790E-02               0
GRID*               9339               01.2008292281E+009.2729433469E-01+
*       -9.365337623E-02               0
GRID*               9340               01.1682210257E+009.7776965573E-01+
*       -8.624011237E-02               0
GRID*               9341               01.1923541925E+009.5448368632E-01+
*       -8.595381070E-02               0
GRID*               9342               01.2172107461E+008.7615902260E-01+
*       -1.143090868E-01               0
GRID*               9343               01.1515861760E+008.1791195345E-01+
*       -1.572404465E-01               0
GRID*               9344               01.1843586964E+008.4624087190E-01+
*       -1.257164406E-01               0
GRID*               9345               01.1513940715E+007.8215004046E-01+
*       -1.577005933E-01               0
GRID*               9346               01.1841037961E+008.1141992325E-01+
*       -1.482748545E-01               0
GRID*               9347               01.1841665919E+008.1047895891E-01+
*       -1.261765874E-01               0
GRID*               9348               01.1288614303E+008.4917079479E-01+
*       -1.155737384E-01               0
GRID*               9349               01.1729229425E+008.6308626570E-01+
*       -1.040741918E-01               0
GRID*               9350               01.1524136198E+008.0156035521E-01+
*       -6.350867441E-02               0
GRID*               9351               01.1840831543E+007.9523999646E-01+
*       -7.435712659E-02               0
GRID*               9352               01.1694065740E+007.8071179759E-01+
*       -4.375961109E-02               0
GRID*               9353               01.1675394755E+007.6147181220E-01+
*       -7.443240543E-02               0
GRID*               9354               0-8.574161278E-01-6.508076099E-01+
*       -2.077038075E-02               0
GRID*               9355               0-8.446922870E-01-7.011631556E-01+
*       -2.077038075E-02               0
GRID*               9356               07.1652005976E-01-3.941698380E-01+
*       4.9867339170E-01               0
GRID*               9357               07.1652005976E-01-4.186391908E-01+
*       5.5940065507E-01               0
GRID*               9358               06.8366185610E-01-3.989154642E-01+
*       5.7879089060E-01               0
GRID*               9359               06.2350092698E-01-4.020109952E-01+
*       5.7394260195E-01               0
GRID*               9360               05.9152005976E-01-4.288518480E-01+
*       5.4856455569E-01               0
GRID*               9361               07.1864030943E-01-3.803215982E-01+
*       4.6943257465E-01               0
GRID*               9362               06.8783761838E-01-3.427959610E-01+
*       4.7287032388E-01               0
GRID*               9363               0-8.589571701E-01-6.494728469E-01+
*       -2.283985642E-01               0
GRID*               9364               0-9.028940477E-01-6.034613348E-01+
*       -2.283985642E-01               0
GRID*               9365               0-8.695753113E-01-6.652698199E-01+
*       -2.081008204E-01               0
GRID*               9366               0-1.026761875E+009.2954928274E-01+
*       -1.035289617E-01               0
GRID*               9367               0-1.025670111E+009.3088002303E-01+
*       -1.255299253E-01               0
GRID*               9368               0-1.046550401E+009.2601705186E-01+
*       -1.255655836E-01               0
GRID*               9369               0-1.100957832E+009.6237169541E-01+
*       -1.144754805E-01               0
GRID*               9370               0-1.029999117E+009.6237169541E-01+
*       -1.145073988E-01               0
GRID*               9371               0-1.065498839E+009.3666558264E-01+
*       -8.276748729E-02               0
GRID*               9372               0-1.024929290E+009.3215368406E-01+
*       -1.474545043E-01               0
GRID*               9373               0-1.005140764E+009.3568591494E-01+
*       -1.254178825E-01               0
GRID*               9374               0-9.871327801E-019.3111645199E-01+
*       -1.247746343E-01               0
GRID*               9375               0-9.799656766E-019.6850832762E-01+
*       -1.987094230E-01               0
GRID*               9376               0-9.340796643E-019.6850832762E-01+
*       -1.392063098E-01               0
GRID*               9377               0-1.008378006E+009.6850832762E-01+
*       -1.363963195E-01               0
GRID*               9378               0-1.031117121E+009.2932791097E-01+
*       -1.987094230E-01               0
GRID*               9379               0-1.019943131E+009.4920650307E-01+
*       -1.681606700E-01               0
GRID*               9380               0-1.009469769E+009.6717758733E-01+
*       -1.143953559E-01               0
GRID*               9381               0-9.882245437E-019.2978571170E-01+
*       -1.027736707E-01               0
GRID*               9382               0-5.650520891E-01-3.482242931E-01+
*       -1.891272733E-01               0
GRID*               9383               0-5.289702081E-01-4.204338475E-01+
*       -1.891272733E-01               0
GRID*               9384               0-4.844534425E-01-3.554008697E-01+
*       -1.891272733E-01               0
GRID*               9385               01.1361771419E+00-9.619378204E-01+
*       -1.366504164E-01               0
GRID*               9386               01.1331984637E+00-9.378304357E-01+
*       -1.683923604E-01               0
GRID*               9387               01.1594153981E+00-9.386868638E-01+
*       -1.367262320E-01               0
GRID*               9388               01.1156667761E+00-9.250052844E-01+
*       -1.261570843E-01               0
GRID*               9389               01.1392959669E+00-9.018356630E-01+
*       -1.248282818E-01               0
GRID*               9390               01.0824366670E+00-8.866227979E-01+
*       -1.444197218E-01               0
GRID*               9391               01.0824323256E+00-8.866259902E-01+
*       -1.860869684E-01               0
GRID*               9392               01.0991856916E+00-8.986096818E-01+
*       -2.060403035E-01               0
GRID*               9393               01.0953069162E+00-9.333401069E-01+
*       -1.039291183E-01               0
GRID*               9394               01.1341140766E+00-9.630674640E-01+
*       -1.148166244E-01               0
GRID*               9395               01.1573523328E+00-9.398165074E-01+
*       -1.148924400E-01               0
GRID*               9396               01.1347164671E+00-9.431349464E-01+
*       -8.245005855E-02               0
GRID*               9397               01.1029440505E+00-9.124657230E-01+
*       -5.216164617E-02               0
GRID*               9398               01.1240568067E+00-9.294657413E-01+
*       -3.028841238E-02               0
GRID*               9399               01.1006914738E+00-9.304227931E-01+
*       -2.199821478E-02               0
GRID*               9400               01.1113511343E+00-9.440919981E-01+
*       -7.415986095E-02               0
GRID*               9401               01.0799014366E+00-9.070430361E-01+
*       -7.385357931E-02               0
GRID*               9402               01.0803146913E+00-8.881099289E-01+
*       -1.246749733E-01               0
GRID*               9403               01.0436037949E+00-9.000547021E-01+
*       -1.246752696E-01               0
GRID*               9404               0-5.857890891E-01-4.065578142E-01+
*       1.0020034082E+00               0
GRID*               9405               0-5.312689101E-01-4.385856087E-01+
*       8.7373368039E-01               0
GRID*               9406               0-1.051997411E+009.2446493980E-01+
*       -1.987450813E-01               0
GRID*               9407               0-1.040823421E+009.4434353190E-01+
*       -1.681963283E-01               0
GRID*               9408               0-1.075136981E+009.4432965150E-01+
*       -1.670661812E-01               0
GRID*               9409               0-1.029258296E+009.6364535645E-01+
*       -1.364319778E-01               0
GRID*               9410               0-1.100217011E+009.6364535645E-01+
*       -1.364000595E-01               0
GRID*               9411               0-1.086770052E+009.2303621044E-01+
*       -1.985682887E-01               0
GRID*               9412               0-1.109909622E+009.4290092214E-01+
*       -1.668893886E-01               0
GRID*               9413               0-1.127946707E+009.1225333653E-01+
*       -1.985682887E-01               0
GRID*               9414               0-1.131427973E+009.3742567236E-01+
*       -1.685701095E-01               0
GRID*               9415               0-1.116310341E+009.2443542421E-01+
*       -1.252232355E-01               0
GRID*               9416               0-1.117378414E+008.6535246185E-01+
*       -9.397216118E-02               0
GRID*               9417               0-1.139254155E+009.0202293634E-01+
*       -1.039605505E-01               0
GRID*               9418               0-1.138298677E+009.0202076631E-01+
*       -1.258738924E-01               0
GRID*               9419               0-1.134989653E+009.6221662709E-01+
*       -1.362232669E-01               0
GRID*               9420               0-1.135945130E+009.6221879712E-01+
*       -1.143099250E-01               0
GRID*               9421               0-1.135750766E+009.3583992127E-01+
*       -8.301733084E-02               0
GRID*               9422               0-1.100763468E+009.3599281956E-01+
*       -8.318288629E-02               0
GRID*               9423               0-1.158625439E+009.3941764617E-01+
*       -1.362411430E-01               0
GRID*               9424               0-1.159580917E+009.3941981619E-01+
*       -1.143278011E-01               0
GRID*               9425               0-7.193306102E-01-4.216911462E-01+
*       9.7326221372E-01               0
GRID*               9426               0-6.878965343E-01-4.005697839E-01+
*       9.4234814451E-01               0
GRID*               9427               0-7.193306102E-01-3.693884399E-01+
*       1.0266006387E+00               0
GRID*               9428               0-7.185659241E-01-4.354480263E-01+
*       9.4812470278E-01               0
GRID*               9429               0-7.185659241E-01-4.484872874E-01+
*       8.7267855408E-01               0
GRID*               9430               01.1549654272E+009.1498006001E-01+
*       -1.677104516E-01               0
GRID*               9431               01.1504574975E+008.9031651535E-01+
*       -1.981836376E-01               0
GRID*               9432               01.1784201800E+008.9209598851E-01+
*       -1.676205954E-01               0
GRID*               9433               01.1609105706E+008.8070774134E-01+
*       -1.254487426E-01               0
GRID*               9434               01.1373380052E+009.0248968895E-01+
*       -1.237051395E-01               0
GRID*               9435               01.1723463245E+008.6386234755E-01+
*       -1.470909914E-01               0
GRID*               9436               01.1452566999E+008.6198779122E-01+
*       -1.765586872E-01               0
GRID*               9437               01.1572062759E+008.4530727991E-01+
*       -1.772824035E-01               0
GRID*               9438               01.2171479503E+008.0502920305E-01+
*       -1.364073538E-01               0
GRID*               9439               01.2171479503E+008.7709998694E-01+
*       -1.364073538E-01               0
GRID*               9440               01.1903697560E+008.7541547721E-01+
*       -1.683443117E-01               0
GRID*               9441               01.1728601467E+008.6402723004E-01+
*       -1.261724589E-01               0
GRID*               9442               01.2057121964E+008.9394538073E-01+
*       -1.147651050E-01               0
GRID*               9443               01.2051983743E+008.9378049825E-01+
*       -1.356836376E-01               0
GRID*               9444               01.1580244221E+009.4043631191E-01+
*       -1.149200851E-01               0
GRID*               9445               01.1575106000E+009.4027142943E-01+
*       -1.358386176E-01               0
GRID*               9446               01.1821575889E+009.1715034250E-01+
*       -1.146337834E-01               0
GRID*               9447               01.1816437668E+009.1698546002E-01+
*       -1.355523160E-01               0
GRID*               9448               01.0975474290E+005.9667305885E-01+
*       -2.094613652E-02               0
GRID*               9449               01.0403193664E+005.6791856961E-01+
*       -2.094613652E-02               0
GRID*               9450               01.0331413055E+005.8804080481E-01+
*       -4.342524870E-02               0
GRID*               9451               01.1270358227E+006.1096348732E-01+
*       -2.293520785E-02               0
GRID*               9452               01.1531056806E+006.1601698011E-01+
*       -5.357948809E-02               0
GRID*               9453               01.1209943778E+006.3927010007E-01+
*       -4.322074138E-02               0
GRID*               9454               07.4661515453E-01-9.056337245E-01+
*       -2.237876054E-01               0
GRID*               9455               05.3350338228E-011.0808560598E-01+
*       1.1909980179E+00               0
GRID*               9456               05.9480831665E-011.0782693931E-01+
*       1.1976598186E+00               0
GRID*               9457               05.6681446152E-011.1719016939E-01+
*       1.1635055901E+00               0
GRID*               9458               06.2698677781E-011.1688741205E-01+
*       1.1668355152E+00               0
GRID*               9459               05.3350338228E-014.8395174487E-02+
*       1.2006743097E+00               0
GRID*               9460               05.3331107924E-011.3591242141E-01+
*       1.1839716033E+00               0
GRID*               9461               05.9461601361E-011.3565375474E-01+
*       1.1906334040E+00               0
GRID*               9462               05.3331107924E-011.9380597010E-01+
*       1.1630698434E+00               0
GRID*               9463               09.0517700022E-01-8.811048337E-01+
*       -4.417320905E-02               0
GRID*               9464               09.0969758007E-01-9.052373900E-01+
*       -7.554171782E-02               0
GRID*               9465               08.6686331614E-01-8.836592063E-01+
*       -2.283957094E-02               0
GRID*               9466               08.7536106338E-01-8.566737894E-01+
*       -4.480409090E-02               0
GRID*               9467               08.4369435947E-01-8.538748449E-01+
*       -1.072141239E-01               0
GRID*               9468               08.7566374593E-01-9.369177864E-01+
*       -8.833645772E-02               0
GRID*               9469               08.7150262298E-01-9.104019035E-01+
*       -5.458883436E-02               0
GRID*               9470               08.3983591908E-01-9.076029590E-01+
*       -1.169988674E-01               0
GRID*               9471               08.8482315289E-01-8.909284671E-01+
*       -2.133363811E-02               0
GRID*               9472               08.9362358267E-01-9.441870473E-01+
*       -8.683052489E-02               0
GRID*               9473               08.8946245973E-01-9.176711644E-01+
*       -5.308290153E-02               0
GRID*               9474               09.1795254714E-01-9.280383831E-01+
*       -5.369699740E-02               0
GRID*               9475               09.4075332510E-01-9.129370420E-01+
*       -2.133363811E-02               0
GRID*               9476               08.7058278039E-01-6.242456910E-01+
*       -2.282160708E-01               0
GRID*               9477               08.9990064039E-01-5.861428479E-01+
*       -2.282160708E-01               0
GRID*               9478               09.2709046998E-01-5.997581870E-01+
*       -2.071741501E-01               0
GRID*               9479               09.1846684255E-01-5.782326969E-01+
*       -2.289580793E-01               0
GRID*               9480               09.5419639430E-01-5.400097194E-01+
*       -2.289580793E-01               0
GRID*               9481               01.2198524692E+003.0789541365E-01+
*       -9.360036118E-02               0
GRID*               9482               0-1.118971085E+009.4791501138E-01+
*       -6.230936904E-02               0
GRID*               9483               0-1.100401058E+009.0910188525E-01+
*       -5.182050227E-02               0
GRID*               9484               0-1.118608675E+009.2102407707E-01+
*       -3.094698502E-02               0
GRID*               9485               0-1.062686561E+009.4304388723E-01+
*       -3.094698502E-02               0
GRID*               9486               0-1.135388356E+009.0894898696E-01+
*       -5.165494682E-02               0
GRID*               9487               0-1.153873304E+009.2035131399E-01+
*       -3.136238402E-02               0
GRID*               9488               0-1.176500162E+009.2354413593E-01+
*       -6.259852268E-02               0
GRID*               9489               0-4.765965027E-01-3.053448182E-01+
*       -1.264909172E-01               0
GRID*               9490               0-5.162246127E-01-3.017518938E-01+
*       -1.252226697E-01               0
GRID*               9491               0-5.439089831E-01-2.784717618E-01+
*       -1.876442549E-01               0
GRID*               9492               0-4.633103366E-01-2.856483384E-01+
*       -1.876442549E-01               0
GRID*               9493               0-1.188181173E+001.8548808839E-01+
*       -1.873990158E-01               0
GRID*               9494               0-1.218269841E+002.6414571193E-01+
*       -1.563629013E-01               0
GRID*               9495               0-1.218269841E+001.8722263501E-01+
*       -1.563629013E-01               0
GRID*               9496               0-1.219911331E+001.5211160723E-01+
*       -1.560361144E-01               0
GRID*               9497               0-5.434392497E-01-3.161128288E-01+
*       -1.888466623E-01               0
GRID*               9498               0-4.628406031E-01-3.232894054E-01+
*       -1.888466623E-01               0
GRID*               9499               05.9577505100E-015.5693657654E-01+
*       1.5475142263E+00               0
GRID*               9500               06.5779406338E-014.4382648263E-01+
*       1.4859079569E+00               0
GRID*               9501               06.2697132125E-015.3849320214E-01+
*       1.5166272165E+00               0
GRID*               9502               05.9577574259E-016.1536435488E-01+
*       1.5009192682E+00               0
GRID*               9503               06.2639825018E-015.6890640905E-01+
*       1.4937214800E+00               0
GRID*               9504               05.6505581024E-015.1608255474E-01+
*       1.5338184514E+00               0
GRID*               9505               05.9428064957E-015.2246574672E-01+
*       1.5625431491E+00               0
GRID*               9506               05.9427966198E-014.5774476588E-01+
*       1.5999092391E+00               0
GRID*               9507               06.2479201093E-014.9383456756E-01+
*       1.4329242633E+00               0
GRID*               9508               06.8761918609E-014.7804951114E-01+
*       1.3541754594E+00               0
GRID*               9509               06.8761918609E-014.8071344609E-01+
*       1.4310986637E+00               0
GRID*               9510               06.8766987502E-014.7527539639E-01+
*       1.3160373314E+00               0
GRID*               9511               0-1.212708851E+00-2.038295126E-01+
*       -1.565798307E-01               0
GRID*               9512               0-1.212708851E+00-2.807525895E-01+
*       -1.565798307E-01               0
GRID*               9513               0-1.180222605E+00-2.914698449E-01+
*       -1.872049222E-01               0
GRID*               9514               0-1.153203936E+00-2.171336424E-01+
*       -1.277193871E-01               0
GRID*               9515               0-1.153203936E+00-2.940567193E-01+
*       -1.277193871E-01               0
GRID*               9516               0-1.211154499E+00-1.647435522E-01+
*       -1.571177288E-01               0
GRID*               9517               0-1.152439511E+00-1.408354574E-01+
*       -1.263409654E-01               0
GRID*               9518               0-1.164806138E+00-1.417347980E-01+
*       -1.884060837E-01               0
GRID*               9519               0-5.629692479E-019.1497752255E-01+
*       9.2691950148E-01               0
GRID*               9520               0-5.316984535E-018.7872684837E-01+
*       9.5292145388E-01               0
GRID*               9521               0-5.316984535E-018.7007657590E-01+
*       1.0101675710E+00               0
GRID*               9522               05.6334547055E-01-9.053373828E-01+
*       9.9204830601E-01               0
GRID*               9523               05.9428776269E-01-9.411425151E-01+
*       9.7002606484E-01               0
GRID*               9524               05.9428703824E-01-9.523238448E-01+
*       9.0102663799E-01               0
GRID*               9525               05.3140799346E-01-8.615306612E-03+
*       1.2052027428E+00               0
GRID*               9526               05.3140799346E-01-7.660342058E-02+
*       1.2064611468E+00               0
GRID*               9527               05.6207058602E-012.2948933456E-03+
*       1.1791598901E+00               0
GRID*               9528               05.3066259256E-011.8337194983E-02+
*       1.2047737621E+00               0
GRID*               9529               05.3011491255E-019.0107579556E-01+
*       1.9720101963E-01               0
GRID*               9530               05.9099099477E-019.7243960991E-01+
*       8.0020734033E-02               0
GRID*               9531               05.9187258330E-018.7611821388E-01+
*       1.0679067842E-01               0
GRID*               9532               05.6054666265E-019.4608051173E-01+
*       1.2302881008E-01               0
GRID*               9533               05.3246130483E-018.8916433891E-01+
*       2.3381207048E-01               0
GRID*               9534               05.9480596662E-018.9168799081E-01+
*       2.2764303758E-01               0
GRID*               9535               05.3246130483E-019.0139027956E-01+
*       3.1000801307E-01               0
GRID*               9536               0-1.926827688E-019.4153834741E-01+
*       -1.228430934E-01               0
GRID*               9537               0-2.166495249E-019.7219637710E-01+
*       -9.354589496E-02               0
GRID*               9538               0-1.441941433E-019.7219637710E-01+
*       -9.354445121E-02               0
GRID*               9539               0-2.512727459E-019.6927025230E-01+
*       -9.281500240E-02               0
GRID*               9540               0-2.394322972E-019.2534467400E-01+
*       -6.440645155E-02               0
GRID*               9541               0-5.311298984E-019.0260793714E-01+
*       6.8262751975E-01               0
GRID*               9542               0-5.621605546E-019.3498752131E-01+
*       6.8237531704E-01               0
GRID*               9543               0-5.311298984E-018.9859749727E-01+
*       7.5579775026E-01               0
GRID*               9544               0-5.935249539E-019.6781725042E-01+
*       6.5830907906E-01               0
GRID*               9545               0-6.879899037E-019.3870494418E-01+
*       6.8214595873E-01               0
GRID*               9546               0-7.188609354E-019.0834589732E-01+
*       6.8241523665E-01               0
GRID*               9547               0-7.188609354E-019.0490163512E-01+
*       7.5201107691E-01               0
GRID*               9548               0-7.191289683E-019.0892127243E-01+
*       6.5808481669E-01               0
GRID*               9549               0-7.189914637E-019.1309001591E-01+
*       5.2101603929E-01               0
GRID*               9550               0-4.540673815E-01-9.616855874E-01+
*       -8.871618654E-02               0
GRID*               9551               0-5.365944228E-01-9.616855874E-01+
*       -7.917637243E-02               0
GRID*               9552               0-4.436338177E-01-9.336572945E-01+
*       -5.848359830E-02               0
GRID*               9553               0-5.774321005E-01-9.601578500E-01+
*       -7.318958632E-02               0
GRID*               9554               0-5.863265158E-01-9.601578500E-01+
*       1.3200156137E-02               0
GRID*               9555               0-6.215486008E-01-8.867205451E-01+
*       4.1069614320E-02               0
GRID*               9556               0-4.735488964E-01-6.072049457E-01+
*       -1.868438443E-01               0
GRID*               9557               0-4.845729375E-01-5.977158096E-01+
*       -1.250734081E-01               0
GRID*               9558               01.0767636051E-01-3.999410519E-02+
*       -1.249984424E-01               0
GRID*               9559               01.3459314820E-01-2.247026308E-02+
*       -6.331501086E-02               0
GRID*               9560               0-8.297291520E-01-7.997667078E-01+
*       -2.292499855E-01               0
GRID*               9561               0-8.554105063E-01-8.560651373E-01+
*       -2.292499855E-01               0
GRID*               9562               0-8.745665176E-01-8.517360666E-01+
*       -2.079485330E-01               0
GRID*               9563               0-8.670104594E-01-8.755263382E-01+
*       -2.286985475E-01               0
GRID*               9564               0-8.124929193E-01-9.355986338E-01+
*       -1.775910246E-01               0
GRID*               9565               0-8.404973227E-01-9.053806435E-01+
*       -2.037423523E-01               0
GRID*               9566               0-8.756687689E-01-9.355986338E-01+
*       -1.686693126E-01               0
GRID*               9567               0-8.718194740E-01-9.066895296E-01+
*       -2.003471237E-01               0
GRID*               9568               0-5.957818591E-01-5.721529104E-01+
*       1.4223432038E+00               0
GRID*               9569               0-5.628516963E-01-5.833135707E-01+
*       1.4926792734E+00               0
GRID*               9570               0-5.312496797E-01-5.480511904E-01+
*       1.4913863545E+00               0
GRID*               9571               0-5.312496797E-01-4.783581302E-01+
*       1.5178919983E+00               0
GRID*               9572               0-5.316020166E-01-5.795227660E-01+
*       1.4657707121E+00               0
GRID*               9573               0-5.316020166E-01-6.002481761E-01+
*       1.3978428553E+00               0
GRID*               9574               0-8.720300146E-016.2675393681E-01+
*       -2.285860882E-01               0
GRID*               9575               0-9.162322257E-016.0067686496E-01+
*       -2.285860882E-01               0
GRID*               9576               0-8.777147503E-016.4917985168E-01+
*       -2.081547045E-01               0
GRID*               9577               06.9324396826E-011.0657004180E-01+
*       -1.872339355E-01               0
GRID*               9578               07.6615824921E-019.6181823515E-02+
*       -1.872339355E-01               0
GRID*               9579               07.6037498747E-011.2788283900E-01+
*       -1.258887364E-01               0
GRID*               9580               06.9486470844E-011.4367216510E-01+
*       -1.886548009E-01               0
GRID*               9581               07.6777898938E-011.3328394682E-01+
*       -1.886548009E-01               0
GRID*               9582               05.3044890048E-01-2.128978771E-01+
*       3.4301111638E-01               0
GRID*               9583               05.3044890048E-01-1.531696986E-01+
*       3.1472013915E-01               0
GRID*               9584               05.6104887289E-01-1.279330461E-01+
*       3.3617957624E-01               0
GRID*               9585               05.3409777606E-01-2.426446091E-01+
*       3.5584146755E-01               0
GRID*               9586               05.9483890986E-01-2.290619997E-01+
*       3.4114045588E-01               0
GRID*               9587               05.6820603862E-01-2.386229311E-01+
*       3.8463561485E-01               0
GRID*               9588               06.2806288266E-01-2.233802240E-01+
*       3.7379827500E-01               0
GRID*               9589               01.1601265121E+00-8.788045411E-01+
*       -1.240152118E-01               0
GRID*               9590               01.1499662412E+00-8.889416759E-01+
*       -1.981823681E-01               0
GRID*               9591               01.1767450142E+00-8.893906308E-01+
*       -1.673406419E-01               0
GRID*               9592               01.1559144689E+00-9.124217526E-01+
*       -1.681537119E-01               0
GRID*               9593               01.1447787873E+00-8.614017523E-01+
*       -1.776665900E-01               0
GRID*               9594               01.1714693403E+00-8.622233564E-01+
*       -1.243966739E-01               0
GRID*               9595               01.2167738743E+00-8.768257267E-01+
*       -1.137143057E-01               0
GRID*               9596               01.1577719863E+00-8.544729532E-01+
*       -5.121430573E-02               0
GRID*               9597               01.1875080737E+00-8.650304380E-01+
*       -8.204539386E-02               0
GRID*               9598               01.1722049206E+00-8.632145004E-01+
*       -1.020471494E-01               0
GRID*               9599               01.1443617963E+00-8.518694451E-01+
*       -7.224156275E-02               0
GRID*               9600               01.1846053041E+00-8.463808171E-01+
*       -1.248478233E-01               0
GRID*               9601               01.1725268957E+00-8.619708578E-01+
*       -1.468158857E-01               0
GRID*               9602               01.1838649207E+00-9.154468892E-01+
*       -1.364954382E-01               0
GRID*               9603               01.1818018554E+00-9.165765328E-01+
*       -1.146616462E-01               0
GRID*               9604               01.2054310462E+00-8.934069114E-01+
*       -1.133328437E-01               0
GRID*               9605               01.2046954659E+00-8.924157674E-01+
*       -1.356823681E-01               0
GRID*               9606               01.1464291582E+00-8.710541379E-01+
*       -5.083284367E-02               0
GRID*               9607               01.1761652456E+00-8.816116227E-01+
*       -8.166393180E-02               0
GRID*               9608               01.1594786039E+00-8.995384445E-01+
*       -5.083284367E-02               0
GRID*               9609               01.1358494131E+00-9.227080660E-01+
*       -5.216164617E-02               0
GRID*               9610               01.1587881255E+00-9.200141813E-01+
*       -8.310976989E-02               0
GRID*               9611               01.1824173163E+00-8.968445598E-01+
*       -8.178096738E-02               0
GRID*               9612               01.1237671765E+00-8.875770773E-01+
*       -2.282869521E-01               0
GRID*               9613               01.1185797227E+00-8.600371537E-01+
*       -2.077711740E-01               0
GRID*               9614               01.2255504774E+00-9.302581122E-01+
*       -1.252307939E-01               0
GRID*               9615               01.1795980351E+00-9.363896453E-01+
*       -6.273079386E-02               0
GRID*               9616               01.2025367475E+00-9.336957606E-01+
*       -9.367891757E-02               0
GRID*               9617               01.1708212526E+00-9.267840207E-01+
*       -1.877307939E-01               0
GRID*               9618               01.1976000257E+00-9.272329755E-01+
*       -1.568890676E-01               0
GRID*               9619               01.1446043183E+00-9.259275927E-01+
*       -2.193969222E-01               0
GRID*               9620               01.2220495482E+00-9.039930010E-01+
*       -1.566582738E-01               0
GRID*               9621               01.2052738186E+00-8.810910017E-01+
*       -1.880524852E-01               0
GRID*               9622               01.1898809780E+00-8.735480914E-01+
*       -1.677917913E-01               0
GRID*               9623               0-6.889159027E-01-2.315789177E-01+
*       1.8790460620E-04               0
GRID*               9624               0-6.889159027E-01-3.085019946E-01+
*       1.8790460620E-04               0
GRID*               9625               0-5.314843619E-018.9753847210E-01+
*       7.9017237944E-01               0
GRID*               9626               0-5.623995195E-019.2950293468E-01+
*       7.9996124137E-01               0
GRID*               9627               0-5.309151576E-018.9481891535E-01+
*       8.1466220394E-01               0
GRID*               9628               0-5.309151576E-018.8766658454E-01+
*       8.8437367321E-01               0
GRID*               9629               0-6.870664395E-01-3.473416293E-01+
*       4.3723305530E-04               0
GRID*               9630               0-6.238925741E-01-3.489242638E-01+
*       1.0747826311E-03               0
GRID*               9631               0-6.868261346E-01-3.861980191E-01+
*       6.3754957578E-04               0
GRID*               9632               0-6.239492353E-01-4.254534581E-01+
*       4.3291944217E-04               0
GRID*               9633               01.2207341994E+00-8.952228490E-01+
*       -9.333108813E-02               0
GRID*               9634               01.1977204695E+00-8.986604975E-01+
*       -6.177921185E-02               0
GRID*               9635               01.1298550509E+00-8.435478796E-01+
*       -2.037753852E-02               0
GRID*               9636               01.1164448609E+00-8.409443715E-01+
*       -4.140479554E-02               0
GRID*               9637               01.1531085522E+00-8.011150035E-01+
*       -6.282234614E-02               0
GRID*               9638               01.1853508659E+00-7.942319705E-01+
*       -7.210704085E-02               0
GRID*               9639               01.1834657066E+00-8.107198938E-01+
*       -1.021659076E-01               0
GRID*               9640               01.1675150238E+00-7.868415738E-01+
*       -4.263923466E-02               0
GRID*               9641               01.1246255213E+008.8885687175E-01+
*       -2.283329815E-01               0
GRID*               9642               01.1291334510E+009.1352041641E-01+
*       -1.978597956E-01               0
GRID*               9643               01.1194247237E+008.6052814762E-01+
*       -2.067080312E-01               0
GRID*               9644               01.0834472618E+008.9963903267E-01+
*       -2.283329815E-01               0
GRID*               9645               01.1316786238E+009.3881178583E-01+
*       -1.659879616E-01               0
GRID*               9646               01.1520792786E+009.7470863058E-01+
*       -1.571817941E-01               0
GRID*               9647               01.1762124454E+009.5142266117E-01+
*       -1.568954924E-01               0
GRID*               9648               01.1272117690E+009.5535094840E-01+
*       -1.887860877E-01               0
GRID*               9649               01.1068111141E+009.1945410365E-01+
*       -1.975922552E-01               0
GRID*               9650               01.0618029348E+009.0642682958E-01+
*       -2.272574609E-01               0
GRID*               9651               01.0851667872E+009.2624190057E-01+
*       -1.965167346E-01               0
GRID*               9652               01.0459307351E+008.9532570442E-01+
*       -2.068238026E-01               0
GRID*               9653               01.0171322901E+009.1751669826E-01+
*       -1.780791354E-01               0
GRID*               9654               01.0498543612E+009.2561628101E-01+
*       -1.970032629E-01               0
GRID*               9655               01.0303409541E+009.2974281994E-01+
*       -1.993121437E-01               0
GRID*               9656               01.1100342968E+009.4559958275E-01+
*       -1.649124410E-01               0
GRID*               9657               01.1297569418E+009.8064231782E-01+
*       -1.569142537E-01               0
GRID*               9658               01.0587982499E+009.8064231782E-01+
*       -1.569461807E-01               0
GRID*               9659               01.0390756049E+009.4559958275E-01+
*       -1.649443679E-01               0
GRID*               9660               01.1325261298E+009.6223226033E-01+
*       -1.351733360E-01               0
GRID*               9661               01.0615674379E+009.6223226033E-01+
*       -1.352052630E-01               0
GRID*               9662               01.0601946663E+009.3157623336E-01+
*       -1.249944883E-01               0
GRID*               9663               01.0943320585E+009.3087997976E-01+
*       -1.234808771E-01               0
GRID*               9664               01.1123535350E+009.2445051985E-01+
*       -1.230398579E-01               0
GRID*               9665               06.5909777606E-01-2.154925285E-01+
*       3.2982920414E-01               0
GRID*               9666               07.1741424060E-01-2.027292765E-01+
*       3.1890317739E-01               0
GRID*               9667               06.8637934719E-01-2.106169720E-01+
*       3.6287224825E-01               0
GRID*               9668               05.3059997241E-01-1.275773209E-01+
*       3.0616612063E-01               0
GRID*               9669               05.3059997241E-01-6.467896474E-02+
*       2.9602215727E-01               0
GRID*               9670               0-5.335106093E-01-6.085693628E-01+
*       1.3672095983E+00               0
GRID*               9671               04.8497048571E-011.2695480844E-01+
*       -1.873230871E-01               0
GRID*               9672               04.5834800144E-011.3007507767E-01+
*       -1.246505774E-01               0
GRID*               9673               05.1640171503E-015.5122213303E-02+
*       -1.873230871E-01               0
GRID*               9674               04.0048250983E-011.5225394998E-01+
*       -6.232749025E-02               0
GRID*               9675               0-2.335131349E-01-9.287746087E-01+
*       -6.633730107E-02               0
GRID*               9676               0-2.095513181E-01-8.972533281E-01+
*       -1.588868490E-01               0
GRID*               9677               0-2.640694327E-01-8.947852368E-01+
*       -3.388684897E-02               0
GRID*               9678               0-4.084995102E-01-9.188743593E-01+
*       -2.929338075E-02               0
GRID*               9679               0-3.561003807E-011.8796919765E-01+
*       -1.243361966E-01               0
GRID*               9680               0-3.838440130E-011.7237901259E-01+
*       -6.303128609E-02               0
GRID*               9681               0-3.839878806E-012.4899051349E-01+
*       -6.303128609E-02               0
GRID*               9682               0-3.754681988E-011.5659928197E-01+
*       -1.255890438E-01               0
GRID*               9683               0-3.664246002E-011.3803019426E-01+
*       -6.255775766E-02               0
GRID*               9684               0-3.038804851E-019.9605916076E-02+
*       -6.255775766E-02               0
GRID*               9685               0-3.386809679E-011.5362037932E-01+
*       -1.238626681E-01               0
GRID*               9686               0-3.082768390E-011.3534038491E-01+
*       -1.252415462E-01               0
GRID*               9687               0-3.470567821E-011.6940010994E-01+
*       -6.130491046E-02               0
GRID*               9688               0-2.845126670E-011.3097583175E-01+
*       -6.130491046E-02               0
GRID*               9689               0-3.848475886E-012.8766115367E-01+
*       -6.200575635E-02               0
GRID*               9690               05.9503914986E-01-2.703109637E-01+
*       1.6761054057E+00               0
GRID*               9691               05.9503865778E-01-1.974560616E-01+
*       1.6927344187E+00               0
GRID*               9692               05.6372823908E-01-2.866070081E-01+
*       1.6327678082E+00               0
GRID*               9693               06.2422966936E-01-2.636820314E-01+
*       1.6390459869E+00               0
GRID*               9694               06.5753951977E-01-2.561475605E-01+
*       1.6045635181E+00               0
GRID*               9695               07.1669014960E-01-2.739648181E-01+
*       1.5969702937E+00               0
GRID*               9696               07.1669014960E-01-2.030962866E-01+
*       1.6117069437E+00               0
GRID*               9697               06.8528151296E-01-3.164631302E-01+
*       1.6177199237E+00               0
GRID*               9698               06.5409658196E-01-2.980696073E-01+
*       1.5884575680E+00               0
GRID*               9699               05.9494595213E-01-2.802523497E-01+
*       1.5960507924E+00               0
GRID*               9700               06.8531322708E-01-2.494454354E-01+
*       1.5691502268E+00               0
GRID*               9701               06.2271965944E-01-2.735502246E-01+
*       1.5606375011E+00               0
GRID*               9702               06.2263547848E-01-2.425899332E-01+
*       1.5367670623E+00               0
GRID*               9703               06.8732225140E-01-2.595748449E-01+
*       1.5301046603E+00               0
GRID*               9704               06.2472868376E-01-2.836796341E-01+
*       1.5215919347E+00               0
GRID*               9705               05.9285188751E-01-1.594533539E-01+
*       1.7025666834E+00               0
GRID*               9706               05.6150496184E-01-1.281267702E-01+
*       1.6680874901E+00               0
GRID*               9707               05.6233253230E-012.5827961030E-02+
*       1.6726306662E+00               0
GRID*               9708               05.9387295262E-01-5.707570866E-03+
*       1.7123597499E+00               0
GRID*               9709               05.9387209064E-01-8.023124559E-02+
*       1.7067745630E+00               0
GRID*               9710               05.9365135037E-01-1.177207658E-01+
*       1.7043504330E+00               0
GRID*               9711               01.2175805423E+004.5841258136E-01+
*       -1.562829154E-01               0
GRID*               9712               05.3104372276E-01-9.089655230E-01+
*       3.6574365433E-01               0
GRID*               9713               05.6108576492E-01-9.378628163E-01+
*       3.3158867976E-01               0
GRID*               9714               0-6.875631728E-019.9743442657E-02+
*       1.6683565046E+00               0
GRID*               9715               0-7.178512880E-011.3080179313E-01+
*       1.6299207108E+00               0
GRID*               9716               0-6.870906446E-011.7229179428E-01+
*       1.6580510924E+00               0
GRID*               9717               0-7.197118848E-019.3634935682E-02+
*       1.6303969184E+00               0
GRID*               9718               0-7.197118848E-011.9817530207E-02+
*       1.6358662257E+00               0
GRID*               9719               05.9618471450E-016.4534982866E-01+
*       1.4767772942E+00               0
GRID*               9720               06.2680722209E-015.9889188284E-01+
*       1.4695795060E+00               0
GRID*               9721               0-8.806951713E-01-9.636168948E-01+
*       -1.393018575E-01               0
GRID*               9722               0-8.175193217E-01-9.636168948E-01+
*       -1.482235695E-01               0
GRID*               9723               0-8.947177244E-01-9.281345751E-01+
*       -1.263971198E-01               0
GRID*               9724               0-9.145617258E-01-9.317498260E-01+
*       -1.263718713E-01               0
GRID*               9725               0-9.496503893E-01-9.329556926E-01+
*       -1.261052129E-01               0
GRID*               9726               0-9.544631716E-01-9.636168948E-01+
*       -1.370179993E-01               0
GRID*               9727               0-9.918044620E-01-9.631827462E-01+
*       -1.375183145E-01               0
GRID*               9728               0-9.869916797E-01-9.325215440E-01+
*       -1.266055280E-01               0
GRID*               9729               0-1.001504292E+00-9.068387872E-01+
*       -1.351074538E-01               0
GRID*               9730               0-9.893775321E-01-9.308462254E-01+
*       -1.488601810E-01               0
GRID*               9731               0-1.017455639E+00-9.158931496E-01+
*       -1.773947756E-01               0
GRID*               9732               0-1.003008995E+00-9.436508088E-01+
*       -1.692596062E-01               0
GRID*               9733               0-9.349558706E-01-8.887368095E-01+
*       -1.862684923E-01               0
GRID*               9734               0-9.667996778E-01-9.065419484E-01+
*       -2.065711275E-01               0
GRID*               9735               0-9.805517214E-01-9.065462962E-01+
*       -1.784676597E-01               0
GRID*               9736               0-6.556054292E-01-3.200657374E-01+
*       1.5797500796E+00               0
GRID*               9737               0-5.916464989E-01-2.962701794E-01+
*       1.5888157726E+00               0
GRID*               9738               0-6.558213380E-01-2.788041701E-01+
*       1.5957609522E+00               0
GRID*               9739               0-6.232150382E-01-3.386948397E-01+
*       1.6099200392E+00               0
GRID*               9740               0-6.855050831E-01-3.610344138E-01+
*       1.6017708218E+00               0
GRID*               9741               0-7.166464989E-01-3.431746749E-01+
*       1.5708703723E+00               0
GRID*               9742               0-7.166464989E-01-2.619367592E-01+
*       1.6056233233E+00               0
GRID*               9743               0-5.902039805E-01-2.549802888E-01+
*       1.6058705868E+00               0
GRID*               9744               0-6.543788196E-01-2.375142794E-01+
*       1.6128157663E+00               0
GRID*               9745               0-7.152039805E-01-2.206468686E-01+
*       1.6226781374E+00               0
GRID*               9746               0-6.850880664E-01-2.070566450E-01+
*       1.6572042098E+00               0
GRID*               9747               0-6.522250338E-01-2.028416033E-01+
*       1.6223752444E+00               0
GRID*               9748               0-5.902039805E-01-1.841117572E-01+
*       1.6206072367E+00               0
GRID*               9749               0-6.261958924E-01-1.968256524E-01+
*       1.5859376621E+00               0
GRID*               9750               0-6.569051392E-01-1.663680180E-01+
*       1.6303261056E+00               0
GRID*               9751               0-5.325353524E-01-1.308452487E-01+
*       1.6294712228E+00               0
GRID*               9752               0-5.636603675E-01-1.739012549E-01+
*       1.6591478521E+00               0
GRID*               9753               0-5.635965704E-01-9.999578410E-02+
*       1.6681370423E+00               0
GRID*               9754               0-6.870210533E-01-1.799582415E-01+
*       1.5958000332E+00               0
GRID*               9755               0-7.198840859E-01-1.841732833E-01+
*       1.6306289985E+00               0
GRID*               9756               0-7.198840859E-01-9.676229227E-02+
*       1.6340274050E+00               0
GRID*               9757               0-6.889589303E-01-3.371304006E-01+
*       1.5354767315E+00               0
GRID*               9758               0-6.889589303E-01-2.760044985E-01+
*       1.4902530161E+00               0
GRID*               9759               0-6.578175145E-01-3.549901396E-01+
*       1.5663771809E+00               0
GRID*               9760               0-6.889589303E-01-2.558924849E-01+
*       1.5702296824E+00               0
GRID*               9761               0-5.312736391E-01-2.736465036E-01+
*       1.5989561015E+00               0
GRID*               9762               0-5.312736391E-01-2.027779721E-01+
*       1.6136927515E+00               0
GRID*               9763               0-5.628421783E-01-3.160711640E-01+
*       1.6200603681E+00               0
GRID*               9764               0-5.315685393E-01-3.780769666E-01+
*       1.5610927194E+00               0
GRID*               9765               0-5.315685393E-01-3.088550075E-01+
*       1.5835920915E+00               0
GRID*               9766               06.8883175037E-01-3.978631423E-03+
*       1.1792763429E+00               0
GRID*               9767               07.1867849046E-01-7.904332714E-02+
*       1.1952579316E+00               0
GRID*               9768               07.1867849046E-01-1.935289552E-02+
*       1.2049342223E+00               0
GRID*               9769               07.1820268070E-01-1.098692771E-01+
*       1.1905605927E+00               0
GRID*               9770               06.8713172437E-01-1.186938828E-01+
*       1.1617363124E+00               0
GRID*               9771               0-7.190673248E-018.8486019128E-01+
*       9.0778930777E-01               0
GRID*               9772               0-7.190673248E-018.9671241522E-01+
*       8.4170290182E-01               0
GRID*               9773               0-6.894761122E-019.1569150206E-01+
*       9.2035297255E-01               0
GRID*               9774               0-7.204087874E-018.7880056406E-01+
*       9.4228225181E-01               0
GRID*               9775               0-7.204087874E-018.5724202611E-01+
*       1.0073078300E+00               0
GRID*               9776               0-5.620109132E-014.9198299591E-02+
*       1.6716682448E+00               0
GRID*               9777               0-5.312802798E-011.7354922080E-02+
*       1.6383021557E+00               0
GRID*               9778               0-5.312802798E-01-5.646248340E-02+
*       1.6328328487E+00               0
GRID*               9779               0-1.186431058E+00-2.721440826E-01+
*       -6.175301667E-02               0
GRID*               9780               0-1.218711931E+00-2.700556894E-01+
*       -9.349361678E-02               0
GRID*               9781               0-1.218711931E+00-1.931326124E-01+
*       -9.349361678E-02               0
GRID*               9782               0-1.188727131E+00-3.491942623E-01+
*       -6.126046922E-02               0
GRID*               9783               0-1.217719127E+00-3.097807009E-01+
*       -9.325939989E-02               0
GRID*               9784               0-1.165760479E+00-4.001482958E-01+
*       -1.186281965E-01               0
GRID*               9785               0-1.162126002E+006.8526627108E-01+
*       -4.366991433E-02               0
GRID*               9786               0-1.152967358E+007.0576333076E-01+
*       -6.360234008E-02               0
GRID*               9787               0-1.151115516E+006.8819734038E-01+
*       -9.363665512E-02               0
GRID*               9788               0-1.160274160E+006.6770028070E-01+
*       -7.370422937E-02               0
GRID*               9789               0-1.185220372E+006.8264792351E-01+
*       -7.390566457E-02               0
GRID*               9790               0-1.185641843E+007.1744712677E-01+
*       -7.436217776E-02               0
GRID*               9791               0-1.183790001E+006.9988113639E-01+
*       -1.043964928E-01               0
GRID*               9792               0-1.168275389E+007.1141495071E-01+
*       -4.432340632E-02               0
GRID*               9793               0-1.143484643E+006.4986142065E-01+
*       -2.173423957E-02               0
GRID*               9794               0-1.167002612E+006.4452408602E-01+
*       -5.175917439E-02               0
GRID*               9795               0-1.125058216E+006.5286224835E-01+
*       -4.407862353E-02               0
GRID*               9796               0-1.156223860E+007.0022214162E-01+
*       -2.173423957E-02               0
GRID*               9797               0-1.162373246E+007.2637082125E-01+
*       -2.238773156E-02               0
GRID*               9798               0-1.148486997E+007.4144549250E-01+
*       -4.308324074E-02               0
GRID*               9799               0-1.165289515E+007.6861116768E-01+
*       -7.194523197E-02               0
GRID*               9800               0-1.180586270E+007.3561023472E-01+
*       -5.266629505E-02               0
GRID*               9801               0-1.179594704E+007.5443973969E-01+
*       -5.097407267E-02               0
GRID*               9802               08.6301567582E-01-6.271346707E-01+
*       -2.084825621E-02               0
GRID*               9803               08.8050091746E-01-6.383138752E-01+
*       -4.201460698E-02               0
GRID*               9804               08.4218336750E-01-6.787138997E-01+
*       -2.084825621E-02               0
GRID*               9805               08.7470734670E-01-6.098656117E-01+
*       -2.116635077E-02               0
GRID*               9806               09.3196173432E-01-5.811323634E-01+
*       -2.116635077E-02               0
GRID*               9807               08.3171051703E-01-7.043439620E-01+
*       -2.225756370E-02               0
GRID*               9808               08.4707724971E-01-7.282478562E-01+
*       -4.270568615E-02               0
GRID*               9809               09.7898930922E-01-5.619277860E-01+
*       -2.164213715E-02               0
GRID*               9810               09.6726573198E-01-5.890639352E-01+
*       -4.228993026E-02               0
GRID*               9811               01.0231878981E+00-5.852575662E-01+
*       -2.164213715E-02               0
GRID*               9812               09.6000730305E-01-5.683560597E-01+
*       -2.064779312E-02               0
GRID*               9813               05.9452764112E-01-7.689817510E-01+
*       1.3477656095E+00               0
GRID*               9814               05.9452963940E-01-8.110753299E-01+
*       1.2860257695E+00               0
GRID*               9815               08.6747877661E-01-6.608850468E-01+
*       -2.068050050E-01               0
GRID*               9816               08.4428563740E-01-6.590462292E-01+
*       -2.282202894E-01               0
GRID*               9817               08.2602418506E-01-7.126749496E-01+
*       -2.282202894E-01               0
GRID*               9818               08.1742527563E-01-7.587181933E-01+
*       -2.285808504E-01               0
GRID*               9819               08.4467195355E-01-8.021998962E-01+
*       -2.285808504E-01               0
GRID*               9820               08.3856134593E-01-7.496475832E-01+
*       -2.070937827E-01               0
GRID*               9821               08.3092422110E-01-7.257487595E-01+
*       -2.044812244E-02               0
GRID*               9822               08.4813869013E-01-8.032050061E-01+
*       -6.397756960E-02               0
GRID*               9823               08.3932243053E-01-8.286173729E-01+
*       -4.427542424E-02               0
GRID*               9824               0-2.731177484E-017.9949469310E-02+
*       -6.399998862E-02               0
GRID*               9825               0-2.599494430E-018.1853929492E-02+
*       -1.266388906E-01               0
GRID*               9826               0-2.775141023E-011.1568393815E-01+
*       -1.266837771E-01               0
GRID*               9827               0-2.092509218E-011.3264389505E-01+
*       -1.241908763E-01               0
GRID*               9828               0-2.409402327E-011.1460029753E-01+
*       -1.253226905E-01               0
GRID*               9829               0-2.365438788E-017.8865828696E-02+
*       -6.263890196E-02               0
GRID*               9830               0-1.741789690E-011.1717348381E-01+
*       -6.263890196E-02               0
GRID*               9831               07.1907085780E-017.6314224985E-01+
*       1.1612200098E+00               0
GRID*               9832               07.1907085780E-017.6318882200E-01+
*       1.2322843644E+00               0
GRID*               9833               01.0723264119E+00-9.813937478E-01+
*       -2.190512150E-02               0
GRID*               9834               01.0691648060E+00-9.516663907E-01+
*       -7.367259358E-02               0
GRID*               9835               01.0370132509E+00-9.813937478E-01+
*       -8.459201802E-02               0
GRID*               9836               01.0846472558E+00-9.196709018E-01+
*       -5.176747208E-02               0
GRID*               9837               01.0930543396E+00-9.512971770E-01+
*       -7.376568687E-02               0
GRID*               9838               01.0261767170E+00-9.063197157E-01+
*       -1.244507151E-01               0
GRID*               9839               01.0418053326E+00-9.183486493E-01+
*       -1.653997884E-01               0
GRID*               9840               01.0296185344E+00-9.375661641E-01+
*       -1.361424728E-01               0
GRID*               9841               01.0098318031E+00-9.687464378E-01+
*       -1.160453208E-01               0
GRID*               9842               01.0205488160E+00-9.493709824E-01+
*       -1.473727086E-01               0
GRID*               9843               01.0496204925E+00-9.181446968E-01+
*       -5.335842431E-02               0
GRID*               9844               01.0768019402E+00-9.307920068E-01+
*       -2.190512150E-02               0
GRID*               9845               01.0341380427E+00-9.501401856E-01+
*       -7.526354581E-02               0
GRID*               9846               09.9633831044E-01-9.533035846E-01+
*       -8.452260552E-02               0
GRID*               9847               01.0235197582E+00-9.659508946E-01+
*       -5.306930270E-02               0
GRID*               9848               09.3553346168E-01-9.687464378E-01+
*       -1.188553111E-01               0
GRID*               9849               01.0014413947E+00-9.060402415E-01+
*       -1.570573228E-01               0
GRID*               9850               01.0048832122E+00-9.372866899E-01+
*       -1.270824138E-01               0
GRID*               9851               09.6879868226E-01-9.374008012E-01+
*       -1.486327982E-01               0
GRID*               9852               01.0142050988E+00-9.188458901E-01+
*       -1.767226690E-01               0
GRID*               9853               0-7.432257019E-019.0074424452E-01+
*       -1.438270141E-01               0
GRID*               9854               0-7.400270691E-019.6097011744E-01+
*       -1.117125085E-01               0
GRID*               9855               0-6.723153567E-019.6097011744E-01+
*       -8.781548285E-02               0
GRID*               9856               0-6.701788520E-019.1286739465E-01+
*       -1.491556125E-01               0
GRID*               9857               0-6.024671396E-019.1286739465E-01+
*       -1.252585868E-01               0
GRID*               9858               04.8137397902E-019.3210126653E-01+
*       -1.858820688E-01               0
GRID*               9859               04.4148654360E-019.6439297775E-01+
*       -1.527943346E-01               0
GRID*               9860               04.7982457023E-018.9967428696E-01+
*       -1.318089811E-01               0
GRID*               9861               02.2973164549E-018.6206121038E-01+
*       -6.250871194E-02               0
GRID*               9862               02.3690513182E-018.9795299911E-01+
*       -9.429283323E-02               0
GRID*               9863               01.9992999001E-018.9683320884E-01+
*       -9.393939976E-02               0
GRID*               9864               02.5294925093E-019.3309181317E-01+
*       -1.883029336E-01               0
GRID*               9865               02.9026947072E-019.6563973239E-01+
*       -1.578600549E-01               0
GRID*               9866               0-1.148184887E+008.5236601244E-01+
*       -2.282676914E-01               0
GRID*               9867               0-1.170136867E+008.1102225344E-01+
*       -2.282676914E-01               0
GRID*               9868               0-1.170131232E+007.5323439474E-01+
*       -2.282676914E-01               0
GRID*               9869               0-1.186455764E+007.9803516708E-01+
*       -1.972026728E-01               0
GRID*               9870               0-1.186203478E+008.3296457663E-01+
*       -1.983550548E-01               0
GRID*               9871               0-1.184121726E+007.3857210364E-01+
*       -1.983331165E-01               0
GRID*               9872               0-1.200542719E+007.5347653844E-01+
*       -1.670092851E-01               0
GRID*               9873               0-1.186552225E+007.6813882954E-01+
*       -1.969438600E-01               0
GRID*               9874               0-1.168425624E+007.4109993184E-01+
*       -1.768207318E-01               0
GRID*               9875               0-1.184011842E+007.5500718174E-01+
*       -1.257596195E-01               0
GRID*               9876               0-1.183524060E+008.1114667074E-01+
*       -1.243859160E-01               0
GRID*               9877               0-1.151245654E+007.8255102069E-01+
*       -9.311618697E-02               0
GRID*               9878               0-1.183421081E+008.1172175279E-01+
*       -1.025023180E-01               0
GRID*               9879               0-1.183709233E+007.7590910587E-01+
*       -1.247826350E-01               0
GRID*               9880               0-1.202915611E+007.8376758794E-01+
*       -1.657676914E-01               0
GRID*               9881               0-1.202915611E+008.5583837182E-01+
*       -1.657676914E-01               0
GRID*               9882               0-1.216906106E+007.6910529684E-01+
*       -1.358331165E-01               0
GRID*               9883               0-1.216906106E+008.4117608073E-01+
*       -1.358331165E-01               0
GRID*               9884               0-1.215571577E+008.7740758266E-01+
*       -1.363875262E-01               0
GRID*               9885               0-1.182189531E+008.4737817267E-01+
*       -1.249403257E-01               0
GRID*               9886               0-1.187100426E+008.7598143502E-01+
*       -1.677024641E-01               0
GRID*               9887               0-1.160840852E+008.7393522328E-01+
*       -1.988875262E-01               0
GRID*               9888               0-1.174444460E+008.5441222419E-01+
*       -1.970826293E-01               0
GRID*               9889               0-1.217176766E+007.6151539061E-01+
*       -1.876111500E-01               0
GRID*               9890               0-1.233540153E+007.7714414901E-01+
*       -1.564349814E-01               0
GRID*               9891               0-1.233540153E+008.4921493290E-01+
*       -1.564349814E-01               0
GRID*               9892               0-1.233287866E+008.8414434244E-01+
*       -1.575873634E-01               0
GRID*               9893               0-1.204816715E+008.8271819481E-01+
*       -1.889023013E-01               0
GRID*               9894               04.2870230032E-019.7296080241E-01+
*       -8.783277567E-02               0
GRID*               9895               04.4415069640E-019.3331297416E-01+
*       -5.896845451E-02               0
GRID*               9896               0-5.312707944E-018.8480046533E-01+
*       9.1829432815E-01               0
GRID*               9897               05.3410826256E-01-2.682486523E-01+
*       3.7008278529E-01               0
GRID*               9898               05.9574563925E-01-2.894436921E-01+
*       3.6014725743E-01               0
GRID*               9899               05.9484939635E-01-2.546660429E-01+
*       3.5538177362E-01               0
GRID*               9900               05.3410826256E-01-3.184860609E-01+
*       4.1300074433E-01               0
GRID*               9901               05.3176542784E-01-3.425875688E-01+
*       4.3662666226E-01               0
GRID*               9902               05.6167296755E-01-3.306016244E-01+
*       4.6602580130E-01               0
GRID*               9903               06.8806999335E-01-5.086520861E-01+
*       3.0845468234E-01               0
GRID*               9904               06.8806999335E-01-4.954198492E-01+
*       2.2654358505E-01               0
GRID*               9905               06.8806999335E-01-5.531292560E-01+
*       2.6526529834E-01               0
GRID*               9906               06.2757087633E-01-4.880686577E-01+
*       2.9721294873E-01               0
GRID*               9907               06.8950088298E-01-4.739173400E-01+
*       3.1708738853E-01               0
GRID*               9908               06.8950088298E-01-4.043123473E-01+
*       3.0603223726E-01               0
GRID*               9909               06.8950088298E-01-4.606851032E-01+
*       2.3517629124E-01               0
GRID*               9910               06.8773143991E-01-3.983714746E-01+
*       2.6651064540E-01               0
GRID*               9911               06.8773143991E-01-4.547442304E-01+
*       1.9565469938E-01               0
GRID*               9912               06.2655189060E-01-4.762335483E-01+
*       2.1647685059E-01               0
GRID*               9913               06.8882045068E-01-4.895256126E-01+
*       1.8532907877E-01               0
GRID*               9914               06.8882045068E-01-5.472350194E-01+
*       2.2405079206E-01               0
GRID*               9915               06.5910826256E-01-3.097588786E-01+
*       3.5254787610E-01               0
GRID*               9916               06.5910826256E-01-2.410965717E-01+
*       3.4407052187E-01               0
GRID*               9917               06.8663737669E-01-2.663132895E-01+
*       3.0534084672E-01               0
GRID*               9918               06.8663737669E-01-3.349755965E-01+
*       3.1381820095E-01               0
GRID*               9919               06.2329231820E-01-3.489750000E-01+
*       3.0716206969E-01               0
GRID*               9920               06.2555431465E-01-2.855342189E-01+
*       2.7646402500E-01               0
GRID*               9921               06.2502345537E-01-3.193514396E-01+
*       2.7865682146E-01               0
GRID*               9922               06.8665494151E-01-3.692901865E-01+
*       2.9956268836E-01               0
GRID*               9923               06.2504102018E-01-3.536660296E-01+
*       2.6440130887E-01               0
GRID*               9924               0-1.176842712E+008.9167636509E-01+
*       -1.662770775E-01               0
GRID*               9925               0-1.173841070E+009.5208292118E-01+
*       -1.564699161E-01               0
GRID*               9926               0-1.197476857E+009.2928394026E-01+
*       -1.564877922E-01               0
GRID*               9927               0-1.221528849E+009.0559199000E-01+
*       -1.563149379E-01               0
GRID*               9928               0-1.170885440E+008.6349195774E-01+
*       -1.463496658E-01               0
GRID*               9929               06.5855025472E-011.4947604419E-01+
*       -1.866364224E-01               0
GRID*               9930               06.8781575323E-011.3857972324E-01+
*       -1.244431951E-01               0
GRID*               9931               06.5699918773E-011.1146304695E-01+
*       -1.878067727E-01               0
GRID*               9932               07.6995999348E-01-1.165449644E-01+
*       -1.887512823E-01               0
GRID*               9933               08.1395281452E-01-5.593299993E-02+
*       -1.887512823E-01               0
GRID*               9934               07.4080509049E-01-4.373925278E-02+
*       -1.887512823E-01               0
GRID*               9935               0-6.891748391E-01-2.146309176E-01+
*       1.5862405550E+00               0
GRID*               9936               0-6.891748391E-01-2.347429312E-01+
*       1.5062638887E+00               0
GRID*               9937               0-7.188585842E-01-3.780990771E-01+
*       1.5574974737E+00               0
GRID*               9938               07.1865389141E-019.6355892868E-02+
*       3.0115472859E-01               0
GRID*               9939               07.1865389141E-013.3457536672E-02+
*       2.9101076629E-01               0
GRID*               9940               06.8773062115E-011.2806547133E-02+
*       3.1788532760E-01               0
GRID*               9941               07.1907672974E-016.3662639808E-03+
*       2.9129331797E-01               0
GRID*               9942               0-1.169366098E+00-7.255004228E-01+
*       -2.110113044E-02               0
GRID*               9943               0-1.185754610E+00-7.400672599E-01+
*       -5.277563953E-02               0
GRID*               9944               0-1.154179719E+00-7.262705437E-01+
*       -4.233144784E-02               0
GRID*               9945               0-1.202144841E+00-7.560162811E-01+
*       -8.360113044E-02               0
GRID*               9946               0-1.217430866E+00-7.701246130E-01+
*       -1.146202095E-01               0
GRID*               9947               0-1.184845606E+00-7.558451608E-01+
*       -1.046124283E-01               0
GRID*               9948               0-1.169559580E+00-7.417368289E-01+
*       -7.359334924E-02               0
GRID*               9949               0-1.184082841E+00-7.764127256E-01+
*       -1.261702476E-01               0
GRID*               9950               0-1.184475390E+00-8.122855998E-01+
*       -1.264044148E-01               0
GRID*               9951               0-1.183696497E+00-8.113256693E-01+
*       -1.483342435E-01               0
GRID*               9952               0-1.152207183E+00-8.042075211E-01+
*       -6.349110664E-02               0
GRID*               9953               0-1.183662193E+00-8.337536175E-01+
*       -7.292985696E-02               0
GRID*               9954               0-1.160772381E+00-8.296613110E-01+
*       -4.340697975E-02               0
GRID*               9955               0-1.158882703E+00-8.436871079E-01+
*       -7.268795406E-02               0
GRID*               9956               0-1.233609769E+00-7.469275487E-01+
*       -9.417450909E-02               0
GRID*               9957               0-1.233609769E+00-6.731815714E-01+
*       -9.417450909E-02               0
GRID*               9958               0-1.201024508E+00-7.326480965E-01+
*       -8.416672790E-02               0
GRID*               9959               0-1.215886258E+00-8.773987760E-01+
*       -1.136054156E-01               0
GRID*               9960               0-1.182930781E+00-8.474889789E-01+
*       -1.253896210E-01               0
GRID*               9961               0-1.171005793E+00-8.639696973E-01+
*       -1.030320103E-01               0
GRID*               9962               0-1.167631525E+00-8.706311179E-01+
*       -5.110541564E-02               0
GRID*               9963               0-1.192130111E+00-8.739268864E-01+
*       -8.196921460E-02               0
GRID*               9964               0-1.156864803E+00-8.868214008E-01+
*       -5.192659465E-02               0
GRID*               9965               0-1.181363389E+00-8.901171692E-01+
*       -8.279039361E-02               0
GRID*               9966               0-1.172164059E+00-8.636792618E-01+
*       -1.262108000E-01               0
GRID*               9967               0-1.179776895E+00-9.154827191E-01+
*       -1.152176418E-01               0
GRID*               9968               0-1.136450599E+00-9.034697778E-01+
*       -1.256050664E-01               0
GRID*               9969               0-1.157431762E+00-9.400799901E-01+
*       -1.145815747E-01               0
GRID*               9970               0-1.157226946E+00-9.136339871E-01+
*       -8.253716059E-02               0
GRID*               9971               0-1.117931272E+00-8.650556431E-01+
*       -1.572000291E-01               0
GRID*               9972               0-1.173248179E+00-8.630851120E-01+
*       -1.481507939E-01               0
GRID*               9973               0-1.135617978E+00-8.772612835E-01+
*       -1.773913301E-01               0
GRID*               9974               0-1.161323192E+00-8.795658303E-01+
*       -1.257931832E-01               0
GRID*               9975               0-1.205119536E+00-8.935890589E-01+
*       -1.144265946E-01               0
GRID*               9976               0-1.217044523E+00-8.771083405E-01+
*       -1.367842053E-01               0
GRID*               9977               0-1.217044523E+00-8.050375566E-01+
*       -1.367842053E-01               0
GRID*               9978               0-1.190557560E+00-8.753546586E-01+
*       -1.684537074E-01               0
GRID*               9979               0-1.217414739E+00-6.748511404E-01+
*       -1.149922188E-01               0
GRID*               9980               0-1.217414739E+00-7.485971177E-01+
*       -1.149922188E-01               0
GRID*               9981               0-1.185378827E+00-6.995336785E-01+
*       -1.266822995E-01               0
GRID*               9982               0-1.152406613E+00-6.880658915E-01+
*       -1.575234155E-01               0
GRID*               9983               0-1.152520207E+00-7.240141419E-01+
*       -1.579096740E-01               0
GRID*               9984               0-1.185492421E+00-7.354819289E-01+
*       -1.270685580E-01               0
GRID*               9985               0-1.185508548E+00-7.570094242E-01+
*       -1.266965487E-01               0
GRID*               9986               0-1.169256134E+00-7.026149742E-01+
*       -2.123031740E-02               0
GRID*               9987               0-1.184936595E+00-6.813848460E-01+
*       -5.140011094E-02               0
GRID*               9988               0-1.148423823E+00-6.510357501E-01+
*       -2.123031740E-02               0
GRID*               9989               01.2185177129E+00-1.536315706E-01+
*       -9.350978280E-02               0
GRID*               9990               07.1876557323E-01-6.086498484E-01+
*       1.3667178616E+00               0
GRID*               9991               07.1876557323E-01-5.879244382E-01+
*       1.4346457184E+00               0
GRID*               9992               0-1.217302240E+00-1.535997806E-01+
*       -9.305797597E-02               0
GRID*               9993               0-1.186091123E+00-1.153589121E-01+
*       -6.219136780E-02               0
GRID*               9994               0-1.218788883E+00-1.156052853E-01+
*       -9.413339184E-02               0
GRID*               9995               0-1.218788883E+00-3.868220840E-02+
*       -9.413339184E-02               0
GRID*               9996               0-1.152439511E+00-6.391238048E-02+
*       -1.263409654E-01               0
GRID*               9997               0-1.131363069E+006.3240504073E-01+
*       -2.234438396E-02               0
GRID*               9998               0-1.154881037E+006.2706770610E-01+
*       -5.236931879E-02               0
GRID*               9999               0-1.086503483E+006.1163050571E-01+
*       -2.234438396E-02               0
GRID*              10000               02.3204962395E-012.1790238217E-01+
*       -6.171772111E-02               0
GRID*              10001               01.6965394193E-011.7955365847E-01+
*       -6.171772111E-02               0
GRID*              10002               05.9468751325E-017.6255399734E-01+
*       1.3516050371E+00               0
GRID*              10003               05.9468551497E-018.0464757618E-01+
*       1.2898651971E+00               0
GRID*              10004               05.9348603973E-018.2430502239E-01+
*       1.2594108089E+00               0
GRID*              10005               05.6226254021E-017.9546408395E-01+
*       1.2427711786E+00               0
GRID*              10006               05.9377422848E-018.3718051288E-01+
*       1.2333660376E+00               0
GRID*              10007               06.2510782866E-015.9997165541E-01+
*       5.0943493593E-01               0
GRID*              10008               06.8663279830E-016.2290585292E-01+
*       5.1401066362E-01               0
GRID*              10009               06.8847503037E-016.0302749810E-01+
*       4.7784162013E-01               0
GRID*              10010               06.8847503037E-015.2547074311E-01+
*       5.0889355407E-01               0
GRID*              10011               0-1.167503261E+007.2378800700E-01+
*       -2.290089687E-01               0
GRID*              10012               0-1.151807159E+007.2631583520E-01+
*       -2.074965840E-01               0
GRID*              10013               0-1.233636613E+007.4724781146E-01+
*       -1.561761686E-01               0
GRID*              10014               0-1.233636613E+006.7350183422E-01+
*       -1.561761686E-01               0
GRID*              10015               0-1.200043253E+006.9859031491E-01+
*       -1.662613852E-01               0
GRID*              10016               0-1.151748657E+007.2386127692E-01+
*       -1.563783003E-01               0
GRID*              10017               0-1.200954014E+007.3401441460E-01+
*       -1.667211375E-01               0
GRID*              10018               0-1.183724041E+007.0098567645E-01+
*       -1.456301854E-01               0
GRID*              10019               0-1.184223507E+007.5587189998E-01+
*       -1.463780854E-01               0
GRID*              10020               01.1353540967E+00-8.725300311E-01+
*       -2.294842219E-01               0
GRID*              10021               01.1573084679E+00-8.311756806E-01+
*       -2.294842219E-01               0
GRID*              10022               01.1850565763E+00-8.317447861E-01+
*       -1.986335176E-01               0
GRID*              10023               01.2010557002E+00-8.536712287E-01+
*       -1.675277290E-01               0
GRID*              10024               01.2017164119E+00-8.192026661E-01+
*       -1.666309834E-01               0
GRID*              10025               01.2178314298E+00-8.045024441E-01+
*       -1.361335176E-01               0
GRID*              10026               01.2178314298E+00-8.765732280E-01+
*       -1.361335176E-01               0
GRID*              10027               08.5583443216E-01-6.426618616E-01+
*       -2.285847156E-01               0
GRID*              10028               0-6.560114335E-014.3422995182E-01+
*       5.7976627020E-01               0
GRID*              10029               0-6.873577886E-014.5526421441E-01+
*       5.6081282695E-01               0
GRID*              10030               0-7.186536448E-014.2938860869E-01+
*       5.8514685704E-01               0
GRID*              10031               0-7.186536448E-014.4525395869E-01+
*       6.5229306142E-01               0
GRID*              10032               0-6.923445568E-014.0041057813E-01+
*       5.6094689062E-01               0
GRID*              10033               0-7.016627138E-013.7000690849E-01+
*       5.1558331274E-01               0
GRID*              10034               0-5.314592580E-014.4511529364E-01+
*       5.7000134744E-01               0
GRID*              10035               0-5.314592580E-014.5300159194E-01+
*       6.4561523138E-01               0
GRID*              10036               0-5.635178232E-014.0736498935E-01+
*       5.6913546293E-01               0
GRID*              10037               0-6.868541373E-014.2892615837E-01+
*       6.9860649055E-01               0
GRID*              10038               0-7.182433665E-014.5750306709E-01+
*       7.1320096593E-01               0
GRID*              10039               0-7.182433665E-014.5395274237E-01+
*       7.8122609361E-01               0
GRID*              10040               0-7.186107709E-014.5357666257E-01+
*       6.8589134716E-01               0
GRID*              10041               0-7.189549219E-01-5.442200218E-02+
*       1.6370814242E+00               0
GRID*              10042               0-6.879748421E-01-4.836788385E-02+
*       1.6722819799E+00               0
GRID*              10043               0-7.190199202E-01-1.688740647E-02+
*       1.6381002948E+00               0
GRID*              10044               09.1152472296E-01-9.004911609E-01+
*       -2.286301259E-01               0
GRID*              10045               09.0232841636E-01-9.469567044E-01+
*       -1.691270127E-01               0
GRID*              10046               09.0687729826E-01-9.232983518E-01+
*       -1.997349079E-01               0
GRID*              10047               09.1824033847E-01-9.084068634E-01+
*       -1.781012111E-01               0
GRID*              10048               09.2174633017E-01-8.864023716E-01+
*       -2.077167937E-01               0
GRID*              10049               0-5.311250151E-01-1.677492902E-01+
*       1.6216377542E+00               0
GRID*              10050               0-6.886113865E-013.1285297521E-01+
*       1.6186286129E+00               0
GRID*              10051               0-7.192235591E-013.0763549742E-01+
*       1.5845497468E+00               0
GRID*              10052               0-7.192235591E-013.7685745630E-01+
*       1.5620503746E+00               0
GRID*              10053               0-7.182682644E-014.1222728481E-01+
*       1.5499118187E+00               0
GRID*              10054               0-6.871367904E-014.5114147170E-01+
*       1.5644869988E+00               0
GRID*              10055               0-7.193878275E-012.7164782682E-01+
*       1.5965666904E+00               0
GRID*              10056               0-7.193878275E-012.0077929539E-01+
*       1.6113033405E+00               0
GRID*              10057               0-7.192393566E-011.6618328730E-01+
*       1.6200915062E+00               0
GRID*              10058               0-1.150356612E+005.4676969843E-01+
*       -1.205916379E-01               0
GRID*              10059               0-1.181468321E+006.2539524191E-01+
*       -8.484438396E-02               0
GRID*              10060               0-1.223412717E+006.1705707958E-01+
*       -9.252493483E-02               0
GRID*              10061               0-1.190232820E+005.8162616097E-01+
*       -6.161992676E-02               0
GRID*              10062               0-1.193589895E+006.4285162183E-01+
*       -8.423423957E-02               0
GRID*              10063               0-1.216820103E+005.0303061985E-01+
*       -9.409499193E-02               0
GRID*              10064               0-1.216820103E+005.7995369678E-01+
*       -9.409499193E-02               0
GRID*              10065               0-1.150356612E+004.6984662151E-01+
*       -1.205916379E-01               0
GRID*              10066               0-1.022614110E+005.8516044559E-01+
*       -2.139898711E-02               0
GRID*              10067               0-9.783904179E-015.6182670123E-01+
*       -2.139898711E-02               0
GRID*              10068               0-9.656464947E-015.8849707950E-01+
*       -4.213771885E-02               0
GRID*              10069               0-9.588790162E-015.6785803254E-01+
*       -2.073873174E-02               0
GRID*              10070               0-9.016509505E-015.9661251730E-01+
*       -2.073873174E-02               0
GRID*              10071               0-4.048098649E-019.3808490824E-01+
*       -1.855323106E-01               0
GRID*              10072               0-4.400274080E-019.6868923141E-01+
*       -1.538841569E-01               0
GRID*              10073               0-4.771674458E-019.3983181004E-01+
*       -1.872249803E-01               0
GRID*              10074               0-4.390852847E-018.8602119501E-01+
*       -1.339010317E-01               0
GRID*              10075               0-5.200728708E-019.1286739465E-01+
*       -1.352847590E-01               0
GRID*              10076               0-1.216651974E+00-7.691646825E-01+
*       -1.365500381E-01               0
GRID*              10077               0-1.184729656E+00-7.560494937E-01+
*       -1.486263774E-01               0
GRID*              10078               0-1.203796770E+00-7.574062460E-01+
*       -1.772793115E-01               0
GRID*              10079               0-1.185264502E+00-7.496947869E-01+
*       -2.072540008E-01               0
GRID*              10080               0-1.097863328E+00-9.100455565E-01+
*       -5.365412471E-02               0
GRID*              10081               0-1.118269909E+00-9.467960877E-01+
*       -6.221178940E-02               0
GRID*              10082               0-1.078389653E+00-9.165274209E-01+
*       -5.186923337E-02               0
GRID*              10083               0-1.133446096E+00-8.835448765E-01+
*       -2.205290126E-02               0
GRID*              10084               0-1.134013054E+00-9.368034658E-01+
*       -8.470788132E-02               0
GRID*              10085               0-1.133808238E+00-9.103574628E-01+
*       -5.266346720E-02               0
GRID*              10086               0-1.093927982E+00-8.800887960E-01+
*       -4.232091118E-02               0
GRID*              10087               0-1.124697274E+00-8.566008665E-01+
*       -4.363543968E-02               0
GRID*              10088               0-1.016375591E+00-9.120353249E-01+
*       -2.026800992E-02               0
GRID*              10089               0-1.113972421E+00-8.900267410E-01+
*       -2.026800992E-02               0
GRID*              10090               0-1.117907767E+00-9.199835014E-01+
*       -3.160122345E-02               0
GRID*              10091               0-1.028630585E+00-9.626708489E-01+
*       -1.154929124E-01               0
GRID*              10092               0-1.099589277E+00-9.626708489E-01+
*       -1.154609855E-01               0
GRID*              10093               0-1.078608114E+00-9.260606366E-01+
*       -1.264844772E-01               0
GRID*              10094               0-1.044669264E+00-9.251595431E-01+
*       -1.254516452E-01               0
GRID*              10095               0-1.026203656E+00-9.303343281E-01+
*       -1.268347789E-01               0
GRID*              10096               0-1.023817803E+00-9.320096467E-01+
*       -1.045801260E-01               0
GRID*              10097               0-1.042703251E+00-9.425808885E-01+
*       -8.337534396E-02               0
GRID*              10098               0-1.007894285E+00-9.693387978E-01+
*       -1.144610275E-01               0
GRID*              10099               0-1.015229262E+00-9.858085353E-01+
*       -8.579196990E-02               0
GRID*              10100               0-1.005467355E+00-9.370022770E-01+
*       -1.258028939E-01               0
GRID*              10101               0-9.341262850E-01-9.693387978E-01+
*       -1.167448856E-01               0
GRID*              10102               0-9.595955165E-01-9.543639647E-01+
*       -8.345334817E-02               0
GRID*              10103               0-1.133689907E+00-9.618194592E-01+
*       -1.150909515E-01               0
GRID*              10104               0-1.112708745E+00-9.252092469E-01+
*       -1.261144431E-01               0
GRID*              10105               0-1.180861015E+00-9.148885693E-01+
*       -1.371576357E-01               0
GRID*              10106               0-1.169914999E+00-9.254495357E-01+
*       -1.882910472E-01               0
GRID*              10107               0-1.198170395E+00-9.271581160E-01+
*       -1.574605492E-01               0
GRID*              10108               0-1.224657359E+00-9.289117979E-01+
*       -1.257910472E-01               0
GRID*              10109               0-1.176402627E+00-9.221441398E-01+
*       -6.329104717E-02               0
GRID*              10110               0-1.200901212E+00-9.254399082E-01+
*       -9.415484613E-02               0
GRID*              10111               0-1.133643289E+00-9.633897877E-01+
*       -1.363334518E-01               0
GRID*              10112               0-1.108965661E+00-9.438995311E-01+
*       -1.674322737E-01               0
GRID*              10113               0-1.130605712E+00-9.392025555E-01+
*       -1.680661662E-01               0
GRID*              10114               0-1.062684597E+00-9.633897877E-01+
*       -1.363653787E-01               0
GRID*              10115               0-1.151461295E+00-8.895326469E-01+
*       -1.988665886E-01               0
GRID*              10116               0-1.179716692E+00-8.912412272E-01+
*       -1.680360906E-01               0
GRID*              10117               0-1.206203656E+00-8.929949091E-01+
*       -1.363665886E-01               0
GRID*              10118               0-1.144741713E+00-8.665388115E-01+
*       -2.158253843E-02               0
GRID*              10119               0-1.226243853E+00-9.035462480E-01+
*       -9.336379896E-02               0
GRID*              10120               01.1686565886E+007.2440656287E-01+
*       -2.191744497E-02               0
GRID*              10121               01.1855591239E+007.3963927848E-01+
*       -5.287193579E-02               0
GRID*              10122               01.1542841663E+007.2552694268E-01+
*       -4.401976313E-02               0
GRID*              10123               01.1700778597E+007.0298989222E-01+
*       -2.210231816E-02               0
GRID*              10124               01.1492693186E+006.5140345424E-01+
*       -2.210231816E-02               0
GRID*              10125               01.1869803950E+007.1822260783E-01+
*       -5.305680898E-02               0
GRID*              10126               01.1864025535E+006.8207575818E-01+
*       -5.252323338E-02               0
GRID*              10127               01.2028527187E+007.3349342094E-01+
*       -8.460231816E-02               0
GRID*              10128               01.2028527187E+006.5974744370E-01+
*       -8.460231816E-02               0
GRID*              10129               01.2341276763E+006.7385977951E-01+
*       -9.345449082E-02               0
GRID*              10130               01.2341276763E+007.4760575675E-01+
*       -9.345449082E-02               0
GRID*              10131               01.2014314476E+007.5491009160E-01+
*       -8.441744497E-02               0
GRID*              10132               01.2169835214E+006.7515844948E-01+
*       -1.149347471E-01               0
GRID*              10133               01.2169835214E+007.4890442672E-01+
*       -1.149347471E-01               0
GRID*              10134               01.1846243321E+007.0021975503E-01+
*       -1.254811685E-01               0
GRID*              10135               01.1520906015E+006.8846803041E-01+
*       -1.563799103E-01               0
GRID*              10136               01.1848037571E+007.3660528975E-01+
*       -1.261071028E-01               0
GRID*              10137               01.1854610464E+007.0189276121E-01+
*       -1.467187771E-01               0
GRID*              10138               01.1830915493E+007.5546614732E-01+
*       -1.049497075E-01               0
GRID*              10139               01.2161080279E+007.6943829046E-01+
*       -1.150149605E-01               0
GRID*              10140               01.1839282636E+007.5713915350E-01+
*       -1.261873162E-01               0
GRID*              10141               01.1830638737E+007.7582901066E-01+
*       -1.268824611E-01               0
GRID*              10142               01.1806192228E+006.1930747678E-01+
*       -8.543520785E-02               0
GRID*              10143               01.2224864578E+006.1209411872E-01+
*       -9.314428024E-02               0
GRID*              10144               01.1882542463E+006.3638591487E-01+
*       -8.260510106E-02               0
GRID*              10145               01.2060362925E+006.3442243319E-01+
*       -6.106519546E-02               0
GRID*              10146               01.2335498348E+006.3771292986E-01+
*       -9.292091522E-02               0
GRID*              10147               09.7293222563E-01-5.222280543E-01+
*       -2.279601080E-01               0
GRID*              10148               01.0232484149E+00-5.480696505E-01+
*       -2.279601080E-01               0
GRID*              10149               05.3132660978E-012.2164409835E-01+
*       1.1506066247E+00               0
GRID*              10150               05.6147436835E-012.2385888712E-01+
*       1.1182111243E+00               0
GRID*              10151               05.3014775857E-012.4480974414E-01+
*       1.1372650108E+00               0
GRID*              10152               05.3014775857E-013.0888562731E-01+
*       1.1025436850E+00               0
GRID*              10153               06.5513775580E-013.5299463046E-01+
*       1.5660461512E+00               0
GRID*              10154               07.1662943237E-014.4262171382E-01+
*       1.5205881166E+00               0
GRID*              10155               07.1662943237E-013.7719796886E-01+
*       1.5574547052E+00               0
GRID*              10156               06.8544134319E-013.6075028477E-01+
*       1.6036110906E+00               0
GRID*              10157               07.1855951861E-014.7679892653E-01+
*       1.5025966251E+00               0
GRID*              10158               06.8725573402E-014.9447202145E-01+
*       1.5333971542E+00               0
GRID*              10159               06.8843284485E-01-4.250993114E-01+
*       8.1939161474E-01               0
GRID*              10160               07.1902668951E-01-4.477753867E-01+
*       8.4122213800E-01               0
GRID*              10161               07.1902668951E-01-4.288046534E-01+
*       9.0457162178E-01               0
GRID*              10162               07.1940615533E-01-4.523768451E-01+
*       8.1470556295E-01               0
GRID*              10163               07.1940615533E-01-4.559271710E-01+
*       7.4668043528E-01               0
GRID*              10164               0-1.097022200E+00-5.960143214E-01+
*       -2.119983015E-02               0
GRID*              10165               0-1.039767812E+00-5.672810741E-01+
*       -2.119983015E-02               0
GRID*              10166               0-1.032197313E+00-5.885601125E-01+
*       -4.152813261E-02               0
GRID*              10167               07.2015325991E-017.5935391375E-02+
*       1.2064171383E+00               0
GRID*              10168               07.2015325991E-017.9472778169E-03+
*       1.2051587354E+00               0
GRID*              10169               07.1753251535E-011.0897335314E-01+
*       1.2063065374E+00               0
GRID*              10170               06.8601591087E-011.1690446779E-01+
*       1.1712093399E+00               0
GRID*              10171               06.5850338228E-011.0895629739E-01+
*       1.2019327126E+00               0
GRID*              10172               05.5586398390E-01-9.433150711E-01+
*       6.7305456878E-01               0
GRID*              10173               05.3037832120E-01-8.996273539E-01+
*       7.5485509526E-01               0
GRID*              10174               0-9.448062816E-01-5.972867933E-01+
*       -2.072818158E-01               0
GRID*              10175               0-9.444501659E-01-5.752765545E-01+
*       -2.288794387E-01               0
GRID*              10176               0-1.007814830E+00-5.786659665E-01+
*       -2.288794387E-01               0
GRID*              10177               0-9.249504706E-01-5.810314428E-01+
*       -2.284023772E-01               0
GRID*              10178               09.7824795302E-02-1.769176188E-02+
*       -6.168343159E-02               0
GRID*              10179               0-6.880133421E-019.4140164468E-01+
*       3.4292287948E-01               0
GRID*              10180               0-7.187472416E-019.1137426420E-01+
*       3.8320529812E-01               0
GRID*              10181               01.0211450152E-011.6408633009E-01+
*       -6.340966394E-02               0
GRID*              10182               01.1595080780E-011.7316031168E-01+
*       -1.260648208E-01               0
GRID*              10183               01.3821211270E-011.6221287293E-01+
*       -6.265515686E-02               0
GRID*              10184               0-2.429018521E-019.2450287967E-01+
*       -1.275766007E-01               0
GRID*              10185               0-2.985019501E-019.3223150391E-01+
*       -6.641419869E-02               0
GRID*              10186               0-2.780174021E-019.5607442170E-01+
*       -9.654192372E-02               0
GRID*              10187               0-3.103423988E-019.7615708222E-01+
*       -9.482274955E-02               0
GRID*              10188               0-3.120337200E-019.4742282343E-01+
*       -1.256468299E-01               0
GRID*              10189               0-2.797087233E-019.2734016291E-01+
*       -1.273660041E-01               0
GRID*              10190               0-2.547423008E-019.6842845798E-01+
*       -1.559851516E-01               0
GRID*              10191               0-1.822869191E-019.6842845798E-01+
*       -1.559837078E-01               0
GRID*              10192               0-2.564336220E-019.3969419919E-01+
*       -1.868092319E-01               0
GRID*              10193               0-2.237882506E-018.3804470574E-01+
*       -6.354983376E-02               0
GRID*              10194               0-2.367677854E-018.4985228907E-01+
*       -1.256169056E-01               0
GRID*              10195               0-2.199074326E-018.1858464364E-01+
*       -1.270543920E-01               0
GRID*              10196               09.8827803964E-015.6998859594E-01+
*       -2.281662581E-01               0
GRID*              10197               01.0327835378E+005.6960162611E-01+
*       -2.281662581E-01               0
GRID*              10198               01.0403436313E+005.9353368491E-01+
*       -2.074916170E-01               0
GRID*              10199               08.4177852505E-03-6.608568855E-01+
*       -6.297559074E-02               0
GRID*              10200               0-1.318647665E-02-6.733892841E-01+
*       -1.250164828E-01               0
GRID*              10201               0-2.436359538E-018.0829448398E-01+
*       -6.350455819E-02               0
GRID*              10202               0-2.566154886E-018.2010206732E-01+
*       -1.255716301E-01               0
GRID*              10203               0-6.441186545E-01-9.612667472E-01+
*       -3.035609356E-02               0
GRID*              10204               0-7.262120012E-01-9.101610635E-01+
*       1.7676909743E-01               0
GRID*              10205               0-6.936658263E-01-9.361771250E-01+
*       9.1022670884E-02               0
GRID*              10206               0-6.555959301E-01-8.811120349E-01+
*       1.4510627613E-01               0
GRID*              10207               0-5.617904456E-01-9.345829464E-01+
*       1.9776257695E-01               0
GRID*              10208               0-5.915205430E-01-9.723647828E-01+
*       1.1728093437E-01               0
GRID*              10209               0-5.931125998E-01-9.723647828E-01+
*       1.9315197096E-01               0
GRID*              10210               0-5.893604151E-01-9.721040967E-01+
*       7.9877048108E-02               0
GRID*              10211               0-5.593908874E-01-9.320256660E-01+
*       6.1684590914E-02               0
GRID*              10212               0-5.929804487E-01-9.622181636E-01+
*       2.2915985432E-01               0
GRID*              10213               0-5.616115590E-01-9.329757826E-01+
*       2.7144371161E-01               0
GRID*              10214               0-6.886216896E-01-4.620179880E-01+
*       -9.602104006E-04               0
GRID*              10215               0-6.886216896E-01-5.389410649E-01+
*       -9.602104006E-04               0
GRID*              10216               0-6.871231007E-01-4.238708236E-01+
*       -2.046301336E-04               0
GRID*              10217               0-7.191828777E-018.8942193616E-01+
*       2.3418208344E-01               0
GRID*              10218               0-7.191828777E-019.0164787682E-01+
*       3.1037802602E-01               0
GRID*              10219               0-7.191828777E-019.0841829769E-01+
*       1.6651412900E-01               0
GRID*              10220               0-8.896966228E-018.6253290551E-01+
*       -2.073090332E-01               0
GRID*              10221               0-8.764787923E-018.7465474138E-01+
*       -2.284540960E-01               0
GRID*              10222               0-8.533941586E-018.2359507132E-01+
*       -2.284540960E-01               0
GRID*              10223               0-8.416867637E-017.9724597716E-01+
*       -2.280449169E-01               0
GRID*              10224               0-8.536116816E-017.7511871984E-01+
*       -2.074228143E-01               0
GRID*              10225               0-7.187197185E-01-5.086959126E-01+
*       1.4829734559E+00               0
GRID*              10226               0-1.202034878E+00-6.593848552E-01+
*       -8.373031740E-02               0
GRID*              10227               0-1.215611448E+00-6.392599803E-01+
*       -1.140503975E-01               0
GRID*              10228               0-1.162000393E+00-6.309108752E-01+
*       -5.155039747E-02               0
GRID*              10229               0-1.188886605E+00-6.339997999E-01+
*       -8.265298929E-02               0
GRID*              10230               0-1.175310034E+00-6.541246748E-01+
*       -5.233290922E-02               0
GRID*              10231               0-1.170090508E+00-6.464440148E-01+
*       -1.030874198E-01               0
GRID*              10232               0-1.144734114E+00-6.433418527E-01+
*       -7.302094867E-02               0
GRID*              10233               0-1.170556639E+00-6.459950128E-01+
*       -1.258934777E-01               0
GRID*              10234               0-1.183575535E+00-6.639425184E-01+
*       -1.257404782E-01               0
GRID*              10235               0-1.150868005E+00-6.142195447E-01+
*       -5.153702232E-02               0
GRID*              10236               0-1.177754217E+00-6.173084694E-01+
*       -8.263961414E-02               0
GRID*              10237               0-1.159424252E+00-6.293036823E-01+
*       -1.258801025E-01               0
GRID*              10238               0-1.149481964E+00-5.570842472E-01+
*       -1.993430802E-01               0
GRID*              10239               0-1.178189511E+00-5.876891738E-01+
*       -1.682894227E-01               0
GRID*              10240               0-1.155956555E+00-6.270003284E-01+
*       -1.993430802E-01               0
GRID*              10241               0-1.180495817E+00-6.235175626E-01+
*       -1.696315614E-01               0
GRID*              10242               0-1.172909279E+00-6.468021859E-01+
*       -1.485331609E-01               0
GRID*              10243               0-1.148576317E+00-6.485189003E-01+
*       -1.786956614E-01               0
GRID*              10244               0-1.204479060E+00-6.225686498E-01+
*       -1.140370223E-01               0
GRID*              10245               0-1.204945191E+00-6.221196478E-01+
*       -1.368430802E-01               0
GRID*              10246               0-1.165760479E+00-5.539944496E-01+
*       -1.186281965E-01               0
GRID*              10247               0-1.136771843E+00-6.275235985E-01+
*       -2.130465778E-02               0
GRID*              10248               0-1.119505564E+00-6.399545761E-01+
*       -4.277520898E-02               0
GRID*              10249               0-1.232901718E+00-6.373846061E-01+
*       -9.266979354E-02               0
GRID*              10250               0-1.206176874E+00-6.321244257E-01+
*       -6.127238536E-02               0
GRID*              10251               07.6091940966E-015.2423816986E-01+
*       -1.876885905E-01               0
GRID*              10252               09.5468692742E-015.9663516301E-01+
*       -2.100907807E-02               0
GRID*              10253               09.9891061560E-015.7330142543E-01+
*       -2.100907807E-02               0
GRID*              10254               09.5128364343E-016.1149193736E-01+
*       -4.252134567E-02               0
GRID*              10255               01.0211990138E+005.6130989319E-01+
*       -2.247911218E-02               0
GRID*              10256               07.1828252363E-017.4295843149E-01+
*       1.2981993932E+00               0
GRID*              10257               06.8749453374E-017.7704022725E-01+
*       1.2917858962E+00               0
GRID*              10258               08.9944893171E-01-9.688605490E-01+
*       -1.404056955E-01               0
GRID*              10259               09.3348276585E-01-9.371801526E-01+
*       -1.276109556E-01               0
GRID*              10260               09.1536085382E-01-9.303107081E-01+
*       -1.493798938E-01               0
GRID*              10261               08.8002225050E-01-9.614501590E-01+
*       -1.399679719E-01               0
GRID*              10262               08.8457113240E-01-9.377918065E-01+
*       -1.705758671E-01               0
GRID*              10263               09.1405608464E-01-9.297697626E-01+
*       -1.271732320E-01               0
GRID*              10264               08.9560278047E-01-9.229306832E-01+
*       -1.282552024E-01               0
GRID*              10265               08.8921855710E-01-9.149846156E-01+
*       -1.994710851E-01               0
GRID*              10266               08.7785551689E-01-9.298761040E-01+
*       -2.211047820E-01               0
GRID*              10267               08.9272454880E-01-8.929801238E-01+
*       -2.290866677E-01               0
GRID*              10268               08.7677895006E-01-8.569676126E-01+
*       -2.290866677E-01               0
GRID*              10269               07.0370822305E-01-3.683491877E-02+
*       -1.878073500E-01               0
GRID*              10270               07.3286312603E-01-1.096406304E-01+
*       -1.878073500E-01               0
GRID*              10271               07.1889441708E-01-9.127280438E-01+
*       5.2112759086E-01               0
GRID*              10272               03.2959527231E-01-9.337717053E-01+
*       -1.876187685E-01               0
GRID*              10273               02.9409924917E-01-9.025627342E-01+
*       -2.189919047E-01               0
GRID*              10274               02.2054653269E-01-9.014672238E-01+
*       -2.189919047E-01               0
GRID*              10275               03.3083570406E-01-9.015595747E-01+
*       -2.186268638E-01               0
GRID*              10276               04.0418161819E-01-9.026576944E-01+
*       -2.186268638E-01               0
GRID*              10277               0-8.386090797E-01-7.452266536E-01+
*       -2.251156019E-02               0
GRID*              10278               0-8.530903432E-01-7.403594078E-01+
*       -4.332691446E-02               0
GRID*              10279               0-5.621508362E-018.9167776056E-01+
*       1.0548086060E+00               0
GRID*              10280               0-5.314530722E-018.6666611723E-01+
*       1.0407075477E+00               0
GRID*              10281               0-5.306977640E-018.5626088954E-01+
*       1.0728895731E+00               0
GRID*              10282               05.3068743069E-011.8188781231E-02+
*       -1.872518546E-01               0
GRID*              10283               0-1.153852677E+00-9.202954078E-01+
*       -3.061056595E-02               0
GRID*              10284               0-8.990376215E-01-9.681329312E-01+
*       -1.170115441E-01               0
GRID*              10285               0-9.245068530E-01-9.531580981E-01+
*       -8.372000663E-02               0
GRID*              10286               0-9.130601746E-01-9.326506116E-01+
*       -1.041068064E-01               0
GRID*              10287               0-9.369624566E-01-9.160707381E-01+
*       -7.315767683E-02               0
GRID*              10288               0-9.456005248E-01-9.368829259E-01+
*       -5.204077897E-02               0
GRID*              10289               0-9.806891883E-01-9.380887925E-01+
*       -5.177412051E-02               0
GRID*              10290               0-9.701245840E-01-9.224772689E-01+
*       -2.070840900E-02               0
GRID*              10291               0-9.614865158E-01-9.016650810E-01+
*       -4.182530685E-02               0
GRID*              10292               0-9.880241647E-01-9.545585300E-01+
*       -2.310506291E-02               0
GRID*              10293               0-8.160177705E-01-9.645176804E-01+
*       -1.259585046E-01               0
GRID*              10294               0-8.791936201E-01-9.645176804E-01+
*       -1.170367926E-01               0
GRID*              10295               0-8.734179626E-01-9.397172656E-01+
*       -8.419732751E-02               0
GRID*              10296               0-9.046628516E-01-9.495428473E-01+
*       -8.374525510E-02               0
GRID*              10297               0-9.257565234E-01-9.332676750E-01+
*       -5.206602743E-02               0
GRID*              10298               0-8.698521897E-01-9.112465914E-01+
*       -5.206602743E-02               0
GRID*              10299               0-8.812988681E-01-9.317540780E-01+
*       -3.167922766E-02               0
GRID*              10300               0-9.669304929E-01-9.708337022E-01+
*       -5.478429058E-02               0
GRID*              10301               0-8.937544717E-01-8.946667179E-01+
*       -2.111689786E-02               0
GRID*              10302               0-9.496588054E-01-9.166878015E-01+
*       -2.111689786E-02               0
GRID*              10303               0-1.026318816E+00-9.301521734E-01+
*       -1.466744131E-01               0
GRID*              10304               0-1.010280138E+00-9.676634792E-01+
*       -1.367156804E-01               0
GRID*              10305               0-1.021484671E+00-9.481315418E-01+
*       -1.684569721E-01               0
GRID*              10306               0-6.360637930E-01-9.098698231E-01+
*       -2.138680604E-01               0
GRID*              10307               0-7.018192197E-01-9.136757017E-01+
*       -2.138680604E-01               0
GRID*              10308               0-7.032671493E-01-9.425107544E-01+
*       -1.888775862E-01               0
GRID*              10309               0-6.010885091E-01-9.056983224E-01+
*       -2.107328896E-01               0
GRID*              10310               0-5.597922639E-01-9.352522900E-01+
*       -1.774622890E-01               0
GRID*              10311               06.2411676123E-015.4441159238E-01+
*       2.6745893608E-01               0
GRID*              10312               06.2250146749E-015.3826781809E-01+
*       2.2603828539E-01               0
GRID*              10313               06.8585466087E-015.5988811705E-01+
*       2.4808656558E-01               0
GRID*              10314               06.2490890699E-015.1538226407E-01+
*       2.4922262778E-01               0
GRID*              10315               06.8664680662E-015.3085878874E-01+
*       2.2985025728E-01               0
GRID*              10316               0-7.183313347E-019.1928089609E-01+
*       1.3083441872E-01               0
GRID*              10317               0-6.878466856E-019.4482159438E-01+
*       1.2412090317E-01               0
GRID*              10318               07.1798256729E-01-9.087246383E-01+
*       6.5858925646E-01               0
GRID*              10319               06.8770349793E-01-9.408147505E-01+
*       3.4319874656E-01               0
GRID*              10320               07.1854131838E-01-9.110980763E-01+
*       3.8334235756E-01               0
GRID*              10321               0-6.416191072E-01-9.607958308E-01+
*       -7.532642581E-02               0
GRID*              10322               0-7.093639618E-01-9.607958308E-01+
*       -9.923274805E-02               0
GRID*              10323               05.6116418818E-01-3.995654187E-01+
*       9.4104196924E-01               0
GRID*              10324               05.3066337167E-01-3.693615764E-01+
*       1.0266235600E+00               0
GRID*              10325               05.3066337167E-01-4.216642827E-01+
*       9.7328513503E-01               0
GRID*              10326               05.3165554515E-01-3.444797896E-01+
*       1.0524041914E+00               0
GRID*              10327               05.6291909149E-01-3.187426728E-01+
*       1.0417044885E+00               0
GRID*              10328               0-8.965019728E-019.2466769081E-01+
*       -1.294638885E-01               0
GRID*              10329               0-9.145729853E-019.3087770381E-01+
*       -1.296398044E-01               0
GRID*              10330               0-9.548876276E-019.6261302709E-01+
*       -1.168069405E-01               0
GRID*              10331               0-8.805892861E-019.6261302709E-01+
*       -1.196169308E-01               0
GRID*              10332               0-8.774163684E-019.3726640992E-01+
*       -8.699784073E-02               0
GRID*              10333               0-8.800230150E-019.6205466371E-01+
*       -1.408407312E-01               0
GRID*              10334               0-8.755477889E-019.4315678962E-01+
*       -1.792612978E-01               0
GRID*              10335               0-8.836198225E-019.8186343036E-01+
*       -1.686287694E-01               0
GRID*              10336               0-8.791445964E-019.6296555627E-01+
*       -2.070493359E-01               0
GRID*              10337               0-8.995325092E-019.4391809407E-01+
*       -1.784757271E-01               0
GRID*              10338               0-9.140067142E-019.3031934043E-01+
*       -1.508636049E-01               0
GRID*              10339               06.8574113380E-01-2.315356403E-01+
*       3.0057536290E-01               0
GRID*              10340               06.2465807176E-01-2.507565697E-01+
*       2.7169854118E-01               0
GRID*              10341               06.8891693796E-01-2.371870985E-01+
*       2.6038728944E-01               0
GRID*              10342               06.8891693796E-01-3.058494054E-01+
*       2.6886464367E-01               0
GRID*              10343               06.8891693796E-01-2.786749454E-01+
*       1.9104343477E-01               0
GRID*              10344               06.2311460716E-018.8457948456E-01+
*       4.7238921678E-02               0
GRID*              10345               06.5305754947E-019.6046490501E-01+
*       5.5288384466E-02               0
GRID*              10346               06.8482042064E-019.2893992636E-01+
*       8.9050659857E-02               0
GRID*              10347               06.4416313412E-019.6046490501E-01+
*       -3.110135799E-02               0
GRID*              10348               0-7.190856402E-01-7.631170596E-01+
*       1.2320941426E+00               0
GRID*              10349               0-7.190856402E-01-7.630704874E-01+
*       1.1610297885E+00               0
GRID*              10350               08.2437142318E-01-9.462366346E-01+
*       -6.876898843E-02               0
GRID*              10351               08.1973211634E-01-9.194939374E-01+
*       -3.701972501E-02               0
GRID*              10352               07.4150743769E-01-9.615219198E-01+
*       -1.110185186E-01               0
GRID*              10353               08.5824423244E-01-8.237988779E-01+
*       -2.284903627E-01               0
GRID*              10354               08.7683085768E-01-8.280787859E-01+
*       -2.081593778E-01               0
GRID*              10355               08.6919836936E-01-8.393237988E-01+
*       -2.296690151E-01               0
GRID*              10356               01.1164259013E+005.8988171598E-01+
*       -2.282092409E-01               0
GRID*              10357               01.1463979531E+006.0008815416E-01+
*       -1.977704715E-01               0
GRID*              10358               01.0746124134E+005.8044298910E-01+
*       -2.282092409E-01               0
GRID*              10359               01.1344652511E+006.3062244329E-01+
*       -2.282092409E-01               0
GRID*              10360               01.0518720116E+005.7584164492E-01+
*       -2.293253589E-01               0
GRID*              10361               01.2157677886E+006.3967641153E-01+
*       -1.144608208E-01               0
GRID*              10362               01.1705802558E+006.4704853621E-01+
*       -1.045202643E-01               0
GRID*              10363               01.1705726823E+006.4834565806E-01+
*       -1.254741502E-01               0
GRID*              10364               01.1834085993E+006.6473771709E-01+
*       -1.250072423E-01               0
GRID*              10365               01.1367917549E+006.2700324921E-01+
*       -2.028553353E-02               0
GRID*              10366               0-1.085404818E+00-9.242173304E-01+
*       -1.986784717E-01               0
GRID*              10367               0-1.126588703E+00-9.134365943E-01+
*       -1.986784717E-01               0
GRID*              10368               0-1.081708353E+00-9.413372861E-01+
*       -2.187538020E-01               0
GRID*              10369               0-1.122892238E+00-9.305565500E-01+
*       -2.187538020E-01               0
GRID*              10370               0-1.070192665E+00-9.609778060E-01+
*       -1.881820006E-01               0
GRID*              10371               0-1.073889130E+00-9.438578503E-01+
*       -1.681066704E-01               0
GRID*              10372               0-1.144532289E+00-9.258595744E-01+
*       -2.193876945E-01               0
GRID*              10373               0-1.061618963E+00-9.057029854E-01+
*       -2.277551875E-01               0
GRID*              10374               0-1.102802848E+00-8.949222493E-01+
*       -2.277551875E-01               0
GRID*              10375               0-1.046074243E+00-8.931051131E-01+
*       -2.061211897E-01               0
GRID*              10376               0-1.038898742E+00-9.448754427E-01+
*       -1.654420945E-01               0
GRID*              10377               0-1.050103276E+00-9.253435053E-01+
*       -1.971833861E-01               0
GRID*              10378               0-1.124671962E+00-8.878222498E-01+
*       -2.285247416E-01               0
GRID*              10379               0-1.119423718E+00-8.592327797E-01+
*       -2.070811059E-01               0
GRID*              10380               0-1.157053919E+00-8.450566081E-01+
*       -1.778405696E-01               0
GRID*              10381               0-1.033000359E+00-9.284910219E-01+
*       -1.990287734E-01               0
GRID*              10382               0-1.046631822E+00-9.412956053E-01+
*       -2.194281986E-01               0
GRID*              10383               05.3004204216E-01-9.053147348E-01+
*       3.2959380218E-01               0
GRID*              10384               05.3004204216E-01-9.023566997E-01+
*       2.5309590168E-01               0
GRID*              10385               0-9.765000248E-01-5.858287287E-01+
*       -2.032830246E-02               0
GRID*              10386               0-1.020698615E+00-5.624989488E-01+
*       -2.032830246E-02               0
GRID*              10387               01.1774564543E+006.1218050373E-01+
*       -1.657092409E-01               0
GRID*              10388               01.2189414988E+006.0329226581E-01+
*       -1.570612306E-01               0
GRID*              10389               01.1968033128E+006.1327745786E-01+
*       -1.889840122E-01               0
GRID*              10390               01.1553182683E+006.2216569578E-01+
*       -1.976320225E-01               0
GRID*              10391               01.2048048938E+006.2405386191E-01+
*       -1.360133293E-01               0
GRID*              10392               01.1618136905E+006.4249580147E-01+
*       -1.985133293E-01               0
GRID*              10393               01.1826667077E+006.3403905396E-01+
*       -1.679361110E-01               0
GRID*              10394               01.1623116047E+006.7339191691E-01+
*       -1.777562705E-01               0
GRID*              10395               01.1512790219E+006.5703207626E-01+
*       -1.783325092E-01               0
GRID*              10396               01.1724457045E+006.4911516746E-01+
*       -1.465597508E-01               0
GRID*              10397               01.1596173610E+006.3142598658E-01+
*       -1.260727728E-01               0
GRID*              10398               01.2278618140E+006.2536980744E-01+
*       -1.569227816E-01               0
GRID*              10399               01.1955026247E+006.5043111299E-01+
*       -1.674692031E-01               0
GRID*              10400               01.1413247326E+006.5128497326E-01+
*       -2.285067125E-01               0
GRID*              10401               01.1307900640E+006.6582124805E-01+
*       -2.083258924E-01               0
GRID*              10402               05.8222488690E-019.6097173327E-01+
*       -3.197074693E-02               0
GRID*              10403               05.9111930225E-019.6097173327E-01+
*       5.4418995525E-02               0
GRID*              10404               05.8186789746E-019.8080244313E-01+
*       6.6195021177E-02               0
GRID*              10405               05.5186871038E-019.4177417640E-01+
*       4.7806841549E-02               0
GRID*              10406               05.5174040290E-019.5324205304E-01+
*       7.3408580057E-02               0
GRID*              10407               05.6099180769E-019.3341134318E-01+
*       6.1632554405E-02               0
GRID*              10408               05.7630554591E-019.6050002080E-01+
*       -7.531400018E-02               0
GRID*              10409               04.9377850456E-019.6050002080E-01+
*       -8.485381429E-02               0
GRID*              10410               06.8659990324E-013.8473193996E-01+
*       6.6144821120E-04               0
GRID*              10411               0-1.191000259E+008.7340267061E-01+
*       -8.228893817E-02               0
GRID*              10412               0-1.148680586E+008.5936007562E-01+
*       -7.261043431E-02               0
GRID*              10413               0-1.171931818E+008.6307310273E-01+
*       -1.235149391E-01               0
GRID*              10414               0-1.216617954E+008.7698872765E-01+
*       -1.135527995E-01               0
GRID*              10415               0-1.168373401E+008.7020984867E-01+
*       -5.105279950E-02               0
GRID*              10416               0-1.182677432E+009.1572569591E-01+
*       -1.360682887E-01               0
GRID*              10417               0-1.205313863E+008.9310251272E-01+
*       -1.349621396E-01               0
GRID*              10418               0-1.160935109E+008.7939758313E-01+
*       -1.247677433E-01               0
GRID*              10419               0-1.172239200E+008.6328379805E-01+
*       -1.033584032E-01               0
GRID*              10420               05.9302669869E-01-8.313959802E-01+
*       1.2546565136E+00               0
GRID*              10421               05.6245369343E-01-7.969097067E-01+
*       1.2245835921E+00               0
GRID*              10422               05.9442926674E-01-8.315351778E-01+
*       1.2199327464E+00               0
GRID*              10423               07.1875029295E-01-7.679993486E-01+
*       1.2281260165E+00               0
GRID*              10424               07.1875029295E-01-7.433077957E-01+
*       1.2800213380E+00               0
GRID*              10425               06.8810097603E-01-7.625440062E-01+
*       1.3001722976E+00               0
GRID*              10426               07.1926031018E-01-7.804980846E-01+
*       1.2013238554E+00               0
GRID*              10427               02.6434695414E-01-6.661167667E-01+
*       -6.244388870E-02               0
GRID*              10428               01.1672566720E-01-2.832865623E-01+
*       -6.340229011E-02               0
GRID*              10429               08.6614088746E-02-2.896927538E-01+
*       -1.253038874E-01               0
GRID*              10430               09.5597649051E-02-3.129503391E-01+
*       -6.190159728E-02               0
GRID*              10431               01.2215372153E+00-3.021121937E-04+
*       -1.562455598E-01               0
GRID*              10432               0-5.573979513E-01-3.756479037E-02+
*       -1.873403087E-01               0
GRID*              10433               06.6403531398E-01-9.027378436E-01+
*       1.1142392005E+00               0
GRID*              10434               06.9605943630E-01-8.817318511E-01+
*       1.0672370551E+00               0
GRID*              10435               07.1952432214E-01-8.684152364E-01+
*       9.7552819708E-01               0
GRID*              10436               07.1935068308E-01-7.222635444E-01+
*       1.3100143023E+00               0
GRID*              10437               06.5831107924E-011.3678311283E-01+
*       1.1949062980E+00               0
GRID*              10438               06.8630493437E-011.2741988275E-01+
*       1.2290605266E+00               0
GRID*              10439               06.2450710337E-011.1667059405E-01+
*       1.2554974086E+00               0
GRID*              10440               07.1848339553E-011.3648035549E-01+
*       1.1982362232E+00               0
GRID*              10441               07.1848339553E-011.9748400891E-01+
*       1.1639069183E+00               0
GRID*              10442               05.9439532542E-011.4295336410E-01+
*       1.7037022947E+00               0
GRID*              10443               05.9439446343E-016.8429689376E-02+
*       1.7092874816E+00               0
GRID*              10444               05.9439483334E-012.1580826614E-01+
*       1.6870732816E+00               0
GRID*              10445               05.9345957968E-013.1535531898E-02+
*       1.7102709163E+00               0
GRID*              10446               07.1753470670E-012.2182284827E-01+
*       1.6214380890E+00               0
GRID*              10447               06.8725888115E-012.0788928323E-01+
*       1.6566546720E+00               0
GRID*              10448               06.5732237317E-012.3906858906E-01+
*       1.6113671344E+00               0
GRID*              10449               07.1753470670E-013.0306076399E-01+
*       1.5866851379E+00               0
GRID*              10450               07.1972417445E-019.6418952639E-02+
*       1.6347179152E+00               0
GRID*              10451               07.1972417445E-011.8382994345E-01+
*       1.6313195086E+00               0
GRID*              10452               09.6572887014E-015.7140681723E-01+
*       -2.287963787E-01               0
GRID*              10453               09.5818392597E-015.9519779648E-01+
*       -2.075812868E-01               0
GRID*              10454               0-1.223513036E+00-9.052644558E-01+
*       -1.566695020E-01               0
GRID*              10455               02.4566717901E-019.3237469777E-01+
*       -1.249839533E-01               0
GRID*              10456               02.5253767650E-019.6745208078E-01+
*       -1.553933613E-01               0
GRID*              10457               01.7321177841E-019.3237469777E-01+
*       -1.249825063E-01               0
GRID*              10458               02.8109584911E-019.6557830134E-01+
*       -9.425936260E-02               0
GRID*              10459               02.0864044850E-019.6557830134E-01+
*       -9.425791566E-02               0
GRID*              10460               05.9382524518E-019.3036914895E-01+
*       9.9904188891E-01               0
GRID*              10461               05.9382485976E-019.0904250681E-01+
*       1.0674260219E+00               0
GRID*              10462               05.6262819868E-018.9997130837E-01+
*       9.8644232786E-01               0
GRID*              10463               0-5.623062119E-01-8.781847459E-01+
*       1.0512335704E+00               0
GRID*              10464               0-5.317413945E-01-8.367070620E-01+
*       1.0724140130E+00               0
GRID*              10465               05.6149756525E-019.2598654599E-01+
*       8.5341396052E-01               0
GRID*              10466               05.9333147951E-019.6331893022E-01+
*       8.3051040073E-01               0
GRID*              10467               05.9380332470E-019.4312864854E-01+
*       9.6597426940E-01               0
GRID*              10468               05.9380404915E-019.5430997823E-01+
*       8.9697484255E-01               0
GRID*              10469               05.9316790584E-019.5855676426E-01+
*       8.6347853654E-01               0
GRID*              10470               0-5.314675290E-01-4.132231944E-01+
*       1.5509949190E+00               0
GRID*              10471               0-5.623871431E-01-4.521938611E-01+
*       1.5656582458E+00               0
GRID*              10472               0-5.309196142E-01-4.438449320E-01+
*       1.5321524075E+00               0
GRID*              10473               0-7.186367710E-014.2894271751E-01+
*       9.0497882965E-01               0
GRID*              10474               0-7.186367710E-014.4791344976E-01+
*       8.4162934550E-01               0
GRID*              10475               0-6.878620815E-014.2459318423E-01+
*       8.2011558486E-01               0
GRID*              10476               0-7.177949815E-014.1946187466E-01+
*       9.3750734444E-01               0
GRID*              10477               0-6.867845334E-013.9006749123E-01+
*       9.3669899201E-01               0
GRID*              10478               0-4.756842417E-01-5.691628698E-01+
*       -1.882295637E-01               0
GRID*              10479               0-1.183632909E+009.1572786594E-01+
*       -1.141549468E-01               0
GRID*              10480               0-1.202117857E+009.2713019297E-01+
*       -9.386238402E-02               0
GRID*              10481               0-1.224382305E+009.0343208060E-01+
*       -9.373613866E-02               0
GRID*              10482               0-1.180003551E+008.8972715100E-01+
*       -8.354174237E-02               0
GRID*              10483               0-1.126172512E+008.5536097265E-01+
*       -4.222278363E-02               0
GRID*              10484               0-1.145865326E+008.6621074570E-01+
*       -2.066514882E-02               0
GRID*              10485               0-1.152058529E+008.0195287800E-01+
*       -6.348941859E-02               0
GRID*              10486               0-1.166363718E+007.8778145001E-01+
*       -4.251825930E-02               0
GRID*              10487               0-1.184419130E+007.9588604523E-01+
*       -7.327226860E-02               0
GRID*              10488               05.9165395966E-01-9.597843339E-01+
*       5.4405819337E-02               0
GRID*              10489               05.8252219678E-01-9.597843339E-01+
*       -3.165523946E-02               0
GRID*              10490               06.2825575101E-01-8.741331254E-01+
*       5.0046127595E-02               0
GRID*              10491               05.6189884067E-01-9.280322920E-01+
*       8.8523445540E-02               0
GRID*              10492               01.2215730679E+001.5245837043E-01+
*       -1.563568031E-01               0
GRID*              10493               06.5398955235E-01-9.594523856E-01+
*       5.4345548838E-02               0
GRID*              10494               06.8702092186E-01-9.320964059E-01+
*       6.2210384063E-02               0
GRID*              10495               06.6166955973E-01-8.694903989E-01+
*       1.2236854315E-01               0
GRID*              10496               05.6161759290E-01-9.342454399E-01+
*       1.7902052733E-01               0
GRID*              10497               05.3104706907E-01-9.034986438E-01+
*       1.7560624885E-01               0
GRID*              10498               05.3057052383E-01-9.012481674E-01+
*       2.1416725422E-01               0
GRID*              10499               07.1896717905E-01-8.892147748E-01+
*       2.3417546616E-01               0
GRID*              10500               07.1896717905E-01-9.014407155E-01+
*       3.1037140885E-01               0
GRID*              10501               07.1896717905E-01-9.082111363E-01+
*       1.6650751139E-01               0
GRID*              10502               01.2175582723E+00-3.080193243E-01+
*       -9.384065940E-02               0
GRID*              10503               01.1633696568E+00-4.942475899E-01+
*       -1.225285010E-01               0
GRID*              10504               01.1633696568E+00-5.711706668E-01+
*       -1.225285010E-01               0
GRID*              10505               01.2166584879E+00-5.440350409E-01+
*       -9.451670882E-02               0
GRID*              10506               01.2166584879E+00-4.671119640E-01+
*       -9.451670882E-02               0
GRID*              10507               08.6930773762E-016.3381364813E-01+
*       -2.172700611E-02               0
GRID*              10508               09.1416733004E-016.1303911259E-01+
*       -2.172700611E-02               0
GRID*              10509               08.7686506204E-016.5396841493E-01+
*       -4.289719026E-02               0
GRID*              10510               0-6.871654761E-011.1645564116E-01+
*       1.1610429329E+00               0
GRID*              10511               0-7.185439693E-011.3491373057E-01+
*       1.1828672115E+00               0
GRID*              10512               0-7.185439693E-011.9280727925E-01+
*       1.1619654516E+00               0
GRID*              10513               0-7.180290156E-012.2165475199E-01+
*       1.1509426143E+00               0
GRID*              10514               0-6.881284612E-012.2384965889E-01+
*       1.1182751390E+00               0
GRID*              10515               05.9341150319E-01-5.449127718E-01+
*       1.5448649362E+00               0
GRID*              10516               07.1850109411E-01-5.480561557E-01+
*       1.4915364705E+00               0
GRID*              10517               07.1850109411E-01-4.783630956E-01+
*       1.5180421143E+00               0
GRID*              10518               06.8739512035E-01-5.821980018E-01+
*       1.4957251020E+00               0
GRID*              10519               07.1796538694E-01-4.439252178E-01+
*       1.5328839412E+00               0
GRID*              10520               06.8720510187E-01-4.514600424E-01+
*       1.5661017621E+00               0
GRID*              10521               07.1873471907E-01-2.761053844E-01+
*       1.1194426363E+00               0
GRID*              10522               07.1873471907E-01-3.401812687E-01+
*       1.0847213112E+00               0
GRID*              10523               06.8820711906E-01-3.288912038E-01+
*       1.0477533013E+00               0
GRID*              10524               07.1947239998E-01-3.594566517E-01+
*       1.0632498554E+00               0
GRID*              10525               07.1947239998E-01-3.926390204E-01+
*       9.9475844961E-01               0
GRID*              10526               0-1.020757699E+00-9.062568568E-01+
*       -6.362719998E-02               0
GRID*              10527               0-5.319610770E-017.4264830716E-03+
*       1.2048464764E+00               0
GRID*              10528               0-5.624597704E-01-4.356216369E-03+
*       1.1786854149E+00               0
GRID*              10529               05.3126354634E-01-3.262268592E-01+
*       1.0750159191E+00               0
GRID*              10530               05.3126354634E-01-2.755231414E-01+
*       1.1144955158E+00               0
GRID*              10531               0-7.186645124E-011.8672931853E-02+
*       1.2048209914E+00               0
GRID*              10532               0-7.186645124E-017.8363363343E-02+
*       1.1951446996E+00               0
GRID*              10533               0-6.880432334E-012.0461808853E-03+
*       1.1795761703E+00               0
GRID*              10534               09.1372469249E-01-9.298001277E-01+
*       -1.064862641E-01               0
GRID*              10535               08.7969085835E-01-9.614805242E-01+
*       -1.192810040E-01               0
GRID*              10536               08.5114877565E-01-9.202255369E-01+
*       -3.174926341E-02               0
GRID*              10537               09.0707894786E-01-9.422341117E-01+
*       -3.174926341E-02               0
GRID*              10538               05.9320625981E-018.9987439969E-01+
*       1.1011154690E+00               0
GRID*              10539               0-7.192661005E-019.0934904927E-01+
*       3.4768817854E-01               0
GRID*              10540               0-1.727696351E-01-8.959815336E-01+
*       -1.574504521E-01               0
GRID*              10541               0-2.272877497E-01-8.935134423E-01+
*       -3.245045210E-02               0
GRID*              10542               0-1.457941567E-01-9.159132074E-01+
*       -3.245045210E-02               0
GRID*              10543               0-1.065885555E-01-9.283835214E-01+
*       -3.193570081E-02               0
GRID*              10544               0-8.172514625E-02-9.519491178E-01+
*       -6.418334166E-02               0
GRID*              10545               0-6.857338433E-01-4.080080284E-01+
*       5.6939466422E-01               0
GRID*              10546               0-7.164808811E-01-4.336254424E-01+
*       5.4381313574E-01               0
GRID*              10547               0-7.164808811E-01-3.845739219E-01+
*       4.8511480239E-01               0
GRID*              10548               0-5.914808811E-01-4.234127852E-01+
*       5.5464923512E-01               0
GRID*              10549               0-6.540525897E-01-4.298076555E-01+
*       5.4966828995E-01               0
GRID*              10550               0-7.186404790E-01-3.593946782E-01+
*       4.5628952785E-01               0
GRID*              10551               0-6.875815020E-01-3.293135630E-01+
*       4.6499195183E-01               0
GRID*              10552               0-7.187680931E-01-9.021697051E-01+
*       2.1418386801E-01               0
GRID*              10553               0-6.617712458E-01-9.749103779E-01+
*       1.0779619714E-01               0
GRID*              10554               0-6.949800942E-01-9.418293974E-01+
*       1.8019998971E-01               0
GRID*              10555               0-7.262120012E-01-9.749103779E-01+
*       1.4639260956E-01               0
GRID*              10556               0-7.187680931E-01-9.051277402E-01+
*       2.9068176852E-01               0
GRID*              10557               0-9.566196264E-03-6.949142188E-01+
*       -6.204089205E-02               0
GRID*              10558               0-1.028745746E+00-9.624886942E-01+
*       -1.353325467E-01               0
GRID*              10559               0-1.042602789E+00-9.090572131E-01+
*       -2.283660022E-01               0
GRID*              10560               0-1.008629828E+00-8.915932203E-01+
*       -2.070022544E-01               0
GRID*              10561               0-1.024174548E+00-9.041910927E-01+
*       -2.286362522E-01               0
GRID*              10562               06.6769826933E-036.7612374143E-01+
*       -1.251011902E-01               0
GRID*              10563               0-1.222781153E-026.6277403396E-01+
*       -6.298876302E-02               0
GRID*              10564               07.2413521300E-036.9603705053E-01+
*       -6.211242714E-02               0
GRID*              10565               0-7.186521176E-016.0855599901E-01+
*       1.3667557638E+00               0
GRID*              10566               0-7.186521176E-015.8783058861E-01+
*       1.4346836210E+00               0
GRID*              10567               0-5.310046013E-015.0873253060E-01+
*       1.4830499805E+00               0
GRID*              10568               0-5.621517972E-012.2738572465E-01+
*       1.1158070446E+00               0
GRID*              10569               0-5.317207046E-012.2743825671E-01+
*       1.1471139474E+00               0
GRID*              10570               0-5.937932111E-019.6893917875E-01+
*       5.1954102455E-01               0
GRID*              10571               0-7.192202350E-01-8.921126898E-01+
*       8.4960017197E-01               0
GRID*              10572               0-7.192202350E-01-8.849603589E-01+
*       9.1931164117E-01               0
GRID*              10573               0-6.890993461E-01-9.155481485E-01+
*       9.2825359751E-01               0
GRID*              10574               0-7.198791111E-01-8.791375804E-01+
*       9.5323823847E-01               0
GRID*              10575               0-7.198791111E-01-8.704873079E-01+
*       1.0104843555E+00               0
GRID*              10576               0-5.313147551E-01-8.846067837E-01+
*       9.0729912840E-01               0
GRID*              10577               0-5.618039413E-01-9.160246435E-01+
*       9.1974178417E-01               0
GRID*              10578               0-5.313147551E-01-8.964590077E-01+
*       8.4121272241E-01               0
GRID*              10579               0-5.306721374E-01-9.035991594E-01+
*       8.0841680564E-01               0
GRID*              10580               0-2.411051376E-01-4.001247121E-01+
*       -6.261872681E-02               0
GRID*              10581               0-5.306549644E-013.4228198151E-01+
*       4.3633561714E-01               0
GRID*              10582               0-5.306549644E-012.9204457227E-01+
*       3.9341765895E-01               0
GRID*              10583               0-5.619867392E-013.3193580734E-01+
*       4.6657417519E-01               0
GRID*              10584               0-5.313317748E-014.1145048977E-01+
*       5.1606144078E-01               0
GRID*              10585               0-5.313317748E-013.6239896810E-01+
*       4.5736310782E-01               0
GRID*              10586               05.3140431032E-01-9.061503330E-01+
*       5.1375486900E-01               0
GRID*              10587               0-1.223275157E+00-6.101244350E-01+
*       -9.360259182E-02               0
GRID*              10588               0-1.223275157E+00-5.332013580E-01+
*       -9.360259182E-02               0
GRID*              10589               0-1.125511611E+00-6.111173827E-01+
*       -2.147055120E-02               0
GRID*              10590               0-1.222156060E+00-4.952163006E-01+
*       -9.306518601E-02               0
GRID*              10591               0-1.194677407E+00-4.945200409E-01+
*       -6.191924670E-02               0
GRID*              10592               0-1.222521347E+00-3.839191249E-01+
*       -9.385406069E-02               0
GRID*              10593               0-1.222521347E+00-4.608422018E-01+
*       -9.385406069E-02               0
GRID*              10594               0-6.875717085E-01-4.670304017E-01+
*       5.5037637699E-01               0
GRID*              10595               0-6.568246707E-01-4.414129877E-01+
*       5.7595790546E-01               0
GRID*              10596               0-5.318781076E-01-4.295844760E-01+
*       5.8583403088E-01               0
GRID*              10597               0-5.318781076E-01-4.454498250E-01+
*       6.5298023555E-01               0
GRID*              10598               0-5.634606253E-01-3.972934860E-01+
*       5.7854340971E-01               0
GRID*              10599               0-7.192529622E-01-4.452307746E-01+
*       5.7010275126E-01               0
GRID*              10600               0-7.192529622E-01-4.531170718E-01+
*       6.4571663579E-01               0
GRID*              10601               0-6.876068258E-01-4.312008951E-01+
*       6.9631989584E-01               0
GRID*              10602               0-7.184933268E-01-4.608702045E-01+
*       7.0982466542E-01               0
GRID*              10603               0-7.184933268E-01-4.588837684E-01+
*       7.7602340679E-01               0
GRID*              10604               0-7.191134990E-01-4.569514737E-01+
*       6.8224422227E-01               0
GRID*              10605               01.2207459472E+00-1.547207346E-01+
*       -1.561516365E-01               0
GRID*              10606               0-5.627535382E-01-4.290176790E-01+
*       6.9898728139E-01               0
GRID*              10607               0-5.316067078E-01-4.575787468E-01+
*       7.1336605501E-01               0
GRID*              10608               0-5.316067078E-01-4.540284210E-01+
*       7.8139118268E-01               0
GRID*              10609               0-5.315825177E-01-4.181318841E-01+
*       5.5890280036E-01               0
GRID*              10610               0-5.315825177E-01-3.936625314E-01+
*       4.9817553699E-01               0
GRID*              10611               08.5500721605E-01-8.664974228E-01+
*       -2.196451996E-02               0
GRID*              10612               07.1738363468E-01-4.198472916E-01+
*       9.3730404105E-01               0
GRID*              10613               06.8695514427E-01-3.903325413E-01+
*       9.3586133614E-01               0
GRID*              10614               07.1957150959E-01-4.075967035E-01+
*       9.6179234885E-01               0
GRID*              10615               0-7.180636142E-01-7.428282067E-01+
*       1.2977077225E+00               0
GRID*              10616               0-6.869035701E-01-7.765774173E-01+
*       1.2910646320E+00               0
GRID*              10617               0-5.318123754E-01-2.384118275E-02+
*       2.9207652604E-01               0
GRID*              10618               0-5.318123754E-01-8.534115876E-02+
*       2.9430049172E-01               0
GRID*              10619               0-5.621125690E-01-1.013365303E-01+
*       3.2754464814E-01               0
GRID*              10620               0-5.979785085E-019.7249033194E-01+
*       -1.373130575E-01               0
GRID*              10621               0-6.656902209E-019.7249033194E-01+
*       -1.612100832E-01               0
GRID*              10622               0-5.155842397E-019.7249033194E-01+
*       -1.473392297E-01               0
GRID*              10623               0-4.756931024E-019.7114257863E-01+
*       -1.532886751E-01               0
GRID*              10624               0-6.397947112E-019.6070008738E-01+
*       -7.434538567E-02               0
GRID*              10625               0-6.489272236E-019.6070008738E-01+
*       1.1717281184E-02               0
GRID*              10626               0-6.192804012E-018.7960843939E-01+
*       -3.802247284E-02               0
GRID*              10627               0-6.284129136E-018.7960843939E-01+
*       4.8040194014E-02               0
GRID*              10628               0-8.717884131E-019.0935316639E-01+
*       -5.412004399E-02               0
GRID*              10629               0-8.521365376E-019.2139352212E-01+
*       -3.287779674E-02               0
GRID*              10630               0-8.938244237E-019.4887607986E-01+
*       -6.306349355E-02               0
GRID*              10631               0-9.134762992E-019.3683572414E-01+
*       -8.430574079E-02               0
GRID*              10632               03.7939461431E-017.5313969448E-01+
*       -6.167808233E-02               0
GRID*              10633               03.7642609578E-016.7695397479E-01+
*       -6.167808233E-02               0
GRID*              10634               03.7380982430E-016.3877086447E-01+
*       -6.251134763E-02               0
GRID*              10635               0-5.778287717E-019.6130711448E-01+
*       -7.455665999E-02               0
GRID*              10636               0-5.869612840E-019.6130711448E-01+
*       1.1506006869E-02               0
GRID*              10637               0-4.954345029E-019.6130711448E-01+
*       -8.458283218E-02               0
GRID*              10638               0-4.543336069E-019.5974754481E-01+
*       -9.009883198E-02               0
GRID*              10639               0-4.518281646E-019.4145000329E-01+
*       -5.134664987E-02               0
GRID*              10640               0-3.847110231E-019.2459740864E-01+
*       -3.060249918E-02               0
GRID*              10641               0-4.362785783E-019.3385599105E-01+
*       -6.072740530E-02               0
GRID*              10642               0-4.179925938E-019.5581090472E-01+
*       -5.182424292E-02               0
GRID*              10643               0-4.210302562E-018.6012964125E-01+
*       -1.045296050E-01               0
GRID*              10644               0-5.310624392E-012.1331446316E-01+
*       3.4243054380E-01               0
GRID*              10645               0-5.310624392E-011.5358628423E-01+
*       3.1413956773E-01               0
GRID*              10646               0-5.612983655E-011.2866686243E-01+
*       3.3562114728E-01               0
GRID*              10647               0-5.302359263E-016.4996187919E-02+
*       2.9604429851E-01               0
GRID*              10648               0-5.302359263E-011.2789454412E-01+
*       3.0618826081E-01               0
GRID*              10649               0-5.316538455E-013.4449494057E-01+
*       1.0524047341E+00               0
GRID*              10650               0-5.633811705E-013.1946769253E-01+
*       1.0411684418E+00               0
GRID*              10651               0-5.304310927E-012.5050401562E-01+
*       1.1333679081E+00               0
GRID*              10652               0-5.304310927E-013.0120773270E-01+
*       1.0938883106E+00               0
GRID*              10653               0-5.317273250E-013.2693673379E-01+
*       1.0744793236E+00               0
GRID*              10654               0-2.969143891E-01-8.977492359E-01+
*       -2.204103285E-01               0
GRID*              10655               0-2.212652099E-01-8.982127340E-01+
*       -2.204103285E-01               0
GRID*              10656               0-5.309504517E-013.4321954129E-01+
*       1.5708942963E+00               0
GRID*              10657               0-5.309504517E-012.6198162557E-01+
*       1.6056472474E+00               0
GRID*              10658               0-5.619406700E-013.6089690552E-01+
*       1.6008428769E+00               0
GRID*              10659               0-5.315434808E-012.2111573328E-01+
*       1.6226730271E+00               0
GRID*              10660               0-5.615489744E-012.0721169054E-01+
*       1.6576925965E+00               0
GRID*              10661               0-5.309902184E-013.7791670416E-01+
*       1.5565456040E+00               0
GRID*              10662               09.5461145040E-029.7628654935E-01+
*       -9.497347446E-02               0
GRID*              10663               02.2987598132E-029.7628654935E-01+
*       -9.496761453E-02               0
GRID*              10664               0-5.929870000E-012.8652943645E-01+
*       3.6270538929E-01               0
GRID*              10665               0-6.546422991E-013.0749952016E-01+
*       3.5283118448E-01               0
GRID*              10666               0-5.632964316E-012.5881353066E-01+
*       3.2833553350E-01               0
GRID*              10667               0-6.562834315E-012.7307264333E-01+
*       3.4975228940E-01               0
GRID*              10668               0-6.249517308E-012.7978361438E-01+
*       3.1846132869E-01               0
GRID*              10669               0-7.179870000E-013.2803966395E-01+
*       3.4517048016E-01               0
GRID*              10670               0-7.179870000E-013.5113635676E-01+
*       4.1443051676E-01               0
GRID*              10671               0-6.925980603E-013.5927265816E-01+
*       4.8629048134E-01               0
GRID*              10672               0-5.309914628E-016.2845219699E-01+
*       1.3956487405E+00               0
GRID*              10673               07.4654391946E-01-1.466012652E-01+
*       -1.875535159E-01               0
GRID*              10674               08.9814416253E-01-9.683196035E-01+
*       -1.181990337E-01               0
GRID*              10675               09.5986242615E-01-9.525977735E-01+
*       -8.572178360E-02               0
GRID*              10676               09.2247312699E-01-9.521709393E-01+
*       -8.506550617E-02               0
GRID*              10677               0-7.192253105E-014.5173265634E-01+
*       8.1502231727E-01               0
GRID*              10678               0-1.217709246E+001.5451029351E-01+
*       -9.357630125E-02               0
GRID*              10679               09.8266320410E-01-9.374964324E-01+
*       -5.335842431E-02               0
GRID*              10680               09.4527390495E-01-9.370695982E-01+
*       -5.270214688E-02               0
GRID*              10681               09.6962868386E-01-9.219581617E-01+
*       -2.082932936E-02               0
GRID*              10682               01.0365859723E+00-9.026064260E-01+
*       -2.082932936E-02               0
GRID*              10683               09.7204491956E-01-9.533071415E-01+
*       -3.116418121E-02               0
GRID*              10684               09.4924414160E-01-9.684084826E-01+
*       -6.352754050E-02               0
GRID*              10685               09.3556903527E-01-9.526013304E-01+
*       -3.236335929E-02               0
GRID*              10686               0-5.311330671E-014.5614063590E-01+
*       6.8302118730E-01               0
GRID*              10687               0-5.627923088E-014.3113532097E-01+
*       6.9716243762E-01               0
GRID*              10688               07.1855894037E-014.5877580849E-01+
*       7.7562421227E-01               0
GRID*              10689               07.1855894037E-014.6076224357E-01+
*       7.0942547087E-01               0
GRID*              10690               06.8817816388E-014.3132302298E-01+
*       6.9508622761E-01               0
GRID*              10691               07.1961922350E-014.5718156161E-01+
*       6.8140974033E-01               0
GRID*              10692               07.1961922350E-014.4929526332E-01+
*       6.0579585638E-01               0
GRID*              10693               05.3205047616E-014.5775809952E-01+
*       7.1346036329E-01               0
GRID*              10694               05.6261105505E-014.2869431699E-01+
*       6.9892695398E-01               0
GRID*              10695               05.3205047616E-014.5420777481E-01+
*       7.8148549097E-01               0
GRID*              10696               0-1.168975451E+00-6.449478340E-01+
*       -1.991900807E-01               0
GRID*              10697               0-1.193514713E+00-6.414650683E-01+
*       -1.694785619E-01               0
GRID*              10698               0-1.217964088E+00-6.400671535E-01+
*       -1.366900807E-01               0
GRID*              10699               0-1.217964088E+00-7.138131307E-01+
*       -1.366900807E-01               0
GRID*              10700               0-1.218077682E+00-7.497613811E-01+
*       -1.370763392E-01               0
GRID*              10701               0-1.180921421E+00-7.333123211E-01+
*       -1.995763392E-01               0
GRID*              10702               0-1.198562827E+00-7.540723748E-01+
*       -2.277029723E-01               0
GRID*              10703               05.3050081651E-01-4.344705247E-01+
*       9.4679560621E-01               0
GRID*              10704               01.1839108993E+00-7.565123862E-01+
*       -1.468780484E-01               0
GRID*              10705               01.1685911977E+00-7.698097521E-01+
*       -1.775384112E-01               0
GRID*              10706               01.1845181503E+00-7.189681467E-01+
*       -1.991071543E-01               0
GRID*              10707               01.1845238020E+00-7.767313997E-01+
*       -1.991071543E-01               0
GRID*              10708               01.2015582298E+00-7.344569101E-01+
*       -1.682626127E-01               0
GRID*              10709               01.1997817806E+00-6.978897695E-01+
*       -1.681821985E-01               0
GRID*              10710               01.1530274074E+00-7.227743639E-01+
*       -9.282245985E-02               0
GRID*              10711               01.1858875738E+00-7.351455078E-01+
*       -1.252631059E-01               0
GRID*              10712               01.1841868919E+00-7.004915038E-01+
*       -1.253612367E-01               0
GRID*              10713               01.2342595743E+00-7.478444222E-01+
*       -1.566554585E-01               0
GRID*              10714               01.2342595743E+00-6.740984450E-01+
*       -1.566554585E-01               0
GRID*              10715               01.2172986555E+00-7.494890578E-01+
*       -1.366071543E-01               0
GRID*              10716               01.2172986555E+00-6.757430805E-01+
*       -1.366071543E-01               0
GRID*              10717               01.2181445564E+00-7.625446442E-01+
*       -1.871529243E-01               0
GRID*              10718               01.2011836377E+00-7.641892797E-01+
*       -1.671046201E-01               0
GRID*              10719               01.1830385477E+00-6.826106782E-01+
*       -1.990339235E-01               0
GRID*              10720               01.1983021780E+00-6.615323010E-01+
*       -1.681089677E-01               0
GRID*              10721               01.1657925353E+00-6.313726404E-01+
*       -1.990339235E-01               0
GRID*              10722               01.1900522409E+00-6.344123262E-01+
*       -1.672253732E-01               0
GRID*              10723               01.1704102806E+00-6.470484395E-01+
*       -1.467967299E-01               0
GRID*              10724               01.1827072893E+00-6.641340352E-01+
*       -1.252880059E-01               0
GRID*              10725               01.1685393234E+00-7.045942819E-01+
*       -2.297341166E-01               0
GRID*              10726               01.1685449751E+00-7.623575349E-01+
*       -2.297341166E-01               0
GRID*              10727               01.1512933110E+00-6.533562442E-01+
*       -2.297341166E-01               0
GRID*              10728               01.2158190529E+00-6.393856120E-01+
*       -1.365339235E-01               0
GRID*              10729               01.2324831250E+00-6.375313044E-01+
*       -1.565750442E-01               0
GRID*              10730               01.2067163130E+00-6.325580186E-01+
*       -1.872664939E-01               0
GRID*              10731               01.1788244157E+00-6.180741571E-01+
*       -1.659542561E-01               0
GRID*              10732               01.2242331880E+00-6.104113296E-01+
*       -1.556914497E-01               0
GRID*              10733               01.2242331880E+00-5.334882527E-01+
*       -1.556914497E-01               0
GRID*              10734               09.3652641435E-016.0271190749E-01+
*       -2.151226760E-02               0
GRID*              10735               0-6.867515894E-01-8.908801087E-01+
*       1.0514925646E+00               0
GRID*              10736               0-7.181415135E-01-8.560342304E-01+
*       1.0717301425E+00               0
GRID*              10737               0-7.185793446E-015.4799199828E-01+
*       1.4914164006E+00               0
GRID*              10738               0-7.185793446E-014.7829893833E-01+
*       1.5179220444E+00               0
GRID*              10739               0-6.874339280E-015.8212903427E-01+
*       1.4955964242E+00               0
GRID*              10740               07.1832536759E-01-2.436975767E-01+
*       1.1369307989E+00               0
GRID*              10741               06.8829673692E-01-2.223718459E-01+
*       1.1188938857E+00               0
GRID*              10742               07.1997136933E-01-1.633756680E-01+
*       1.1725253612E+00               0
GRID*              10743               07.1997136933E-01-2.212692172E-01+
*       1.1516236022E+00               0
GRID*              10744               06.8690095590E-014.8838333642E-01+
*       5.2387005534E-01               0
GRID*              10745               05.6257937964E-014.5591472188E-01+
*       5.6009651236E-01               0
GRID*              10746               06.2448033554E-014.8366252985E-01+
*       5.2860925295E-01               0
GRID*              10747               06.2464158765E-015.0052314857E-01+
*       6.0546876135E-01               0
GRID*              10748               06.3178934458E-014.5380290392E-01+
*       4.7862776225E-01               0
GRID*              10749               06.8826210037E-015.3700256303E-01+
*       2.7127090797E-01               0
GRID*              10750               05.3081321237E-013.4104144847E-01+
*       3.7957533453E-01               0
GRID*              10751               05.3081321237E-013.6413814128E-01+
*       4.4883537113E-01               0
GRID*              10752               05.6119191401E-013.4442504425E-01+
*       4.7346453851E-01               0
GRID*              10753               05.3037870164E-014.0624042081E-01+
*       5.3009531844E-01               0
GRID*              10754               05.3037870164E-013.8177106737E-01+
*       4.6936805571E-01               0
GRID*              10755               05.9060788734E-013.0897416905E-01+
*       3.5271047678E-01               0
GRID*              10756               06.5400955097E-012.8989294677E-01+
*       3.6078396246E-01               0
GRID*              10757               07.1560788734E-013.1770135080E-01+
*       4.1316334410E-01               0
GRID*              10758               07.1560788734E-012.6746394156E-01+
*       3.7024538591E-01               0
GRID*              10759               06.8336469846E-012.3763412499E-01+
*       3.8512284370E-01               0
GRID*              10760               05.9060788734E-012.4031186123E-01+
*       3.4423312303E-01               0
GRID*              10761               06.5264166461E-012.5469716574E-01+
*       3.5550321705E-01               0
GRID*              10762               07.1827498358E-013.4232198145E-01+
*       4.3651286340E-01               0
GRID*              10763               06.8804677088E-013.2950337525E-01+
*       4.6591599024E-01               0
GRID*              10764               0-8.272243109E-01-7.249483620E-01+
*       -2.297022562E-01               0
GRID*              10765               0-8.473387409E-01-6.668412011E-01+
*       -2.297022562E-01               0
GRID*              10766               0-8.185365008E-01-7.527474838E-01+
*       -2.286629328E-01               0
GRID*              10767               0-8.394754638E-01-7.580481634E-01+
*       -2.071435623E-01               0
GRID*              10768               0-9.571919689E-015.8105664848E-01+
*       -2.284066086E-01               0
GRID*              10769               0-1.019982660E+005.7495479873E-01+
*       -2.284066086E-01               0
GRID*              10770               0-9.529064398E-016.0123673664E-01+
*       -2.070741688E-01               0
GRID*              10771               07.1928846681E-018.7493266682E-01+
*       9.8296342247E-01               0
GRID*              10772               07.1928846681E-018.6628239435E-01+
*       1.0402095396E+00               0
GRID*              10773               06.8871153987E-018.9124057807E-01+
*       1.0543561430E+00               0
GRID*              10774               07.1942307305E-018.5620742993E-01+
*       1.0729351182E+00               0
GRID*              10775               07.1853502961E-019.0321258824E-01+
*       6.5895288256E-01               0
GRID*              10776               07.1852884020E-019.0605258693E-01+
*       5.1363365253E-01               0
GRID*              10777               0-3.506186917E-018.9408795656E-01+
*       -6.173023011E-02               0
GRID*              10778               0-2.908875583E-018.5747626721E-01+
*       -6.173023011E-02               0
GRID*              10779               0-3.666349772E-019.5026552846E-01+
*       -6.295001144E-02               0
GRID*              10780               0-3.683506762E-019.1770744041E-01+
*       -9.233272929E-02               0
GRID*              10781               0-5.557119234E-01-2.985834255E-01+
*       -1.241855095E-01               0
GRID*              10782               0-5.833962939E-01-2.753032935E-01+
*       -1.866070947E-01               0
GRID*              10783               0-5.830673597E-01-3.125199045E-01+
*       -1.875784148E-01               0
GRID*              10784               01.0477357737E+00-5.615429022E-01+
*       -2.287083480E-01               0
GRID*              10785               01.0506300385E+00-5.884990996E-01+
*       -2.079851272E-01               0
GRID*              10786               05.3199696381E-013.4065565488E-01+
*       1.0843262564E+00               0
GRID*              10787               05.6259437629E-013.2937194311E-01+
*       1.0474154695E+00               0
GRID*              10788               06.2490747478E-01-3.742588662E-01+
*       1.5982167388E+00               0
GRID*              10789               06.5599779573E-01-3.330334484E-01+
*       1.5747247292E+00               0
GRID*              10790               06.8740643236E-01-2.905351363E-01+
*       1.5539750992E+00               0
GRID*              10791               07.1859136337E-01-3.089286592E-01+
*       1.5832374549E+00               0
GRID*              10792               07.1859136337E-01-3.781506183E-01+
*       1.5607380828E+00               0
GRID*              10793               05.9512753874E-01-4.148709933E-01+
*       1.6208037570E+00               0
GRID*              10794               05.9512612642E-01-3.453106666E-01+
*       1.6481040050E+00               0
GRID*              10795               0-7.186520678E-01-8.951384522E-01+
*       8.1440294632E-01               0
GRID*              10796               06.8820216900E-011.1779995214E-01+
*       1.2597703026E+00               0
GRID*              10797               0-6.874355251E-013.2823268472E-01+
*       1.0485960752E+00               0
GRID*              10798               0-7.194191643E-013.9133330748E-01+
*       9.9473895244E-01               0
GRID*              10799               0-7.194191643E-013.5815093965E-01+
*       1.0632303591E+00               0
GRID*              10800               0-7.189895519E-014.0771707394E-01+
*       9.6242669378E-01               0
GRID*              10801               0-7.192839670E-011.7233583395E-01+
*       3.1245889235E-01               0
GRID*              10802               0-7.192839670E-011.1134409812E-01+
*       3.0226018164E-01               0
GRID*              10803               0-6.880579145E-019.9989970001E-02+
*       3.2671012387E-01               0
GRID*              10804               0-7.159014053E-012.0373285772E-01+
*       3.1813705931E-01               0
GRID*              10805               0-6.917205796E-012.0262108877E-01+
*       3.6480043059E-01               0
GRID*              10806               0-5.909014053E-012.3088493805E-01+
*       3.4414932219E-01               0
GRID*              10807               0-6.311143585E-011.8953252670E-01+
*       2.6141769654E-01               0
GRID*              10808               0-6.541978369E-012.1742814493E-01+
*       3.3119622230E-01               0
GRID*              10809               0-1.170426513E+004.7671038136E-01+
*       -1.874425329E-01               0
GRID*              10810               0-1.214673144E+004.5249774720E-01+
*       -1.566692168E-01               0
GRID*              10811               0-1.214673144E+003.7557467027E-01+
*       -1.566692168E-01               0
GRID*              10812               0-1.150356612E+003.9292354459E-01+
*       -1.205916379E-01               0
GRID*              10813               0-1.212470755E+003.3631598180E-01+
*       -1.565290137E-01               0
GRID*              10814               0-1.180821277E+003.3004389970E-01+
*       -1.883532216E-01               0
GRID*              10815               0-1.174833681E+00-9.861883516E-03+
*       -1.873376750E-01               0
GRID*              10816               0-1.137710146E+002.0562222060E-03+
*       -1.193965585E-01               0
GRID*              10817               0-1.221325187E+007.8047983227E-03+
*       -1.569943232E-01               0
GRID*              10818               0-1.203508494E+00-1.766668184E-02+
*       -1.553433518E-01               0
GRID*              10819               0-1.203508494E+00-9.458975876E-02+
*       -1.553433518E-01               0
GRID*              10820               05.9373534851E-01-6.626618096E-01+
*       1.4536191331E+00               0
GRID*              10821               0-5.910529792E-019.5923902600E-01+
*       5.5708837943E-02               0
GRID*              10822               0-5.613495531E-019.2746223900E-01+
*       8.9760304767E-02               0
GRID*              10823               07.1777875695E-01-4.572605614E-01+
*       7.1274060000E-01               0
GRID*              10824               06.8746940937E-01-4.289062222E-01+
*       6.9793161445E-01               0
GRID*              10825               07.1969065242E-01-4.379338840E-01+
*       6.1853064065E-01               0
GRID*              10826               07.1969065242E-01-4.537992329E-01+
*       6.8567684531E-01               0
GRID*              10827               0-7.188399559E-01-7.639430241E-01+
*       1.2672783764E+00               0
GRID*              10828               05.9368834941E-01-3.110531980E-01+
*       1.6622340027E+00               0
GRID*              10829               06.8737545715E-019.1465001865E-01+
*       9.2751194524E-01               0
GRID*              10830               07.1891221080E-018.9211887841E-01+
*       8.4926356484E-01               0
GRID*              10831               07.1891221080E-018.8496654760E-01+
*       9.1897503412E-01               0
GRID*              10832               07.1846324635E-018.7823326220E-01+
*       9.5283319168E-01               0
GRID*              10833               0-5.919032009E-019.6822321300E-01+
*       1.0628129322E-01               0
GRID*              10834               0-5.932984492E-019.6822321300E-01+
*       1.8239584298E-01               0
GRID*              10835               0-6.877659688E-014.8862737433E-01+
*       1.8749555682E-01               0
GRID*              10836               0-6.877659688E-015.4633678123E-01+
*       2.2621726986E-01               0
GRID*              10837               0-6.260063031E-014.7428635087E-01+
*       2.1875240516E-01               0
GRID*              10838               0-6.877659688E-015.0185961075E-01+
*       2.6940665309E-01               0
GRID*              10839               0-1.205753369E+004.8575109570E-01+
*       -1.557733161E-01               0
GRID*              10840               0-1.205753369E+005.6267417262E-01+
*       -1.557733161E-01               0
GRID*              10841               09.8700951980E-019.7878728504E-01+
*       -1.568649302E-01               0
GRID*              10842               09.1324151950E-019.7878728504E-01+
*       -1.591487884E-01               0
GRID*              10843               09.8269751495E-019.4726963118E-01+
*       -1.673653457E-01               0
GRID*              10844               09.9778827605E-019.5880398331E-01+
*       -1.889238253E-01               0
GRID*              10845               01.0234858239E+009.8001669826E-01+
*       -1.574327090E-01               0
GRID*              10846               01.0191738190E+009.4849904440E-01+
*       -1.679331244E-01               0
GRID*              10847               01.0422895277E+009.1055336851E-01+
*       -2.295663417E-01               0
GRID*              10848               09.6770817934E-019.0743231844E-01+
*       -2.295663417E-01               0
GRID*              10849               01.0083950628E+009.6848234614E-01+
*       -1.358742294E-01               0
GRID*              10850               09.3462706246E-019.6848234614E-01+
*       -1.381580875E-01               0
GRID*              10851               09.6936792932E-019.3750423332E-01+
*       -1.267514163E-01               0
GRID*              10852               01.0070222912E+009.3782631917E-01+
*       -1.256634547E-01               0
GRID*              10853               01.0237392524E+009.3064225514E-01+
*       -1.457447367E-01               0
GRID*              10854               01.0280512573E+009.6215990900E-01+
*       -1.352443213E-01               0
GRID*              10855               01.0266784857E+009.3150388203E-01+
*       -1.250335466E-01               0
GRID*              10856               0-5.336678684E-012.6687699387E-01+
*       3.7126696002E-01               0
GRID*              10857               0-5.656674095E-012.3726219705E-01+
*       3.8618548746E-01               0
GRID*              10858               0-5.969643000E-012.5342020075E-01+
*       3.5831386013E-01               0
GRID*              10859               01.1997670529E+009.2821769940E-01+
*       -1.570268141E-01               0
GRID*              10860               01.2232218057E+009.0533362790E-01+
*       -1.569369578E-01               0
GRID*              10861               01.2264453925E+009.3022309941E-01+
*       -1.248686784E-01               0
GRID*              10862               01.2159088000E+009.3127872455E-01+
*       -8.608513231E-02               0
GRID*              10863               0-6.882403342E-014.5369526963E-01+
*       1.9576377372E-01               0
GRID*              10864               0-6.882403342E-013.9732251248E-01+
*       2.6661971859E-01               0
GRID*              10865               01.2238003174E+00-4.957739748E-01+
*       -1.567572701E-01               0
GRID*              10866               01.1978282361E+00-4.964047687E-01+
*       -1.881176959E-01               0
GRID*              10867               0-6.866552992E-013.3475063499E-01+
*       3.1387951945E-01               0
GRID*              10868               0-6.229209367E-013.4878348227E-01+
*       3.0674835378E-01               0
GRID*              10869               0-6.238947994E-013.1969598297E-01+
*       2.7944709838E-01               0
GRID*              10870               0-6.866552992E-012.6608832717E-01+
*       3.0540216570E-01               0
GRID*              10871               0-6.862656375E-013.6932362605E-01+
*       2.9908764946E-01               0
GRID*              10872               0-6.235051377E-013.5426897403E-01+
*       2.6465522839E-01               0
GRID*              10873               0-7.193787210E-01-7.718786991E-02+
*       1.2068301976E+00               0
GRID*              10874               0-7.193787210E-01-9.199755943E-03+
*       1.2055717936E+00               0
GRID*              10875               07.1924071043E-012.1317273574E-01+
*       3.4266796380E-01               0
GRID*              10876               07.1924071043E-011.5344455680E-01+
*       3.1437698773E-01               0
GRID*              10877               06.8801010166E-011.2875980566E-01+
*       3.3607371407E-01               0
GRID*              10878               07.1876939123E-011.2812921478E-01+
*       3.0640340759E-01               0
GRID*              10879               0-5.911489617E-01-9.599215693E-01+
*       5.4614717959E-02               0
GRID*              10880               0-7.200994456E-012.4478986227E-01+
*       1.1369930360E+00               0
GRID*              10881               0-7.200994456E-013.0886574545E-01+
*       1.1022717101E+00               0
GRID*              10882               0-7.180163608E-013.4082846679E-01+
*       1.0855835757E+00               0
GRID*              10883               0-9.553728407E-01-5.968317861E-01+
*       -2.073629159E-02               0
GRID*              10884               0-1.071537806E+005.7855459678E-01+
*       -2.278616781E-01               0
GRID*              10885               0-1.116767356E+005.9199900059E-01+
*       -1.975491083E-01               0
GRID*              10886               0-1.112246194E+006.1665020407E-01+
*       -2.278616781E-01               0
GRID*              10887               0-1.054331943E+005.9511892169E-01+
*       -2.065146333E-01               0
GRID*              10888               0-1.050748221E+005.7220943359E-01+
*       -2.286529552E-01               0
GRID*              10889               0-1.162560764E+006.0842435013E-01+
*       -1.653616781E-01               0
GRID*              10890               0-1.204206592E+005.9895926585E-01+
*       -1.571874302E-01               0
GRID*              10891               0-1.174027826E+006.2787484187E-01+
*       -2.193315396E-01               0
GRID*              10892               0-1.178548988E+006.0322363840E-01+
*       -1.890189697E-01               0
GRID*              10893               0-1.136903160E+006.1268872268E-01+
*       -1.971932177E-01               0
GRID*              10894               0-1.186977833E+005.8756030526E-01+
*       -1.977666040E-01               0
GRID*              10895               0-1.182456672E+006.1221150874E-01+
*       -2.280791738E-01               0
GRID*              10896               0-1.188524610E+005.5127521204E-01+
*       -1.963524900E-01               0
GRID*              10897               0-1.217158809E+003.1086449090E-01+
*       -9.434981310E-02               0
GRID*              10898               0-1.217158809E+003.8778756783E-01+
*       -9.434981310E-02               0
GRID*              10899               0-1.101421170E+00-5.450327175E-01+
*       -2.292457855E-01               0
GRID*              10900               0-1.057546239E+00-5.852758245E-01+
*       -2.292457855E-01               0
GRID*              10901               0-1.044371073E+00-5.988777032E-01+
*       -2.071259684E-01               0
GRID*              10902               0-1.107895762E+00-6.149487987E-01+
*       -2.292457855E-01               0
GRID*              10903               0-1.123466785E+00-5.267686571E-01+
*       -2.279728551E-01               0
GRID*              10904               0-1.129941376E+00-5.966847382E-01+
*       -2.279728551E-01               0
GRID*              10905               0-1.132314160E+00-6.310181597E-01+
*       -2.284877318E-01               0
GRID*              10906               0-1.124933922E+00-6.525367317E-01+
*       -2.078403130E-01               0
GRID*              10907               0-1.198794945E+00-5.823520561E-01+
*       -1.892348237E-01               0
GRID*              10908               0-1.225550626E+00-6.167825302E-01+
*       -1.577884812E-01               0
GRID*              10909               0-1.223244320E+00-5.809541413E-01+
*       -1.564463425E-01               0
GRID*              10910               01.2189361928E+001.5354353926E-01+
*       -9.379525203E-02               0
GRID*              10911               01.2211411051E+003.0516144125E-01+
*       -1.561717700E-01               0
GRID*              10912               0-6.888891679E-01-1.290022726E-01+
*       3.3625512987E-01               0
GRID*              10913               0-7.187100734E-01-1.278709925E-01+
*       3.0655667054E-01               0
GRID*              10914               0-7.187100734E-01-6.497263635E-02+
*       2.9641270718E-01               0
GRID*              10915               0-7.201790945E-01-2.136734319E-01+
*       3.4269612009E-01               0
GRID*              10916               0-7.201790945E-01-1.539452534E-01+
*       3.1440514287E-01               0
GRID*              10917               0-7.158743918E-01-2.431963368E-01+
*       3.5565079506E-01               0
GRID*              10918               0-5.908743918E-01-2.160442562E-01+
*       3.2963853165E-01               0
GRID*              10919               0-6.528078079E-01-2.309536343E-01+
*       3.4242917328E-01               0
GRID*              10920               0-6.218801636E-01-2.246668230E-01+
*       3.7310371000E-01               0
GRID*              10921               0-6.846105522E-01-2.389546369E-01+
*       3.8553236382E-01               0
GRID*              10922               08.5448537443E-018.6665092610E-01+
*       -2.036893714E-02               0
GRID*              10923               08.4360686010E-017.8498355894E-01+
*       -2.036893714E-02               0
GRID*              10924               08.7507505543E-018.5773038086E-01+
*       -4.212382935E-02               0
GRID*              10925               08.6707878097E-018.8453984066E-01+
*       -2.175489221E-02               0
GRID*              10926               09.2300089766E-019.0655964771E-01+
*       -2.175489221E-02               0
GRID*              10927               08.7189534959E-019.1137084271E-01+
*       -5.305670495E-02               0
GRID*              10928               08.7641976449E-019.3780964771E-01+
*       -8.672565734E-02               0
GRID*              10929               09.0018663179E-019.2180855496E-01+
*       -5.389803545E-02               0
GRID*              10930               08.3817941047E-017.2467807025E-01+
*       -2.170887997E-02               0
GRID*              10931               08.5091863157E-016.7431734657E-01+
*       -2.170887997E-02               0
GRID*              10932               08.5055572236E-017.4024103923E-01+
*       -4.249606109E-02               0
GRID*              10933               08.5776783793E-016.4955897103E-01+
*       -2.117018415E-02               0
GRID*              10934               0-6.556695764E-01-2.557859279E-01+
*       3.5794858496E-01               0
GRID*              10935               0-6.869334161E-01-2.600276278E-01+
*       3.2806701621E-01               0
GRID*              10936               0-6.244035716E-01-2.815391177E-01+
*       3.1986034322E-01               0
GRID*              10937               0-7.186680460E-01-4.530866749E-01+
*       8.3492251070E-01               0
GRID*              10938               0-6.876560741E-01-4.280118170E-01+
*       8.1570341282E-01               0
GRID*              10939               0-1.784604133E-011.5053419258E-01+
*       -1.255888126E-01               0
GRID*              10940               0-1.433884605E-011.3506378135E-01+
*       -6.403683832E-02               0
GRID*              10941               07.1892904367E-01-1.356324553E-01+
*       1.1826397531E+00               0
GRID*              10942               0-7.186100759E-01-8.660951240E-01+
*       1.0385509383E+00               0
GRID*              10943               06.8838607867E-01-3.396666261E-01+
*       2.7105744012E-01               0
GRID*              10944               06.8838607867E-01-3.124921661E-01+
*       1.9323623122E-01               0
GRID*              10945               0-5.305648174E-01-8.463298606E-01+
*       1.0385893024E+00               0
GRID*              10946               0-5.305648174E-01-8.678883986E-01+
*       9.7356372421E-01               0
GRID*              10947               0-7.195153509E-019.1840320881E-01+
*       9.3529287585E-02               0
GRID*              10948               0-5.924236755E-019.6557248954E-01+
*       2.2190572994E-01               0
GRID*              10949               0-5.614487704E-019.3304618775E-01+
*       2.5782880168E-01               0
GRID*              10950               0-1.199821397E+006.6232579216E-01+
*       -1.674356961E-01               0
GRID*              10951               07.1913999012E-01-9.400994843E-02+
*       1.6313883800E+00               0
GRID*              10952               07.1913999012E-01-2.019254295E-02+
*       1.6368576870E+00               0
GRID*              10953               06.8789708646E-01-1.007685642E-01+
*       1.6692376510E+00               0
GRID*              10954               07.1821319727E-011.7995343779E-02+
*       1.6393212838E+00               0
GRID*              10955               06.8706813024E-014.9659298617E-02+
*       1.6729884269E+00               0
GRID*              10956               0-5.857996648E-01-1.527946506E-01+
*       1.1174364045E+00               0
GRID*              10957               0-5.542064171E-01-1.200122353E-01+
*       1.1543106786E+00               0
GRID*              10958               0-5.809702633E-01-1.913680877E-01+
*       1.1846829933E+00               0
GRID*              10959               0-5.309075216E-01-4.986246096E-02+
*       1.2001110081E+00               0
GRID*              10960               0-9.476945237E-019.4562722133E-01+
*       -2.291128689E-01               0
GRID*              10961               0-9.988459682E-019.0644680468E-01+
*       -2.291128689E-01               0
GRID*              10962               0-9.071219554E-018.9642489726E-01+
*       -2.291128689E-01               0
GRID*              10963               0-9.295058348E-019.8186343036E-01+
*       -2.281318826E-01               0
GRID*              10964               0-9.213180056E-019.2749065168E-01+
*       -2.072447515E-01               0
GRID*              10965               0-8.889332665E-019.3266110629E-01+
*       -2.281318826E-01               0
GRID*              10966               0-9.535891584E-019.5037175797E-01+
*       -1.768413057E-01               0
GRID*              10967               0-9.176035217E-019.5012810707E-01+
*       -1.786516431E-01               0
GRID*              10968               0-9.403303228E-019.5017130384E-01+
*       -2.068295208E-01               0
GRID*              10969               0-9.203397859E-018.8430306140E-01+
*       -2.079678061E-01               0
GRID*              10970               0-8.781663766E-019.1977796598E-01+
*       -2.077723905E-01               0
GRID*              10971               0-8.879550468E-018.8947351600E-01+
*       -2.288549372E-01               0
GRID*              10972               0-8.649485462E-019.3189980185E-01+
*       -2.289174533E-01               0
GRID*              10973               0-8.666901222E-019.0495919135E-01+
*       -2.073715493E-01               0
GRID*              10974               0-9.021510970E-019.2053927042E-01+
*       -2.069868198E-01               0
GRID*              10975               05.3137502121E-01-4.608332068E-01+
*       7.0972084236E-01               0
GRID*              10976               05.3137502121E-01-4.588467706E-01+
*       7.7591958373E-01               0
GRID*              10977               05.6153287461E-01-4.315435224E-01+
*       6.9579375787E-01               0
GRID*              10978               05.3015785340E-01-4.573310987E-01+
*       6.8182190736E-01               0
GRID*              10979               05.3015785340E-01-4.494448015E-01+
*       6.0620802283E-01               0
GRID*              10980               0-5.302963081E-01-7.797052607E-01+
*       1.2015634502E+00               0
GRID*              10981               0-5.302963081E-01-7.550137078E-01+
*       1.2534587717E+00               0
GRID*              10982               0-8.615144909E-016.2683172802E-01+
*       -2.096565294E-02               0
GRID*              10983               0-8.407059540E-016.7841816652E-01+
*       -2.096565294E-02               0
GRID*              10984               0-8.789131373E-016.3899998191E-01+
*       -4.248466361E-02               0
GRID*              10985               0-8.318623579E-017.0498607208E-01+
*       -2.025479913E-02               0
GRID*              10986               0-8.153733385E-017.2195122897E-01+
*       -2.151792209E-02               0
GRID*              10987               0-8.485573572E-017.2759202461E-01+
*       -4.128708247E-02               0
GRID*              10988               0-1.199739282E+007.4274627869E-01+
*       -8.488773156E-02               0
GRID*              10989               0-1.230846989E+007.5574052589E-01+
*       -9.277856349E-02               0
GRID*              10990               0-1.197650116E+007.6254433492E-01+
*       -8.172808198E-02               0
GRID*              10991               0-1.166542409E+007.4955008772E-01+
*       -7.383725005E-02               0
GRID*              10992               0-1.217105736E+007.4877845476E-01+
*       -1.149265030E-01               0
GRID*              10993               0-1.183908863E+007.5558226379E-01+
*       -1.038760215E-01               0
GRID*              10994               0-1.184423137E+007.3554505790E-01+
*       -1.254714718E-01               0
GRID*              10995               0-1.217105736E+006.7503247752E-01+
*       -1.149265030E-01               0
GRID*              10996               0-1.216803127E+007.6968037889E-01+
*       -1.139495185E-01               0
GRID*              10997               0-1.161381680E+007.4520032622E-01+
*       -2.069550918E-02               0
GRID*              10998               0-1.147707386E+006.5036348999E-01+
*       -1.768447056E-01               0
GRID*              10999               0-1.124041943E+006.5515067774E-01+
*       -2.072201621E-01               0
GRID*              11000               0-1.143061387E+006.5086528639E-01+
*       -2.282713179E-01               0
GRID*              11001               0-1.167718353E+006.4690380499E-01+
*       -1.976028575E-01               0
GRID*              11002               0-1.207757153E+006.4150168403E-01+
*       -1.891820191E-01               0
GRID*              11003               0-1.160591577E+006.8585221648E-01+
*       -2.282713179E-01               0
GRID*              11004               0-1.170738070E+006.4819715361E-01+
*       -1.461586043E-01               0
GRID*              11005               0-1.170447727E+006.4859344983E-01+
*       -1.249148452E-01               0
GRID*              11006               0-1.183090904E+006.6532175494E-01+
*       -1.245552064E-01               0
GRID*              11007               0-1.216406640E+006.4047309607E-01+
*       -1.350852166E-01               0
GRID*              11008               0-1.216406640E+007.1421907331E-01+
*       -1.350852166E-01               0
GRID*              11009               0-1.193375956E+006.4263943244E-01+
*       -1.657713179E-01               0
GRID*              11010               0-1.168735138E+007.0433801166E-01+
*       -2.284876153E-01               0
GRID*              11011               0-1.217513755E+00-3.184095631E-01+
*       -1.556250914E-01               0
GRID*              11012               01.0636075447E+00-6.026523740E-01+
*       -2.121219359E-02               0
GRID*              11013               01.1084561761E+00-6.234207856E-01+
*       -2.121219359E-02               0
GRID*              11014               01.0486799920E+00-6.112971904E-01+
*       -4.205345385E-02               0
GRID*              11015               01.0452005054E+00-5.965242873E-01+
*       -2.084126026E-02               0
GRID*              11016               01.1321600874E+00-6.338537580E-01+
*       -2.260785190E-02               0
GRID*              11017               01.1251536131E+00-6.548158495E-01+
*       -4.286661254E-02               0
GRID*              11018               01.1585053163E+00-6.671217318E-01+
*       -7.237347835E-02               0
GRID*              11019               01.1563142542E+00-6.305877138E-01+
*       -5.331482197E-02               0
GRID*              11020               01.1669730133E+00-6.471123415E-01+
*       -5.096573071E-02               0
GRID*              11021               01.1374364839E+00-5.749204619E-01+
*       -9.073547111E-02               0
GRID*              11022               08.8647976436E-015.8765553544E-01+
*       -2.286636451E-01               0
GRID*              11023               09.2712916778E-015.7999816419E-01+
*       -2.286636451E-01               0
GRID*              11024               08.6154427979E-016.2633719268E-01+
*       -2.286636451E-01               0
GRID*              11025               08.4958461963E-016.4646987955E-01+
*       -2.285092069E-01               0
GRID*              11026               08.6224183980E-016.6369183599E-01+
*       -2.070426536E-01               0
GRID*              11027               08.3710838320E-017.4568862056E-01+
*       -2.078718112E-02               0
GRID*              11028               05.3158715534E-01-1.109689890E-01+
*       1.2062578471E+00               0
GRID*              11029               05.2563025091E-01-1.517744754E-01+
*       1.1199074180E+00               0
GRID*              11030               05.8812948162E-01-1.517771305E-01+
*       1.1199059951E+00               0
GRID*              11031               05.5721740626E-01-1.195401200E-01+
*       1.1616687042E+00               0
GRID*              11032               05.2563025091E-01-1.371203638E-01+
*       1.1887442799E+00               0
GRID*              11033               05.9151248625E-01-1.915640042E-01+
*       1.1875774431E+00               0
GRID*              11034               05.9160999502E-014.2303588887E-01+
*       5.5451075645E-01               0
GRID*              11035               06.5418937466E-014.2852773947E-01+
*       5.4841385501E-01               0
GRID*              11036               06.2528262420E-014.0311270316E-01+
*       5.7390371545E-01               0
GRID*              11037               06.8529785166E-014.0649786146E-01+
*       5.6929668011E-01               0
GRID*              11038               07.1660999502E-014.3324854603E-01+
*       5.4367465740E-01               0
GRID*              11039               07.1660999502E-013.8419702436E-01+
*       4.8497632444E-01               0
GRID*              11040               07.1977178730E-013.5992653607E-01+
*       4.5652767661E-01               0
GRID*              11041               0-5.319622014E-01-4.515505191E-01+
*       8.1527637508E-01               0
GRID*              11042               0-5.625019357E-01-4.242763970E-01+
*       8.2026579476E-01               0
GRID*              11043               0-5.305397343E-01-4.477787982E-01+
*       8.4152550588E-01               0
GRID*              11044               0-7.189880281E-01-4.575730529E-01+
*       8.0892737672E-01               0
GRID*              11045               07.1823562993E-01-9.192650304E-01+
*       1.3094476700E-01               0
GRID*              11046               06.8706918750E-01-9.454777953E-01+
*       1.2480033527E-01               0
GRID*              11047               07.1827013136E-018.9535302140E-01+
*       8.1367489781E-01               0
GRID*              11048               08.1992931692E-017.2019206426E-01+
*       -2.285334467E-01               0
GRID*              11049               08.3678836605E-016.6258353919E-01+
*       -2.285334467E-01               0
GRID*              11050               0-5.303001936E-01-1.729698054E-01+
*       3.1230955601E-01               0
GRID*              11051               0-5.303001936E-01-1.119780701E-01+
*       3.0211084443E-01               0
GRID*              11052               0-6.999345219E-02-9.278891970E-01+
*       -3.224764085E-02               0
GRID*              11053               0-2.224192272E-011.3073943486E-01+
*       -6.155197431E-02               0
GRID*              11054               0-1.600543174E-011.6904708998E-01+
*       -6.155197431E-02               0
GRID*              11055               0-5.300054936E-019.6448474946E-02+
*       1.6345209017E+00               0
GRID*              11056               0-5.300054936E-011.8385946575E-01+
*       1.6311224951E+00               0
GRID*              11057               0-7.184980477E-019.0232008596E-01+
*       8.0779531116E-01               0
GRID*              11058               0-6.874348212E-019.3410695223E-01+
*       7.9479940100E-01               0
GRID*              11059               05.7698971272E-01-9.620897735E-01+
*       -7.550531725E-02               0
GRID*              11060               04.9459599461E-01-9.620897735E-01+
*       -8.552882291E-02               0
GRID*              11061               0-1.162389152E+00-7.256008619E-01+
*       -2.295510285E-01               0
GRID*              11062               0-1.150556777E+00-6.731846252E-01+
*       -2.295510285E-01               0
GRID*              11063               0-1.149119277E+00-7.423444701E-01+
*       -2.095189705E-01               0
GRID*              11064               0-1.144642489E+00-6.466645483E-01+
*       -2.293525812E-01               0
GRID*              11065               0-1.151394079E+00-7.059321464E-01+
*       -1.861439074E-01               0
GRID*              11066               05.9171523920E-01-9.063101055E-01+
*       -2.118647865E-01               0
GRID*              11067               05.5379003410E-01-9.372222786E-01+
*       -1.800644662E-01               0
GRID*              11068               05.3331921660E-012.0324507877E-01+
*       3.1830359432E-01               0
GRID*              11069               05.9535299387E-012.1763038328E-01+
*       3.2957368834E-01               0
GRID*              11070               05.3331921660E-011.4225334294E-01+
*       3.0810488362E-01               0
GRID*              11071               05.6442199526E-012.1180219337E-01+
*       3.6313320220E-01               0
GRID*              11072               06.5831921660E-012.3039715910E-01+
*       3.4431585720E-01               0
GRID*              11073               06.8703377727E-012.5950354797E-01+
*       3.2654646453E-01               0
GRID*              11074               06.2543544090E-012.8193255318E-01+
*       3.1708504108E-01               0
GRID*              11075               07.1775681112E-012.4244050722E-01+
*       3.5616609118E-01               0
GRID*              11076               01.2158190302E+00-5.817271521E-01+
*       -9.294336000E-02               0
GRID*              11077               01.1898858574E+00-5.854769472E-01+
*       -6.115033007E-02               0
GRID*              11078               01.1822474270E+00-6.268379186E-01+
*       -8.510785190E-02               0
GRID*              11079               01.2240668272E+00-6.191344105E-01+
*       -9.320697007E-02               0
GRID*              11080               01.1909550635E+00-6.438828338E-01+
*       -8.196105247E-02               0
GRID*              11081               01.2240279188E+00-4.621692554E-01+
*       -1.563604258E-01               0
GRID*              11082               08.8106379261E-019.6156622068E-01+
*       -1.171389313E-01               0
GRID*              11083               09.0483065990E-019.4556512792E-01+
*       -8.431130943E-02               0
GRID*              11084               09.1580465947E-019.3058810786E-01+
*       -1.057322601E-01               0
GRID*              11085               09.4870653348E-018.9957961339E-01+
*       -1.158051843E-01               0
GRID*              11086               08.9718479259E-019.2364583407E-01+
*       -1.263066839E-01               0
GRID*              11087               08.5130566858E-019.2029138796E-01+
*       -3.130181274E-02               0
GRID*              11088               09.0722778527E-019.4231119501E-01+
*       -3.130181274E-02               0
GRID*              11089               08.3888558470E-018.1979622394E-01+
*       -2.283648604E-01               0
GRID*              11090               08.1311284840E-017.6829712675E-01+
*       -2.283648604E-01               0
GRID*              11091               08.3576865998E-017.5586390488E-01+
*       -2.077628065E-01               0
GRID*              11092               0-5.324571582E-013.3586337052E-02+
*       2.9090041668E-01               0
GRID*              11093               0-5.629189482E-011.3202849949E-02+
*       3.1802004418E-01               0
GRID*              11094               0-6.895993252E-012.9794714182E-01+
*       1.5662288419E-01               0
GRID*              11095               0-6.895993252E-013.2512160101E-01+
*       2.3444409186E-01               0
GRID*              11096               0-6.895993252E-012.5645929319E-01+
*       2.2596673812E-01               0
GRID*              11097               0-5.310480655E-014.5736681986E-01+
*       8.0857199721E-01               0
GRID*              11098               0-5.310480655E-014.5935325494E-01+
*       7.4237325581E-01               0
GRID*              11099               0-5.612888465E-014.2804833996E-01+
*       8.1581361193E-01               0
GRID*              11100               0-5.316592417E-014.6161546727E-01+
*       7.0989023392E-01               0
GRID*              11101               05.9335429285E-01-9.579731483E-01+
*       8.6664418832E-01               0
GRID*              11102               05.5652904404E-01-9.299539795E-01+
*       8.6839238474E-01               0
GRID*              11103               05.9405733666E-01-9.377213568E-01+
*       1.0005960716E+00               0
GRID*              11104               05.9405772208E-01-9.163947146E-01+
*       1.0689802046E+00               0
GRID*              11105               05.9327503429E-01-9.060343916E-01+
*       1.1011138760E+00               0
GRID*              11106               06.8900337313E-01-9.167196378E-01+
*       9.1972087713E-01               0
GRID*              11107               07.1914878513E-01-8.849632143E-01+
*       9.0769565875E-01               0
GRID*              11108               07.1914878513E-01-8.968154383E-01+
*       8.4160925276E-01               0
GRID*              11109               07.1985458800E-01-8.797256764E-01+
*       9.4174380702E-01               0
GRID*              11110               07.1798353740E-01-9.018402158E-01+
*       8.0786060424E-01               0
GRID*              11111               0-8.776108519E-018.5773676830E-01+
*       -4.226702102E-02               0
GRID*              11112               0-8.542668998E-018.6605714884E-01+
*       -2.054254269E-02               0
GRID*              11113               0-8.473037102E-018.0132880750E-01+
*       -6.299855026E-02               0
GRID*              11114               0-8.143406538E-017.7802493290E-01+
*       -4.284996407E-02               0
GRID*              11115               0-8.312120486E-017.8054915725E-01+
*       -4.236432532E-02               0
GRID*              11116               0-6.869744653E-01-2.268198482E-01+
*       1.1161043422E+00               0
GRID*              11117               0-6.367633240E-01-2.360884306E-01+
*       1.1036883220E+00               0
GRID*              11118               0-7.188267276E-01-2.276015369E-01+
*       1.1475214953E+00               0
GRID*              11119               0-7.188267276E-01-1.665978831E-01+
*       1.1818507990E+00               0
GRID*              11120               0-7.181477378E-01-2.497748517E-01+
*       1.1332576622E+00               0
GRID*              11121               0-6.508191055E-01-2.420014017E-01+
*       1.1659952699E+00               0
GRID*              11122               0-7.181477378E-01-3.004785696E-01+
*       1.0937780655E+00               0
GRID*              11123               0-8.698525343E-018.8515989805E-01+
*       -2.172447832E-02               0
GRID*              11124               0-9.529517488E-019.3841975875E-01+
*       -8.441137484E-02               0
GRID*              11125               0-9.115404204E-019.1264245580E-01+
*       -5.191017513E-02               0
GRID*              11126               0-9.591504670E-019.2182901963E-01+
*       -5.202643012E-02               0
GRID*              11127               0-9.674315765E-019.0716975875E-01+
*       -2.172447832E-02               0
GRID*              11128               0-8.881964683E-019.2096283634E-01+
*       -3.018569680E-02               0
GRID*              11129               0-9.857755106E-019.4297269704E-01+
*       -3.018569680E-02               0
GRID*              11130               0-9.914617856E-019.6260812437E-01+
*       -1.137521078E-01               0
GRID*              11131               0-9.976605038E-019.4601738525E-01+
*       -8.136716303E-02               0
GRID*              11132               0-9.667068409E-019.6830787348E-01+
*       -2.286976381E-01               0
GRID*              11133               0-1.017858285E+009.2912745684E-01+
*       -2.286976381E-01               0
GRID*              11134               0-8.980940275E-019.6826467672E-01+
*       -1.410166472E-01               0
GRID*              11135               07.1900777345E-013.6923550503E-01+
*       1.0272440675E+00               0
GRID*              11136               07.1900777345E-014.2153821008E-01+
*       9.7390564208E-01               0
GRID*              11137               06.8808556964E-013.9979584763E-01+
*       9.4302388346E-01               0
GRID*              11138               07.1907779619E-014.4786628953E-01+
*       8.7271085709E-01               0
GRID*              11139               07.1907779619E-014.3482702948E-01+
*       9.4815700642E-01               0
GRID*              11140               01.1838373903E+00-7.971422402E-01+
*       -1.977708941E-01               0
GRID*              11141               01.2004972259E+00-7.846001203E-01+
*       -1.657683599E-01               0
GRID*              11142               01.1852011620E+00-7.555563483E-01+
*       -1.239268456E-01               0
GRID*              11143               01.1833040760E+00-7.758648493E-01+
*       -1.237224959E-01               0
GRID*              11144               01.2166122437E+00-7.698998983E-01+
*       -1.352708941E-01               0
GRID*              11145               01.2166918322E+00-7.688415209E-01+
*       -1.134516018E-01               0
GRID*              11146               01.1852807505E+00-7.544979709E-01+
*       -1.021075534E-01               0
GRID*              11147               01.1657502851E+00-7.481834166E-01+
*       -7.174158259E-02               0
GRID*              11148               01.1676473712E+00-7.278749156E-01+
*       -7.194593231E-02               0
GRID*              11149               01.2344460137E+00-7.475421600E-01+
*       -8.433267211E-02               0
GRID*              11150               01.2011378459E+00-7.535071110E-01+
*       -7.278427396E-02               0
GRID*              11151               01.1677035971E+00-7.908112145E-01+
*       -2.286990683E-01               0
GRID*              11152               01.1517709928E+00-7.838895670E-01+
*       -2.071303253E-01               0
GRID*              11153               01.2338849821E+00-7.775767918E-01+
*       -1.554974658E-01               0
GRID*              11154               01.2338849821E+00-8.496475757E-01+
*       -1.554974658E-01               0
GRID*              11155               0-8.174307026E-01-7.725592295E-01+
*       -2.284806294E-01               0
GRID*              11156               01.0662627599E+00-5.668107926E-01+
*       -2.292767791E-01               0
GRID*              11157               01.1095519948E+00-5.965628311E-01+
*       -2.292767791E-01               0
GRID*              11158               01.1312404809E+00-6.122054699E-01+
*       -2.283296980E-01               0
GRID*              11159               01.1235944559E+00-6.408249892E-01+
*       -2.073029187E-01               0
GRID*              11160               0-1.216830472E+00-9.905923937E-05+
*       -9.369227596E-02               0
GRID*              11161               01.1534829249E+006.6680476930E-01+
*       -2.298191799E-01               0
GRID*              11162               01.1529611757E+007.0647913709E-01+
*       -1.859115868E-01               0
GRID*              11163               01.1680210692E+007.1249919234E-01+
*       -2.060261172E-01               0
GRID*              11164               01.1863316207E+007.1990386789E-01+
*       -1.762504537E-01               0
GRID*              11165               01.1861521957E+006.8351833317E-01+
*       -1.756245194E-01               0
GRID*              11166               01.1629478259E+007.2827591411E-01+
*       -2.284480192E-01               0
GRID*              11167               01.1846189430E+007.2937420122E-01+
*       -2.072803518E-01               0
GRID*              11168               01.1494680741E+007.4401748928E-01+
*       -2.083533557E-01               0
GRID*              11169               01.1664655300E+007.4956347754E-01+
*       -1.778155199E-01               0
GRID*              11170               07.1883355757E-01-9.190752756E-01+
*       9.4098371740E-02               0
GRID*              11171               0-7.186215068E-011.0834976860E-01+
*       1.1896397525E+00               0
GRID*              11172               01.2332242704E+00-8.841161383E-01+
*       -1.563942114E-01               0
GRID*              11173               07.1914583481E-019.0359713276E-01+
*       2.5369444908E-01               0
GRID*              11174               07.1914583481E-019.0655516781E-01+
*       3.3019234940E-01               0
GRID*              11175               06.8841614449E-019.3793328405E-01+
*       3.3275972502E-01               0
GRID*              11176               07.1927030968E-019.0779555730E-01+
*       3.6631615131E-01               0
GRID*              11177               05.3102587675E-019.1264759213E-01+
*       5.2099399958E-01               0
GRID*              11178               0-1.162417602E+00-7.467220580E-01+
*       -2.299679420E-01               0
GRID*              11179               0-1.151571011E+00-8.036750787E-01+
*       -1.866289124E-01               0
GRID*              11180               0-1.157149153E+00-8.307888193E-01+
*       -2.068519452E-01               0
GRID*              11181               0-1.135267035E+00-8.715041431E-01+
*       -2.285563643E-01               0
GRID*              11182               0-5.934706827E-019.7080795863E-01+
*       3.7054286294E-01               0
GRID*              11183               0-5.933234659E-019.7080795863E-01+
*       2.9589456933E-01               0
GRID*              11184               05.3059741248E-013.5946300996E-01+
*       1.0633070726E+00               0
GRID*              11185               05.3059741248E-013.9264537778E-01+
*       9.9481566592E-01               0
GRID*              11186               01.9492127421E-01-8.835731548E-01+
*       -2.980230843E-02               0
GRID*              11187               01.4040145071E-01-9.101826900E-01+
*       -2.980230843E-02               0
GRID*              11188               02.2285300283E-01-8.708852537E-01+
*       -3.219886588E-02               0
GRID*              11189               02.3362109594E-01-9.134673554E-01+
*       -6.250333809E-02               0
GRID*              11190               0-1.489345614E-01-8.996735527E-01+
*       -2.175021560E-01               0
GRID*              11191               0-1.855134380E-01-9.342590516E-01+
*       -1.854812106E-01               0
GRID*              11192               08.5720822296E-04-8.995929545E-01+
*       -2.192648119E-01               0
GRID*              11193               0-6.873349811E-018.7826653456E-01+
*       1.0535662632E+00               0
GRID*              11194               0-7.179314051E-018.4620716836E-01+
*       1.0399167491E+00               0
GRID*              11195               04.5372397201E-019.6035217175E-01+
*       -9.018761682E-02               0
GRID*              11196               0-5.931282117E-01-9.707576190E-01+
*       3.4143751218E-01               0
GRID*              11197               0-5.929337132E-01-9.707576190E-01+
*       2.6683310562E-01               0
GRID*              11198               01.2176408107E+006.4044592094E-01+
*       -1.355464214E-01               0
GRID*              11199               01.2176408107E+007.1419189818E-01+
*       -1.355464214E-01               0
GRID*              11200               01.2178202357E+007.5057743290E-01+
*       -1.361723557E-01               0
GRID*              11201               01.2029294944E+007.3677887678E-01+
*       -1.775046883E-01               0
GRID*              11202               01.1847760815E+007.5696815309E-01+
*       -1.480398564E-01               0
GRID*              11203               0-5.310468132E-017.6317771467E-01+
*       1.2320720017E+00               0
GRID*              11204               0-5.310468132E-017.6313114252E-01+
*       1.1610076471E+00               0
GRID*              11205               0-7.194035760E-018.3691154358E-01+
*       1.0734192576E+00               0
GRID*              11206               0-1.151062762E+009.7520904527E-01+
*       -1.576567990E-01               0
GRID*              11207               0-1.125982732E+009.5589334032E-01+
*       -1.883229207E-01               0
GRID*              11208               0-1.124320724E+008.8740832147E-01+
*       -2.289137471E-01               0
GRID*              11209               0-1.083144070E+008.9819119538E-01+
*       -2.289137471E-01               0
GRID*              11210               0-1.119244933E+008.5907129028E-01+
*       -2.078496484E-01               0
GRID*              11211               0-1.129544412E+009.8068429505E-01+
*       -1.559760781E-01               0
GRID*              11212               0-1.058585696E+009.8068429505E-01+
*       -1.560079964E-01               0
GRID*              11213               0-1.061605830E+009.0432085343E-01+
*       -2.281056644E-01               0
GRID*              11214               0-1.046304258E+008.9240641702E-01+
*       -2.072296581E-01               0
GRID*              11215               0-7.187739474E-018.4628563351E-02+
*       2.9331662845E-01               0
GRID*              11216               0-7.187739474E-012.3128587088E-02+
*       2.9109266374E-01               0
GRID*              11217               0-7.179834153E-01-6.897142580E-03+
*       2.9155388093E-01               0
GRID*              11218               0-6.868207330E-01-1.387780107E-02+
*       3.1820025385E-01               0
GRID*              11219               0-8.392082584E-01-7.252601417E-01+
*       -2.081535428E-02               0
GRID*              11220               0-1.216683975E+004.2537872873E-01+
*       -9.256878818E-02               0
GRID*              11221               0-1.182957814E+004.3007102079E-01+
*       -6.053660940E-02               0
GRID*              11222               0-1.216273839E+004.6623075360E-01+
*       -9.296782122E-02               0
GRID*              11223               0-8.500539791E-01-9.219284963E-01+
*       -3.213130007E-02               0
GRID*              11224               0-7.662960894E-01-9.726424868E-01+
*       -1.100539293E-01               0
GRID*              11225               0-8.236962815E-01-9.478420721E-01+
*       -6.829275224E-02               0
GRID*              11226               0-8.434944921E-01-9.371601672E-01+
*       -8.822747960E-02               0
GRID*              11227               0-8.642848965E-01-8.841729367E-01+
*       -2.297860870E-02               0
GRID*              11228               0-8.104504773E-01-9.374440257E-01+
*       -9.687108582E-02               0
GRID*              11229               0-8.379271990E-01-9.100865125E-01+
*       -5.914006087E-02               0
GRID*              11230               0-8.201305086E-01-9.193713979E-01+
*       -3.616145217E-02               0
GRID*              11231               0-7.860717116E-01-9.608687023E-01+
*       -1.324989184E-01               0
GRID*              11232               0-8.326996497E-01-9.217666496E-01+
*       -1.362564265E-01               0
GRID*              11233               01.7166530669E-019.6445851107E-01+
*       -9.390448219E-02               0
GRID*              11234               01.5916331393E-019.4021309951E-01+
*       -6.245369818E-02               0
GRID*              11235               0-5.310352950E-01-3.409178698E-01+
*       3.7893967421E-01               0
GRID*              11236               0-5.310352950E-01-3.640145626E-01+
*       4.4819971180E-01               0
GRID*              11237               0-5.614522747E-01-3.432848536E-01+
*       4.7275741965E-01               0
GRID*              11238               0-5.304169796E-01-3.807544597E-01+
*       4.6929660264E-01               0
GRID*              11239               05.3205966818E-014.5155387016E-01+
*       8.1505974265E-01               0
GRID*              11240               05.6215492899E-014.2444285080E-01+
*       8.2030200569E-01               0
GRID*              11241               05.3009526081E-014.2897117026E-01+
*       9.0512782510E-01               0
GRID*              11242               05.3009526081E-014.4794190251E-01+
*       8.4177834095E-01               0
GRID*              11243               06.5868407774E-015.5080558100E-01+
*       1.4616847134E+00               0
GRID*              11244               06.5827510584E-015.2082010721E-01+
*       1.4858266874E+00               0
GRID*              11245               07.1812314435E-015.3917313170E-01+
*       1.4607586388E+00               0
GRID*              11246               07.1812314435E-015.9946588161E-01+
*       1.4178347420E+00               0
GRID*              11247               06.8681935976E-015.5684622662E-01+
*       1.4915591679E+00               0
GRID*              11248               07.1950137603E-016.2886327975E-01+
*       1.3965919674E+00               0
GRID*              11249               01.2045912277E+00-6.230474428E-01+
*       -1.352628064E-01               0
GRID*              11250               01.1595334481E+00-6.308971545E-01+
*       -1.251981918E-01               0
GRID*              11251               01.1707612734E+00-6.472353237E-01+
*       -1.264693089E-01               0
GRID*              11252               01.1423009397E+00-6.279781916E-01+
*       -2.289732207E-01               0
GRID*              11253               04.5305963267E-01-9.599326170E-01+
*       -8.991333748E-02               0
GRID*              11254               04.3382135186E-01-9.348630292E-01+
*       -6.025186587E-02               0
GRID*              11255               05.5198787978E-01-9.049212174E-01+
*       -2.181996797E-01               0
GRID*              11256               04.7804709193E-01-9.041901167E-01+
*       -2.181996797E-01               0
GRID*              11257               04.4114698609E-01-9.030201364E-01+
*       -2.173712282E-01               0
GRID*              11258               0-5.304986934E-01-1.920968572E-02+
*       1.2046555533E+00               0
GRID*              11259               01.0325780457E+00-9.295657182E-01+
*       -1.783584243E-01               0
GRID*              11260               01.0447648439E+00-9.103482034E-01+
*       -2.076157399E-01               0
GRID*              11261               01.0461702668E+00-9.414438251E-01+
*       -2.190142842E-01               0
GRID*              11262               0-8.266179170E-016.8005225524E-01+
*       -2.295686163E-01               0
GRID*              11263               0-8.596530152E-016.4242886678E-01+
*       -2.295686163E-01               0
GRID*              11264               0-8.102563804E-016.9979466425E-01+
*       -2.287584915E-01               0
GRID*              11265               0-8.305913133E-017.5190780572E-01+
*       -2.287584915E-01               0
GRID*              11266               0-5.927469533E-01-9.703705420E-01+
*       3.7681984212E-01               0
GRID*              11267               0-7.416252711E-01-9.614836691E-01+
*       -1.106904586E-01               0
GRID*              11268               0-7.185943571E-01-9.061984774E-01+
*       5.1378014000E-01               0
GRID*              11269               0-8.481599994E-017.6533683174E-01+
*       -6.318443038E-02               0
GRID*              11270               0-8.481489796E-017.2673019354E-01+
*       -6.318482923E-02               0
GRID*              11271               0-8.320683378E-017.4455718150E-01+
*       -4.255020544E-02               0
GRID*              11272               0-8.475277488E-017.0610925366E-01+
*       -6.476231575E-02               0
GRID*              11273               0-5.937400353E-01-9.700233593E-01+
*       6.5936700162E-01               0
GRID*              11274               0-7.189608165E-01-9.036926131E-01+
*       6.5936222605E-01               0
GRID*              11275               01.2185889183E+00-7.485330199E-01+
*       -1.136559516E-01               0
GRID*              11276               01.2030349320E+00-7.331986100E-01+
*       -7.298862368E-02               0
GRID*              11277               01.2185889183E+00-6.747870426E-01+
*       -1.136559516E-01               0
GRID*              11278               01.2168882364E+00-6.401330386E-01+
*       -1.137540824E-01               0
GRID*              11279               01.1718304569E+00-6.479827503E-01+
*       -1.036894678E-01               0
GRID*              11280               01.1512582824E+00-7.061584297E-01+
*       -6.241103216E-02               0
GRID*              11281               01.1597259794E+00-6.861490393E-01+
*       -4.100328452E-02               0
GRID*              11282               01.1658782462E+00-7.112589813E-01+
*       -4.153450463E-02               0
GRID*              11283               01.1428188466E+00-6.503783857E-01+
*       -2.025876064E-02               0
GRID*              11284               01.1555426951E+00-7.007339282E-01+
*       -2.025876064E-02               0
GRID*              11285               0-5.304617901E-016.6337664161E-03+
*       2.9153838416E-01               0
GRID*              11286               01.1685176887E+00-8.104396061E-01+
*       -2.284312570E-01               0
GRID*              11287               0-7.854473058E-01-9.608979473E-01+
*       -1.515424623E-01               0
GRID*              11288               0-8.213413113E-01-9.097097141E-01+
*       -2.250438048E-01               0
GRID*              11289               0-7.639877979E-01-9.120879716E-01+
*       -2.250438048E-01               0
GRID*              11290               0-8.261503259E-01-9.408729055E-01+
*       -1.966923810E-01               0
GRID*              11291               0-8.526634626E-01-9.110186002E-01+
*       -2.216485762E-01               0
GRID*              11292               0-1.204041087E+006.2350496914E-01+
*       -1.148296287E-01               0
GRID*              11293               0-1.170725352E+006.4835362801E-01+
*       -1.042996185E-01               0
GRID*              11294               0-1.158372517E+006.3122902668E-01+
*       -1.259030163E-01               0
GRID*              11295               0-1.062473244E+006.0218684288E-01+
*       -2.153934017E-02               0
GRID*              11296               0-1.047036447E+006.1007782201E-01+
*       -4.275203283E-02               0
GRID*              11297               0-1.044633527E+005.9574612213E-01+
*       -2.121269266E-02               0
GRID*              11298               07.1896510659E-01-2.258538646E-01+
*       3.3323318202E-01               0
GRID*              11299               07.1896510659E-01-2.945161716E-01+
*       3.4171053625E-01               0
GRID*              11300               07.1863172003E-01-3.298416368E-01+
*       3.4661551571E-01               0
GRID*              11301               07.1863172003E-01-3.529383296E-01+
*       4.1587555330E-01               0
GRID*              11302               07.1875709634E-01-1.314518998E-01+
*       1.6298103959E+00               0
GRID*              11303               06.8833672869E-01-1.730617347E-01+
*       1.6582282606E+00               0
GRID*              11304               0-4.502564625E-01-8.973170979E-01+
*       -2.183475415E-01               0
GRID*              11305               0-5.239729610E-01-9.032670013E-01+
*       -2.183475415E-01               0
GRID*              11306               0-5.603403226E-01-9.065541341E-01+
*       -2.167293993E-01               0
GRID*              11307               0-7.197364842E-017.6824836310E-01+
*       1.2298203930E+00               0
GRID*              11308               0-7.190939392E-017.8046847043E-01+
*       1.2012246829E+00               0
GRID*              11309               01.3244510232E-019.7575458844E-01+
*       -9.349680474E-02               0
GRID*              11310               0-7.188373178E-01-3.399791955E-02+
*       2.9106512975E-01               0
GRID*              11311               0-5.324226216E-01-2.023103360E-01+
*       3.1863044125E-01               0
GRID*              11312               0-5.634283934E-01-2.109329028E-01+
*       3.6209561960E-01               0
GRID*              11313               0-5.310057718E-01-2.265887359E-01+
*       3.3272928951E-01               0
GRID*              11314               0-5.310057718E-01-2.952510428E-01+
*       3.4120664374E-01               0
GRID*              11315               0-6.874701555E-01-2.937818202E-01+
*       3.3308196501E-01               0
GRID*              11316               0-6.562063159E-01-2.895401203E-01+
*       3.6296353376E-01               0
GRID*              11317               0-5.319107962E-01-3.289253572E-01+
*       3.4521026180E-01               0
GRID*              11318               0-7.187361604E-01-2.680286304E-01+
*       3.7117020674E-01               0
GRID*              11319               0-7.187361604E-01-3.182660390E-01+
*       4.1408816578E-01               0
GRID*              11320               03.1802379849E-01-9.069715341E-01+
*       -3.030447221E-02               0
GRID*              11321               02.5830471268E-01-8.703554670E-01+
*       -3.030447221E-02               0
GRID*              11322               01.8427248528E-01-9.327529469E-01+
*       -1.872424681E-01               0
GRID*              11323               01.8439461307E-01-9.011631466E-01+
*       -2.185498048E-01               0
GRID*              11324               01.4811212017E-01-8.997493829E-01+
*       -2.186926634E-01               0
GRID*              11325               07.1919730895E-01-3.639585315E-01+
*       4.4817664403E-01               0
GRID*              11326               01.2049422205E+00-6.232343271E-01+
*       -1.149353854E-01               0
GRID*              11327               0-7.173032403E-01-3.267607769E-01+
*       1.0739839393E+00               0
GRID*              11328               0-6.499746081E-01-2.682836091E-01+
*       1.1462011436E+00               0
GRID*              11329               0-6.861034659E-01-3.198085299E-01+
*       1.0408926864E+00               0
GRID*              11330               05.2990753971E-01-3.607592031E-01+
*       4.5652369510E-01               0
GRID*              11331               05.2990753971E-01-4.098107236E-01+
*       5.1522202846E-01               0
GRID*              11332               0-9.380871726E-015.8802889636E-01+
*       -2.286675602E-01               0
GRID*              11333               01.1344518566E+009.6221825952E-01+
*       -1.131764820E-01               0
GRID*              11334               01.0962577853E+009.3086597894E-01+
*       -1.014840231E-01               0
GRID*              11335               01.1480484309E+009.3998791525E-01+
*       -7.410663421E-02               0
GRID*              11336               09.2293207017E-019.5465648340E-01+
*       -8.659879379E-02               0
GRID*              11337               09.9670007047E-019.5465648340E-01+
*       -8.431493564E-02               0
GRID*              11338               09.4669893747E-019.3865539065E-01+
*       -5.377117189E-02               0
GRID*              11339               09.6137978957E-019.0186539467E-01+
*       -4.268966917E-02               0
GRID*              11340               09.6951320334E-019.2340648340E-01+
*       -2.162802865E-02               0
GRID*              11341               01.0670922524E+009.0139662632E-01+
*       -2.162802865E-02               0
GRID*              11342               01.0320132033E+009.5465648340E-01+
*       -2.162802865E-02               0
GRID*              11343               09.8302965644E-019.3904408804E-01+
*       -5.196039454E-02               0
GRID*              11344               09.2764492577E-019.3031622068E-01+
*       -5.216816619E-02               0
GRID*              11345               09.5019991956E-019.1595891127E-01+
*       -2.106164052E-02               0
GRID*              11346               01.0302711612E+009.7024607342E-01+
*       -8.411424101E-02               0
GRID*              11347               01.1006633431E+009.1698621634E-01+
*       -2.142733402E-02               0
GRID*              11348               01.1148264274E+009.4801572915E-01+
*       -4.501246634E-02               0
GRID*              11349               01.1151330481E+008.8926959714E-01+
*       -2.158566559E-02               0
GRID*              11350               01.0966165688E+008.7900980678E-01+
*       -4.286457346E-02               0
GRID*              11351               01.1338853466E+009.0895840244E-01+
*       -5.052150190E-02               0
GRID*              11352               01.1292961323E+009.2029910996E-01+
*       -4.517079790E-02               0
GRID*              11353               05.9388846904E-013.9276459698E-01+
*       1.6284880846E+00               0
GRID*              11354               05.9388988137E-013.2320427032E-01+
*       1.6557883326E+00               0
GRID*              11355               05.6197513262E-013.8534967200E-01+
*       1.5949968050E+00               0
GRID*              11356               05.9594321807E-012.8753147109E-01+
*       1.6686277174E+00               0
GRID*              11357               05.6408423949E-012.4404297336E-01+
*       1.6403185514E+00               0
GRID*              11358               06.2725475898E-013.0382488020E-01+
*       1.6252968145E+00               0
GRID*              11359               08.9921055164E-019.6777896598E-01+
*       -1.399990530E-01               0
GRID*              11360               09.2112453345E-019.2548516274E-01+
*       -2.000282878E-01               0
GRID*              11361               09.0992489929E-019.4652674211E-01+
*       -1.702823443E-01               0
GRID*              11362               09.1533155162E-019.2985857937E-01+
*       -1.491668055E-01               0
GRID*              11363               09.3395141850E-019.3680085317E-01+
*       -1.285923817E-01               0
GRID*              11364               09.0320604879E-019.1978581015E-01+
*       -1.991385177E-01               0
GRID*              11365               08.9200641463E-019.4082738952E-01+
*       -1.693925741E-01               0
GRID*              11366               08.8129206698E-019.6207961339E-01+
*       -1.391092828E-01               0
GRID*              11367               09.1603293384E-019.3110150057E-01+
*       -1.277026116E-01               0
GRID*              11368               09.7367993417E-019.6902188718E-01+
*       -1.162510009E-01               0
GRID*              11369               08.9991193387E-019.6902188718E-01+
*       -1.185348590E-01               0
GRID*              11370               01.2048124672E+006.2275674006E-01+
*       -1.150594435E-01               0
GRID*              11371               06.8717282484E-015.0420795133E-01+
*       1.4546894458E+00               0
GRID*              11372               07.1869621541E-015.0875992478E-01+
*       1.4836643753E+00               0
GRID*              11373               07.1812386641E-012.2699019686E-01+
*       1.1475714898E+00               0
GRID*              11374               06.8814383383E-012.2636481819E-01+
*       1.1161999293E+00               0
GRID*              11375               07.2001996741E-012.4993116901E-01+
*       1.1333032504E+00               0
GRID*              11376               07.2001996741E-013.0063488608E-01+
*       1.0938236529E+00               0
GRID*              11377               0-6.873048929E-01-9.381980574E-01+
*       3.3159695328E-01               0
GRID*              11378               0-7.186073585E-01-9.088521307E-01+
*       3.6555657947E-01               0
GRID*              11379               0-6.874562884E-012.3674661145E-01+
*       2.6087863393E-01               0
GRID*              11380               0-6.874562884E-013.0540891927E-01+
*       2.6935598768E-01               0
GRID*              11381               0-6.257527200E-012.5044189865E-01+
*       2.7393779692E-01               0
GRID*              11382               0-6.882964316E-012.3166145034E-01+
*       3.0232327062E-01               0
GRID*              11383               0-6.641156059E-012.3054968138E-01+
*       3.4898664190E-01               0
GRID*              11384               0-7.258191743E-012.1685439418E-01+
*       3.3592747891E-01               0
GRID*              11385               0-6.872395002E-013.4023612676E-01+
*       2.7178639405E-01               0
GRID*              11386               06.8978766648E-012.9624716500E-01+
*       1.5512790199E+00               0
GRID*              11387               06.8978766648E-012.1500924928E-01+
*       1.5860319710E+00               0
GRID*              11388               06.8978766648E-012.3512126381E-01+
*       1.5060553043E+00               0
GRID*              11389               06.8850832343E-013.3603600153E-01+
*       1.5351884695E+00               0
GRID*              11390               06.8850832343E-012.7491010034E-01+
*       1.4899647539E+00               0
GRID*              11391               06.5844284817E-013.2027256429E-01+
*       1.5791404290E+00               0
GRID*              11392               07.1881191081E-013.4379165584E-01+
*       1.5727534089E+00               0
GRID*              11393               06.8694596043E-012.4425089311E-01+
*       1.4669671830E+00               0
GRID*              11394               05.3109281135E-019.0887362172E-01+
*       6.5862120086E-01               0
GRID*              11395               0-3.864057047E-019.4359899417E-01+
*       -1.217041560E-01               0
GRID*              11396               0-4.033355216E-019.6939567683E-01+
*       -1.515960054E-01               0
GRID*              11397               0-3.289879147E-019.6939567683E-01+
*       -1.540973168E-01               0
GRID*              11398               0-5.625551753E-017.7603557082E-01+
*       1.2920945966E+00               0
GRID*              11399               0-5.317262328E-017.6431482930E-01+
*       1.2679334848E+00               0
GRID*              11400               0-5.308289425E-017.4191455571E-01+
*       1.2980825776E+00               0
GRID*              11401               07.1734824774E-013.2691761277E-01+
*       1.0742407327E+00               0
GRID*              11402               06.8676512388E-013.1941915054E-01+
*       1.0413618246E+00               0
GRID*              11403               07.1941687615E-013.4446551960E-01+
*       1.0528367077E+00               0
GRID*              11404               0-1.225948008E+009.3071008789E-01+
*       -1.251728543E-01               0
GRID*              11405               0-7.186975344E-01-9.057633681E-01+
*       3.2978915056E-01               0
GRID*              11406               0-5.935908854E-01-9.708342836E-01+
*       5.2182691663E-01               0
GRID*              11407               05.9308457873E-014.2646288187E-01+
*       1.6174798245E+00               0
GRID*              11408               0-5.320585652E-014.3309788133E-01+
*       5.4365533119E-01               0
GRID*              11409               0-2.604963066E-018.3956212942E-01+
*       -6.206707188E-02               0
GRID*              11410               0-2.915491720E-019.7126574121E-01+
*       -1.557745549E-01               0
GRID*              11411               0-7.188685260E-014.4378845369E-01+
*       1.5320642600E+00               0
GRID*              11412               05.3179403598E-018.5349113371E-02+
*       2.9447987341E-01               0
GRID*              11413               05.3179403598E-012.3849137108E-02+
*       2.9225590870E-01               0
GRID*              11414               05.6279929968E-011.0145354175E-01+
*       3.2781215237E-01               0
GRID*              11415               05.3209595554E-01-7.451598588E-03+
*       2.9164300573E-01               0
GRID*              11416               05.6326375468E-01-1.459577922E-02+
*       3.1857924853E-01               0
GRID*              11417               0-1.221008004E+00-3.471058691E-01+
*       -9.300106933E-02               0
GRID*              11418               0-1.205621246E+008.9331320804E-01+
*       -1.148056037E-01               0
GRID*              11419               0-1.216684265E+006.4023327426E-01+
*       -1.144699898E-01               0
GRID*              11420               09.4903552057E-019.6838651188E-01+
*       -6.247550913E-02               0
GRID*              11421               09.3551906747E-019.5274890725E-01+
*       -3.214314324E-02               0
GRID*              11422               09.1336018834E-018.9922291387E-01+
*       -2.286256409E-01               0
GRID*              11423               09.3650815057E-018.8930516691E-01+
*       -2.073490904E-01               0
GRID*              11424               08.7983993314E-018.7330513075E-01+
*       -2.286256409E-01               0
GRID*              11425               09.3214699285E-019.0549464656E-01+
*       -2.287234494E-01               0
GRID*              11426               01.1833020038E+00-7.461167143E-01+
*       -4.331646777E-02               0
GRID*              11427               01.1479144430E+00-7.407930199E-01+
*       -4.227377640E-02               0
GRID*              11428               01.1614924991E+00-7.450765288E-01+
*       -2.148379565E-02               0
GRID*              11429               0-1.203651639E+00-1.308373997E-01+
*       -1.562883549E-01               0
GRID*              11430               01.2223987739E+00-3.095871643E-01+
*       -1.560816497E-01               0
GRID*              11431               06.8780431182E-014.2775530581E-01+
*       8.1698704430E-01               0
GRID*              11432               07.1872366802E-014.5669730797E-01+
*       8.0936551312E-01               0
GRID*              11433               07.1908064380E-014.5370590989E-01+
*       8.3576799757E-01               0
GRID*              11434               08.7588541466E-019.7874777613E-01+
*       -1.602248216E-01               0
GRID*              11435               01.2190980476E+00-6.843803485E-05+
*       -9.362669492E-02               0
GRID*              11436               01.2212039158E+004.6080488969E-01+
*       -9.361006486E-02               0
GRID*              11437               05.5332866197E-019.4820789337E-01+
*       3.5494783891E-01               0
GRID*              11438               05.3221859137E-014.1759625119E-01+
*       5.6041209246E-01               0
GRID*              11439               05.6589122055E-013.9767306548E-01+
*       5.7980505146E-01               0
GRID*              11440               05.3367262918E-014.3049968557E-01+
*       5.8558637280E-01               0
GRID*              11441               05.9625200882E-014.3599153617E-01+
*       5.7948947135E-01               0
GRID*              11442               05.3367262918E-014.4636503558E-01+
*       6.5273257717E-01               0
GRID*              11443               01.2169558458E+007.6926729006E-01+
*       -1.368675007E-01               0
GRID*              11444               01.2020651046E+007.5546873395E-01+
*       -1.781998333E-01               0
GRID*              11445               01.2041970061E+007.5913169222E-01+
*       -1.743479186E-01               0
GRID*              11446               05.9314176122E-012.5126865579E-01+
*       1.6772624341E+00               0
GRID*              11447               06.5867262918E-014.4071234274E-01+
*       5.7475027375E-01               0
GRID*              11448               06.8757937964E-014.6612737905E-01+
*       5.4926041331E-01               0
GRID*              11449               07.1921201011E-017.6427560995E-01+
*       1.2675079688E+00               0
GRID*              11450               03.8352582185E-01-9.254331621E-01+
*       -3.031095805E-02               0
GRID*              11451               03.6370807034E-01-9.495168404E-01+
*       -6.113854313E-02               0
GRID*              11452               0-1.024272136E+009.8069817545E-01+
*       -1.571381435E-01               0
GRID*              11453               0-1.042883670E+009.0972473029E-01+
*       -2.291239936E-01               0
GRID*              11454               08.5236956887E-018.4507104210E-01+
*       -2.288290796E-01               0
GRID*              11455               08.7342866088E-018.4168936168E-01+
*       -2.075714160E-01               0
GRID*              11456               08.6301761222E-018.6019514687E-01+
*       -2.287423364E-01               0
GRID*              11457               01.1633965316E+007.4882445857E-01+
*       -2.299053365E-01               0
GRID*              11458               01.1998149121E+007.5653398596E-01+
*       -2.256755629E-01               0
GRID*              11459               01.1850676487E+007.4992274569E-01+
*       -2.087376691E-01               0
GRID*              11460               01.1515794096E+008.0368638179E-01+
*       -1.866326816E-01               0
GRID*              11461               01.1571995095E+008.3108170825E-01+
*       -2.066746386E-01               0
GRID*              11462               01.1353174489E+008.7176144771E-01+
*       -2.283750496E-01               0
GRID*              11463               0-5.311468305E-01-4.535925043E-01+
*       6.8610705725E-01               0
GRID*              11464               0-7.182624010E-01-1.111239686E-01+
*       1.2065208354E+00               0
GRID*              11465               0-6.870178889E-01-1.195180633E-01+
*       1.1719167640E+00               0
GRID*              11466               01.0113342960E+009.6934397303E-01+
*       -1.151630393E-01               0
GRID*              11467               01.0822929880E+009.6934397303E-01+
*       -1.151311123E-01               0
GRID*              11468               09.7184978644E-019.5313760464E-01+
*       -3.033236589E-02               0
GRID*              11469               01.1616949619E+00-7.258438702E-01+
*       -2.078998075E-02               0
GRID*              11470               01.1835044666E+00-7.268840557E-01+
*       -4.262265286E-02               0
GRID*              11471               01.1202794831E+00-8.975789135E-01+
*       -2.061540710E-02               0
GRID*              11472               01.0873741204E+00-8.873365706E-01+
*       -2.061540710E-02               0
GRID*              11473               01.1072300374E+00-8.690946069E-01+
*       -2.061540710E-02               0
GRID*              11474               01.0643315065E+00-8.819138836E-01+
*       -4.230734024E-02               0
GRID*              11475               01.0692417761E+00-8.933738310E-01+
*       -2.169193314E-02               0
GRID*              11476               07.1957963235E-01-1.663031190E-01+
*       1.6203789895E+00               0
GRID*              11477               05.3056057889E-014.5308978876E-01+
*       6.8595241323E-01               0
GRID*              11478               05.3138263352E-013.2875505515E-01+
*       3.4547692163E-01               0
GRID*              11479               05.3138263352E-012.6009274733E-01+
*       3.3699956789E-01               0
GRID*              11480               06.8840166363E-012.9469932900E-01+
*       3.3182720994E-01               0
GRID*              11481               05.3110277866E-012.2652327773E-01+
*       3.3409371552E-01               0
GRID*              11482               08.4813447978E-018.0280540954E-01+
*       -6.470790530E-02               0
GRID*              11483               03.4715703967E-01-9.250891780E-01+
*       -3.082758508E-02               0
GRID*              11484               07.1885493297E-015.4605481717E-02+
*       1.6365668820E+00               0
GRID*              11485               0-7.188545834E-015.7839742267E-01+
*       1.4686578160E+00               0
GRID*              11486               0-8.745654543E-016.1086487768E-01+
*       -2.151901067E-02               0
GRID*              11487               0-6.883022335E-015.7595290617E-01+
*       2.4365958668E-01               0
GRID*              11488               0-6.883022335E-015.3147573568E-01+
*       2.8684896990E-01               0
GRID*              11489               0-6.870673124E-015.0942519532E-01+
*       3.0954149891E-01               0
GRID*              11490               0-2.541085381E-011.1269583735E-01+
*       -6.268378853E-02               0
GRID*              11491               0-1.033385557E+009.5215926088E-01+
*       -3.030195179E-02               0
GRID*              11492               0-1.005941613E+009.3135812437E-01+
*       -5.106521124E-02               0
GRID*              11493               0-7.189367736E-019.0346056744E-01+
*       7.8454986497E-01               0
GRID*              11494               0-1.133818079E+008.8261060663E-01+
*       -2.155763481E-02               0
GRID*              11495               08.1725445856E-01-7.390098748E-01+
*       -2.285129323E-01               0
GRID*              11496               09.8882856599E-01-9.066081967E-01+
*       -1.859668008E-01               0
GRID*              11497               09.9019700078E-01-9.376484595E-01+
*       -1.763574569E-01               0
GRID*              11498               07.1732211583E-019.0372570683E-01+
*       1.7554235049E-01               0
GRID*              11499               06.8563530744E-019.3481740005E-01+
*       1.7902036177E-01               0
GRID*              11500               06.5746130483E-018.9698013065E-01+
*       2.2139920199E-01               0
GRID*              11501               07.1831319161E-019.0159306417E-01+
*       2.1423098632E-01               0
GRID*              11502               06.4091487669E-019.6005583730E-01+
*       -7.477864233E-02               0
GRID*              11503               0-1.465211365E-019.6918701777E-01+
*       -1.569269262E-01               0
GRID*              11504               06.8739735393E-01-2.973499515E-01+
*       1.5522918237E-01               0
GRID*              11505               0-6.992740916E-019.7032827541E-01+
*       -1.744434653E-01               0
GRID*              11506               0-6.975888486E-019.3756719830E-01+
*       -1.999449522E-01               0
GRID*              11507               0-6.872304785E-01-2.448067154E-01+
*       1.4666474437E+00               0
GRID*              11508               05.8846787711E-01-1.753688185E-01+
*       1.1062546969E+00               0
GRID*              11509               05.5708534350E-01-2.197286168E-01+
*       1.1092116282E+00               0
GRID*              11510               0-6.535481595E-019.5969480943E-01+
*       5.4081074196E-02               0
GRID*              11511               07.1889402624E-01-5.784022317E-01+
*       1.4686664247E+00               0
GRID*              11512               05.5450880196E-01-4.235799291E-01+
*       8.0299616699E-01               0
GRID*              11513               05.3184651497E-01-4.572305487E-01+
*       8.0848448229E-01               0
GRID*              11514               05.2266228699E-01-3.976733334E-01+
*       7.8358492774E-01               0
GRID*              11515               05.2266228699E-01-4.489972912E-01+
*       8.2265815929E-01               0
GRID*              11516               06.8734466179E-018.6520923111E-01+
*       2.1699681063E-01               0
GRID*              11517               0-5.304891862E-01-8.793871127E-01+
*       9.4216124440E-01               0
GRID*              11518               05.9214179634E-01-4.409118048E-01+
*       5.7474755769E-01               0
GRID*              11519               07.1714179634E-01-4.306991476E-01+
*       5.8558365707E-01               0
GRID*              11520               06.8779714885E-01-5.763768046E-01+
*       2.4339658720E-01               0
GRID*              11521               05.3214927804E-01-4.325118296E-01+
*       5.4397515846E-01               0
GRID*              11522               05.6413014525E-01-4.056709768E-01+
*       5.6935320472E-01               0
GRID*              11523               0-7.187554879E-01-1.369433276E-01+
*       1.1987293514E+00               0
GRID*              11524               0-1.853866950E-01-8.990457518E-01+
*       -2.179790547E-01               0
GRID*              11525               0-5.310612180E-01-9.384381943E-02+
*       1.6306269444E+00               0
GRID*              11526               0-5.934222185E-019.6747369822E-01+
*       2.6038199766E-01               0
GRID*              11527               05.3116779914E-01-3.416144169E-02+
*       2.9135499962E-01               0
GRID*              11528               05.3198086721E-01-4.440073358E-01+
*       5.6989926904E-01               0
GRID*              11529               0-7.189410230E-01-3.426640322E-01+
*       4.3582698005E-01               0
GRID*              11530               06.0055413265E-019.6801977585E-01+
*       -1.372806242E-01               0
GRID*              11531               05.1802709130E-019.6801977585E-01+
*       -1.468204384E-01               0
GRID*              11532               0-1.218350522E+003.0142022559E-01+
*       -1.568242079E-01               0
GRID*              11533               0-7.188002256E-01-3.450117291E-01+
*       1.0526243690E+00               0
GRID*              11534               0-1.204331430E+006.2310867292E-01+
*       -1.360733877E-01               0
GRID*              11535               0-1.154016860E+006.3133452687E-01+
*       -1.985733877E-01               0
GRID*              11536               0-1.178673826E+006.2737304547E-01+
*       -1.679049273E-01               0
GRID*              11537               0-5.302407811E-014.5332943214E-01+
*       8.3538808111E-01               0
GRID*              11538               08.1306885919E-017.4814541103E-01+
*       -2.293979461E-01               0
GRID*              11539               0-1.135462760E+008.7173638769E-01+
*       -2.289359013E-01               0
GRID*              11540               0-7.345953507E-01-9.134469765E-01+
*       -2.250095258E-01               0
GRID*              11541               0-5.307306334E-015.4784904389E-02+
*       1.6362658280E+00               0
GRID*              11542               0-5.319995411E-012.4265552696E-01+
*       3.5620716083E-01               0
GRID*              11543               0-1.617775050E-039.6716347444E-01+
*       -1.563215217E-01               0
GRID*              11544               04.7816301135E-019.6770828878E-01+
*       -1.521396722E-01               0
GRID*              11545               01.0077584204E+00-9.685402521E-01+
*       -1.364108860E-01               0
GRID*              11546               01.1185860339E+00-8.597090826E-01+
*       -2.102725702E-02               0
GRID*              11547               01.1316354796E+00-8.881933892E-01+
*       -2.102725702E-02               0
GRID*              11548               01.1372935042E+00-9.024990286E-01+
*       -2.218107606E-02               0
GRID*              11549               0-1.038148517E+00-5.794019067E-01+
*       -2.278801830E-01               0
GRID*              11550               0-1.012303295E+009.1586253567E-01+
*       -2.117321902E-02               0
GRID*              11551               09.4775597770E-015.7647450502E-01+
*       -2.287849081E-01               0
GRID*              11552               07.1916217955E-01-9.090383433E-01+
*       3.4782698738E-01               0
GRID*              11553               05.3259298069E-014.1981578460E-01+
*       9.3730206578E-01               0
GRID*              11554               05.6309879410E-013.9027569728E-01+
*       9.3587276567E-01               0
GRID*              11555               0-1.130351417E+006.3612171462E-01+
*       -2.289488442E-01               0
GRID*              11556               0-8.322447333E-017.2447545332E-01+
*       -2.103228335E-02               0
GRID*              11557               05.3100526371E-011.1208711985E-01+
*       3.0219896518E-01               0
GRID*              11558               07.1923971493E-01-4.124090899E-01+
*       1.5507069016E+00               0
GRID*              11559               01.1349749522E+008.8322049547E-01+
*       -2.127890788E-02               0
GRID*              11560               01.1491380364E+009.1425000829E-01+
*       -4.486404019E-02               0
GRID*              11561               01.1569621694E+00-9.397080843E-01+
*       -3.028841238E-02               0
GRID*              11562               0-8.404928668E-017.7734875444E-01+
*       -2.293778974E-01               0
GRID*              11563               07.1868785664E-014.4409750104E-01+
*       5.7014323841E-01               0
GRID*              11564               01.1164303801E+009.6864771942E-01+
*       -1.136175012E-01               0
GRID*              11565               01.1300269544E+009.4641737516E-01+
*       -7.454765347E-02               0
GRID*              11566               0-1.217317401E+007.4964317300E-01+
*       -1.355449688E-01               0
GRID*              11567               0-7.370797841E-019.6723892289E-01+
*       -1.731910456E-01               0
GRID*              11568               05.3050581340E-014.0757137006E-01+
*       9.6180574610E-01               0
GRID*              11569               01.2269862701E+00-9.104557861E-01+
*       -9.344812372E-02               0
GRID*              11570               0-1.209841010E+00-4.227537272E-01+
*       -1.957801114E-01               0
GRID*              11571               01.0852090240E+00-9.624182819E-01+
*       -4.390333628E-02               0
GRID*              11572               0-5.232988955E-01-1.527919955E-01+
*       1.1174378275E+00               0
GRID*              11573               0-6.970278588E-017.6106461495E-01+
*       1.3166361302E+00               0
GRID*              11574               0-6.647905123E-017.5993861894E-01+
*       1.3665947602E+00               0
GRID*              11575               0-5.531586359E-01-7.611098334E-01+
*       1.3169412389E+00               0
GRID*              11576               0-7.236909120E-013.5607151077E-01+
*       5.3117501983E-01               0
GRID*              11577               0-4.360476224E-019.8170245848E-01+
*       -8.119566960E-02               0
GRID*              11578               0-5.227080418E-01-7.205084413E-01+
*       1.3247727421E+00               0
GRID*              11579               0-1.207113638E+006.0825002734E-01+
*       -1.974107134E-01               0
GRID*              11580               05.5159889731E-01-1.692831828E-01+
*       1.1305038389E+00               0
GRID*              11581               0-5.468948628E-01-1.651561803E-01+
*       1.1320468624E+00               0
GRID*              11582               0-5.232988955E-01-1.372671922E-01+
*       1.1753399947E+00               0
GRID*              11583               0-5.672115534E-01-2.028847620E-01+
*       1.1152069518E+00               0
GRID*              11584               0-5.440526690E-01-2.119286415E-01+
*       1.1054165032E+00               0
GRID*              11585               0-5.829552400E-01-2.450544145E-01+
*       1.0615732091E+00               0
GRID*              11586               0-5.643829720E-01-3.273669170E-01+
*       1.0172028362E+00               0
GRID*              11587               0-5.396642215E-01-3.439145497E-01+
*       1.0641957141E+00               0
GRID*              11588               0-5.396642215E-01-3.183792909E-01+
*       9.9180850513E-01               0
GRID*              11589               0-5.475170891E-01-2.960718782E-01+
*       1.0765623666E+00               0
GRID*              11590               05.2322800354E-019.1659708664E-01+
*       3.9370664565E-01               0
GRID*              11591               0-5.442026626E-01-3.183969372E-01+
*       1.0252491136E+00               0
GRID*              11592               0-5.399406138E-01-2.702069403E-01+
*       1.0651106775E+00               0
GRID*              11593               0-5.829574710E-01-1.995671117E-01+
*       1.0908060453E+00               0
GRID*              11594               0-5.312859061E-01-3.408887050E-01+
*       1.0842995003E+00               0
GRID*              11595               0-5.317785935E-01-2.222063478E-01+
*       1.1513789109E+00               0
GRID*              11596               05.3043175010E-019.1887086517E-01+
*       9.3738548024E-02               0
GRID*              11597               0-4.204980361E-019.7410844624E-01+
*       -9.057642503E-02               0
GRID*              11598               0-1.224342396E+006.1964898793E-01+
*       -1.568315396E-01               0
GRID*              11599               0-1.250000000E+000.0000000000E+00+
*       -1.250000000E-01               0
GRID*              11600               0-1.250000000E+003.0769230769E-01+
*       -1.250000000E-01               0
GRID*              11601               0-1.250000000E+001.5384615385E-01+
*       -1.250000000E-01               0
GRID*              11602               0-1.250000000E+004.6153846154E-01+
*       -1.250000000E-01               0
GRID*              11603               0-1.250000000E+006.1538461538E-01+
*       -1.250000000E-01               0
GRID*              11604               0-1.250000000E+007.6287656986E-01+
*       -1.250000000E-01               0
GRID*              11605               0-1.250000000E+009.0701813764E-01+
*       -1.250000000E-01               0
GRID*              11606               0-1.250000000E+00-1.538461538E-01+
*       -1.250000000E-01               0
GRID*              11607               0-1.250000000E+00-3.076923077E-01+
*       -1.250000000E-01               0
GRID*              11608               0-1.250000000E+00-6.153846154E-01+
*       -1.250000000E-01               0
GRID*              11609               0-1.250000000E+00-4.615384615E-01+
*       -1.250000000E-01               0
GRID*              11610               0-1.250000000E+00-7.628765699E-01+
*       -1.250000000E-01               0
GRID*              11611               0-1.250000000E+00-9.070181376E-01+
*       -1.250000000E-01               0
GRID*              11612               0-1.250000000E+003.8461538462E-02+
*       -1.875000000E-01               0
GRID*              11613               0-1.250000000E+007.6923076923E-02+
*       -1.250000000E-01               0
GRID*              11614               0-1.250000000E+001.1538461538E-01+
*       -1.875000000E-01               0
GRID*              11615               0-1.250000000E+00-3.846153846E-02+
*       -1.875000000E-01               0
GRID*              11616               0-1.250000000E+001.1538461538E-01+
*       -6.250000000E-02               0
GRID*              11617               0-1.250000000E+001.9230769231E-01+
*       -6.250000000E-02               0
GRID*              11618               0-1.250000000E+003.8461538462E-02+
*       -6.250000000E-02               0
GRID*              11619               0-1.250000000E+001.9230769231E-01+
*       -1.875000000E-01               0
GRID*              11620               0-1.250000000E+002.3076923077E-01+
*       -1.250000000E-01               0
GRID*              11621               0-1.250000000E+002.6923076923E-01+
*       -1.875000000E-01               0
GRID*              11622               0-1.250000000E+002.6923076923E-01+
*       -6.250000000E-02               0
GRID*              11623               0-1.250000000E+003.4615384615E-01+
*       -6.250000000E-02               0
GRID*              11624               0-1.250000000E+003.4615384615E-01+
*       -1.875000000E-01               0
GRID*              11625               0-1.250000000E+003.8461538462E-01+
*       -1.250000000E-01               0
GRID*              11626               0-1.250000000E+004.2307692308E-01+
*       -1.875000000E-01               0
GRID*              11627               0-1.250000000E+004.2307692308E-01+
*       -6.250000000E-02               0
GRID*              11628               0-1.250000000E+005.0000000000E-01+
*       -6.250000000E-02               0
GRID*              11629               0-1.250000000E+005.0000000000E-01+
*       -1.875000000E-01               0
GRID*              11630               0-1.250000000E+005.3846153846E-01+
*       -1.250000000E-01               0
GRID*              11631               0-1.250000000E+005.7692307692E-01+
*       -1.875000000E-01               0
GRID*              11632               0-1.250000000E+005.7692307692E-01+
*       -6.250000000E-02               0
GRID*              11633               0-1.250000000E+006.5384615385E-01+
*       -6.250000000E-02               0
GRID*              11634               0-1.250000000E+006.5384615385E-01+
*       -1.875000000E-01               0
GRID*              11635               0-1.250000000E+006.8913059262E-01+
*       -1.250000000E-01               0
GRID*              11636               0-1.250000000E+007.2759213109E-01+
*       -1.875000000E-01               0
GRID*              11637               0-1.250000000E+007.2759213109E-01+
*       -6.250000000E-02               0
GRID*              11638               0-1.250000000E+008.0451520801E-01+
*       -6.250000000E-02               0
GRID*              11639               0-1.250000000E+008.0451520801E-01+
*       -1.875000000E-01               0
GRID*              11640               0-1.250000000E+008.7658599189E-01+
*       -6.250000000E-02               0
GRID*              11641               0-1.250000000E+008.3494735375E-01+
*       -1.250000000E-01               0
GRID*              11642               0-1.250000000E+009.5350906882E-01+
*       -6.250000000E-02               0
GRID*              11643               0-1.250000000E+009.5350906882E-01+
*       -1.250000000E-01               0
GRID*              11644               0-1.250000000E+008.7658599189E-01+
*       -1.875000000E-01               0
GRID*              11645               0-1.250000000E+009.5350906882E-01+
*       -1.875000000E-01               0
GRID*              11646               0-1.250000000E+00-3.846153846E-02+
*       -6.250000000E-02               0
GRID*              11647               0-1.250000000E+00-7.692307692E-02+
*       -1.250000000E-01               0
GRID*              11648               0-1.250000000E+00-1.153846154E-01+
*       -6.250000000E-02               0
GRID*              11649               0-1.250000000E+00-1.153846154E-01+
*       -1.875000000E-01               0
GRID*              11650               0-1.250000000E+00-1.923076923E-01+
*       -1.875000000E-01               0
GRID*              11651               0-1.250000000E+00-1.923076923E-01+
*       -6.250000000E-02               0
GRID*              11652               0-1.250000000E+00-2.307692308E-01+
*       -1.250000000E-01               0
GRID*              11653               0-1.250000000E+00-2.692307692E-01+
*       -6.250000000E-02               0
GRID*              11654               0-1.250000000E+00-2.692307692E-01+
*       -1.875000000E-01               0
GRID*              11655               0-1.250000000E+00-3.461538462E-01+
*       -1.875000000E-01               0
GRID*              11656               0-1.250000000E+00-3.461538462E-01+
*       -6.250000000E-02               0
GRID*              11657               0-1.250000000E+00-3.846153846E-01+
*       -1.250000000E-01               0
GRID*              11658               0-1.250000000E+00-4.230769231E-01+
*       -6.250000000E-02               0
GRID*              11659               0-1.250000000E+00-4.230769231E-01+
*       -1.875000000E-01               0
GRID*              11660               0-1.250000000E+00-5.000000000E-01+
*       -1.875000000E-01               0
GRID*              11661               0-1.250000000E+00-5.000000000E-01+
*       -6.250000000E-02               0
GRID*              11662               0-1.250000000E+00-5.384615385E-01+
*       -1.250000000E-01               0
GRID*              11663               0-1.250000000E+00-5.769230769E-01+
*       -6.250000000E-02               0
GRID*              11664               0-1.250000000E+00-5.769230769E-01+
*       -1.875000000E-01               0
GRID*              11665               0-1.250000000E+00-6.538461538E-01+
*       -1.875000000E-01               0
GRID*              11666               0-1.250000000E+00-6.538461538E-01+
*       -6.250000000E-02               0
GRID*              11667               0-1.250000000E+00-6.891305926E-01+
*       -1.250000000E-01               0
GRID*              11668               0-1.250000000E+00-7.275921311E-01+
*       -6.250000000E-02               0
GRID*              11669               0-1.250000000E+00-7.275921311E-01+
*       -1.875000000E-01               0
GRID*              11670               0-1.250000000E+00-8.045152080E-01+
*       -1.875000000E-01               0
GRID*              11671               0-1.250000000E+00-8.045152080E-01+
*       -6.250000000E-02               0
GRID*              11672               0-1.250000000E+00-8.765859919E-01+
*       -1.875000000E-01               0
GRID*              11673               0-1.250000000E+00-8.349473537E-01+
*       -1.250000000E-01               0
GRID*              11674               0-1.250000000E+00-9.535090688E-01+
*       -1.875000000E-01               0
GRID*              11675               0-1.250000000E+00-9.535090688E-01+
*       -1.250000000E-01               0
GRID*              11676               0-1.250000000E+00-8.765859919E-01+
*       -6.250000000E-02               0
GRID*              11677               0-1.250000000E+00-9.535090688E-01+
*       -6.250000000E-02               0
GRID*              11678               0-9.265730334E-01-6.488402597E-01+
*       -8.333276908E-02               0
GRID*              11679               0-8.811230555E-01-7.113592781E-01+
*       -8.333301657E-02               0
GRID*              11680               0-8.811010171E-01-7.885725543E-01+
*       -8.333381427E-02               0
GRID*              11681               0-9.265052853E-01-8.511104427E-01+
*       -8.333274086E-02               0
GRID*              11682               0-9.999270800E-01-8.749999787E-01+
*       -8.333333335E-02               0
GRID*              11683               0-1.073455810E+00-8.511391355E-01+
*       -8.333362295E-02               0
GRID*              11684               0-1.118862496E+00-7.886872217E-01+
*       -8.333333063E-02               0
GRID*              11685               0-1.118885059E+00-7.113821160E-01+
*       -8.333333696E-02               0
GRID*              11686               0-1.073514338E+00-6.489033449E-01+
*       -8.333311495E-02               0
GRID*              11687               0-9.265643667E-01-6.488466162E-01+
*       -1.666672590E-01               0
GRID*              11688               0-8.811235892E-01-7.113579354E-01+
*       -1.666661853E-01               0
GRID*              11689               0-8.811004654E-01-7.885711683E-01+
*       -1.666669777E-01               0
GRID*              11690               0-9.265139720E-01-8.511168221E-01+
*       -1.666672340E-01               0
GRID*              11691               0-9.999270804E-01-8.749999787E-01+
*       -1.666666667E-01               0
GRID*              11692               0-1.073455232E+00-8.511396056E-01+
*       -1.666668810E-01               0
GRID*              11693               0-1.118862507E+00-7.886871917E-01+
*       -1.666666630E-01               0
GRID*              11694               0-1.118885050E+00-7.113820914E-01+
*       -1.666666695E-01               0
GRID*              11695               0-1.073514873E+00-6.489037789E-01+
*       -1.666663787E-01               0
GRID*              11696               0-9.265672152E-01-6.488445270E-01+
*       -1.250002122E-01               0
GRID*              11697               0-8.988986736E-01-6.764941449E-01+
*       -1.249989568E-01               0
GRID*              11698               0-8.988988257E-01-6.764939468E-01+
*       -8.333225838E-02               0
GRID*              11699               0-8.988899502E-01-6.765055131E-01+
*       -1.666674365E-01               0
GRID*              11700               0-8.811237272E-01-7.113575882E-01+
*       -1.249994760E-01               0
GRID*              11701               0-8.750000054E-01-7.499635035E-01+
*       -1.250000000E-01               0
GRID*              11702               0-8.750000053E-01-7.499635036E-01+
*       -8.333333333E-02               0
GRID*              11703               0-8.750000054E-01-7.499635034E-01+
*       -1.666666666E-01               0
GRID*              11704               0-8.811011318E-01-7.885728424E-01+
*       -1.250005163E-01               0
GRID*              11705               0-8.988557723E-01-8.234467493E-01+
*       -1.250010531E-01               0
GRID*              11706               0-8.988470841E-01-8.234354270E-01+
*       -8.333258069E-02               0
GRID*              11707               0-8.988558522E-01-8.234468534E-01+
*       -1.666677365E-01               0
GRID*              11708               0-9.265082706E-01-8.511126351E-01+
*       -1.249998061E-01               0
GRID*              11709               0-9.613291780E-01-8.688676640E-01+
*       -1.249998671E-01               0
GRID*              11710               0-9.613295141E-01-8.688677813E-01+
*       -8.333322707E-02               0
GRID*              11711               0-9.627481848E-01-8.645108893E-01+
*       -1.666668855E-01               0
GRID*              11712               0-9.999270802E-01-8.749999787E-01+
*       -1.250000000E-01               0
GRID*              11713               0-1.038591175E+00-8.688925988E-01+
*       -1.250006901E-01               0
GRID*              11714               0-1.038591372E+00-8.688925175E-01+
*       -8.333405027E-02               0
GRID*              11715               0-1.038589079E+00-8.688934661E-01+
*       -1.666670698E-01               0
GRID*              11716               0-1.073456246E+00-8.511387811E-01+
*       -1.250003465E-01               0
GRID*              11717               0-1.101101790E+00-8.235078829E-01+
*       -1.666667090E-01               0
GRID*              11718               0-1.101102005E+00-8.235075641E-01+
*       -1.250000686E-01               0
GRID*              11719               0-1.118862512E+00-7.886871770E-01+
*       -1.249999957E-01               0
GRID*              11720               0-1.101101919E+00-8.235076929E-01+
*       -8.333339125E-02               0
GRID*              11721               0-1.124999995E+00-7.500365392E-01+
*       -1.666666667E-01               0
GRID*              11722               0-1.124999995E+00-7.500365393E-01+
*       -1.250000000E-01               0
GRID*              11723               0-1.118885066E+00-7.113821372E-01+
*       -1.250000045E-01               0
GRID*              11724               0-1.124999995E+00-7.500365395E-01+
*       -8.333333339E-02               0
GRID*              11725               0-1.101144817E+00-6.765512873E-01+
*       -1.666666092E-01               0
GRID*              11726               0-1.101144920E+00-6.765514397E-01+
*       -1.249999300E-01               0
GRID*              11727               0-1.073515359E+00-6.489041739E-01+
*       -1.249996486E-01               0
GRID*              11728               0-1.101144703E+00-6.765511176E-01+
*       -8.333328979E-02               0
GRID*              11729               0-9.614011514E-01-6.311088953E-01+
*       -4.166659548E-02               0
GRID*              11730               0-9.614004858E-01-6.311091299E-01+
*       -8.333331507E-02               0
GRID*              11731               0-9.265709300E-01-6.488418024E-01+
*       -4.166638298E-02               0
GRID*              11732               0-9.613985827E-01-6.311098006E-01+
*       -1.250001329E-01               0
GRID*              11733               0-9.613989363E-01-6.311096760E-01+
*       -1.666667715E-01               0
GRID*              11734               0-9.613998053E-01-6.311093698E-01+
*       -2.083333692E-01               0
GRID*              11735               0-9.265669223E-01-6.488447418E-01+
*       -2.083335848E-01               0
GRID*              11736               0-8.988906890E-01-6.765045503E-01+
*       -2.083339498E-01               0
GRID*              11737               0-8.811212193E-01-7.113638971E-01+
*       -2.083335832E-01               0
GRID*              11738               0-8.750000054E-01-7.499635033E-01+
*       -2.083333333E-01               0
GRID*              11739               0-8.810997657E-01-7.885694108E-01+
*       -2.083334288E-01               0
GRID*              11740               0-8.988525947E-01-8.234426083E-01+
*       -2.083337263E-01               0
GRID*              11741               0-9.265118359E-01-8.511152534E-01+
*       -2.083336156E-01               0
GRID*              11742               0-9.627483324E-01-8.645109408E-01+
*       -2.083335639E-01               0
GRID*              11743               0-9.999270805E-01-8.749999787E-01+
*       -2.083333333E-01               0
GRID*              11744               0-1.038587025E+00-8.688943159E-01+
*       -2.083334552E-01               0
GRID*              11745               0-1.073454099E+00-8.511405271E-01+
*       -2.083334000E-01               0
GRID*              11746               0-1.101101551E+00-8.235082371E-01+
*       -2.083333465E-01               0
GRID*              11747               0-1.118862451E+00-7.886873495E-01+
*       -2.083333354E-01               0
GRID*              11748               0-1.124999995E+00-7.500365391E-01+
*       -2.083333333E-01               0
GRID*              11749               0-1.118885033E+00-7.113820397E-01+
*       -2.083333343E-01               0
GRID*              11750               0-1.101144053E+00-6.765501553E-01+
*       -2.083333691E-01               0
GRID*              11751               0-1.073511285E+00-6.489008662E-01+
*       -2.083335130E-01               0
GRID*              11752               0-1.038653713E+00-6.311270519E-01+
*       -2.083336015E-01               0
GRID*              11753               0-1.038660940E+00-6.311300465E-01+
*       -1.666659451E-01               0
GRID*              11754               0-1.038660791E+00-6.311299847E-01+
*       -1.249992988E-01               0
GRID*              11755               0-1.038658670E+00-6.311291058E-01+
*       -8.333292256E-02               0
GRID*              11756               0-1.073513184E+00-6.489024081E-01+
*       -4.166659865E-02               0
GRID*              11757               0-1.038656578E+00-6.311282391E-01+
*       -4.166654232E-02               0
GRID*              11758               0-1.118885004E+00-7.113819548E-01+
*       -4.166666439E-02               0
GRID*              11759               0-1.101144457E+00-6.765507538E-01+
*       -4.166665306E-02               0
GRID*              11760               0-1.118862479E+00-7.886872705E-01+
*       -4.166666572E-02               0
GRID*              11761               0-1.124999995E+00-7.500365396E-01+
*       -4.166666674E-02               0
GRID*              11762               0-1.073452242E+00-8.511420381E-01+
*       -4.166649090E-02               0
GRID*              11763               0-1.101101160E+00-8.235088164E-01+
*       -4.166663206E-02               0
GRID*              11764               0-9.999270799E-01-8.749999787E-01+
*       -4.166666669E-02               0
GRID*              11765               0-1.038584278E+00-8.688954522E-01+
*       -4.166641230E-02               0
GRID*              11766               0-9.265078277E-01-8.511123098E-01+
*       -4.166641351E-02               0
GRID*              11767               0-9.613303935E-01-8.688680882E-01+
*       -4.166663017E-02               0
GRID*              11768               0-8.810986690E-01-7.885666557E-01+
*       -4.166642400E-02               0
GRID*              11769               0-8.988477352E-01-8.234362755E-01+
*       -4.166604919E-02               0
GRID*              11770               0-8.811223443E-01-7.113610670E-01+
*       -4.166656928E-02               0
GRID*              11771               0-8.750000053E-01-7.499635036E-01+
*       -4.166666667E-02               0
GRID*              11772               0-8.988955592E-01-6.764982037E-01+
*       -4.166627052E-02               0
GRID*              11773               0-9.265730498E-018.5115973473E-01+
*       -8.333276908E-02               0
GRID*              11774               0-8.811230558E-017.8864070634E-01+
*       -8.333301657E-02               0
GRID*              11775               0-8.811010162E-017.1142742993E-01+
*       -8.333381427E-02               0
GRID*              11776               0-9.265052648E-016.4888954629E-01+
*       -8.333274085E-02               0
GRID*              11777               0-9.999270800E-016.2500002130E-01+
*       -8.333333335E-02               0
GRID*              11778               0-1.073455812E+006.4886085426E-01+
*       -8.333362295E-02               0
GRID*              11779               0-1.118862502E+007.1131274763E-01+
*       -8.333333063E-02               0
GRID*              11780               0-1.118885053E+007.8861785346E-01+
*       -8.333333696E-02               0
GRID*              11781               0-1.073514337E+008.5109664525E-01+
*       -8.333311495E-02               0
GRID*              11782               0-9.265643870E-018.5115337290E-01+
*       -1.666672590E-01               0
GRID*              11783               0-8.811235902E-017.8864204886E-01+
*       -1.666661853E-01               0
GRID*              11784               0-8.811004651E-017.1142881622E-01+
*       -1.666669777E-01               0
GRID*              11785               0-9.265139555E-016.4888317223E-01+
*       -1.666672340E-01               0
GRID*              11786               0-9.999270804E-016.2500002129E-01+
*       -1.666666667E-01               0
GRID*              11787               0-1.073455233E+006.4886038473E-01+
*       -1.666668810E-01               0
GRID*              11788               0-1.118862513E+007.1131277769E-01+
*       -1.666666630E-01               0
GRID*              11789               0-1.118885044E+007.8861787799E-01+
*       -1.666666695E-01               0
GRID*              11790               0-1.073514871E+008.5109621072E-01+
*       -1.666663787E-01               0
GRID*              11791               0-9.265672343E-018.5115546387E-01+
*       -1.250002122E-01               0
GRID*              11792               0-8.988986992E-018.2350583064E-01+
*       -1.249989568E-01               0
GRID*              11793               0-8.988988513E-018.2350602887E-01+
*       -8.333225838E-02               0
GRID*              11794               0-8.988899758E-018.2349446243E-01+
*       -1.666674365E-01               0
GRID*              11795               0-8.811237284E-017.8864239592E-01+
*       -1.249994760E-01               0
GRID*              11796               0-8.750000054E-017.5003648536E-01+
*       -1.250000000E-01               0
GRID*              11797               0-8.750000053E-017.5003648527E-01+
*       -8.333333333E-02               0
GRID*              11798               0-8.750000054E-017.5003648545E-01+
*       -1.666666666E-01               0
GRID*              11799               0-8.811011307E-017.1142714177E-01+
*       -1.250005163E-01               0
GRID*              11800               0-8.988557468E-016.7655322626E-01+
*       -1.250010531E-01               0
GRID*              11801               0-8.988470586E-016.7656454860E-01+
*       -8.333258070E-02               0
GRID*              11802               0-8.988558266E-016.7655312221E-01+
*       -1.666677365E-01               0
GRID*              11803               0-9.265082515E-016.4888735577E-01+
*       -1.249998061E-01               0
GRID*              11804               0-9.613291877E-016.3113235483E-01+
*       -1.249998671E-01               0
GRID*              11805               0-9.613295234E-016.3113223652E-01+
*       -8.333322707E-02               0
GRID*              11806               0-9.613311681E-016.3113165692E-01+
*       -1.666666911E-01               0
GRID*              11807               0-9.999270802E-016.2500002130E-01+
*       -1.250000000E-01               0
GRID*              11808               0-1.038591183E+006.3110735324E-01+
*       -1.250006901E-01               0
GRID*              11809               0-1.038591380E+006.3110743465E-01+
*       -8.333405027E-02               0
GRID*              11810               0-1.038589087E+006.3110648477E-01+
*       -1.666670698E-01               0
GRID*              11811               0-1.073456248E+006.4886120819E-01+
*       -1.250003465E-01               0
GRID*              11812               0-1.101101808E+006.7649208163E-01+
*       -1.666667090E-01               0
GRID*              11813               0-1.101102023E+006.7649240046E-01+
*       -1.250000686E-01               0
GRID*              11814               0-1.118862518E+007.1131279247E-01+
*       -1.249999957E-01               0
GRID*              11815               0-1.101101936E+006.7649227164E-01+
*       -8.333339125E-02               0
GRID*              11816               0-1.124999995E+007.4996343351E-01+
*       -1.666666667E-01               0
GRID*              11817               0-1.124999995E+007.4996343338E-01+
*       -1.250000000E-01               0
GRID*              11818               0-1.118885061E+007.8861783228E-01+
*       -1.250000045E-01               0
GRID*              11819               0-1.124999995E+007.4996343323E-01+
*       -8.333333339E-02               0
GRID*              11820               0-1.101144800E+008.2344867722E-01+
*       -1.666666092E-01               0
GRID*              11821               0-1.101144902E+008.2344852480E-01+
*       -1.249999300E-01               0
GRID*              11822               0-1.073515357E+008.5109581523E-01+
*       -1.249996486E-01               0
GRID*              11823               0-1.101144685E+008.2344884694E-01+
*       -8.333328979E-02               0
GRID*              11824               0-9.618719900E-018.6743812898E-01+
*       -8.333324910E-02               0
GRID*              11825               0-9.618724897E-018.6743830338E-01+
*       -4.166654274E-02               0
GRID*              11826               0-9.265709474E-018.5115819075E-01+
*       -4.166638298E-02               0
GRID*              11827               0-9.613985732E-018.6889021800E-01+
*       -1.250001329E-01               0
GRID*              11828               0-9.613989271E-018.6889034152E-01+
*       -1.666667715E-01               0
GRID*              11829               0-9.613997970E-018.6889064509E-01+
*       -2.083333692E-01               0
GRID*              11830               0-9.265669415E-018.5115524888E-01+
*       -2.083335848E-01               0
GRID*              11831               0-8.988907147E-018.2349542528E-01+
*       -2.083339498E-01               0
GRID*              11832               0-8.811212174E-017.8863608824E-01+
*       -2.083335832E-01               0
GRID*              11833               0-8.750000054E-017.5003648554E-01+
*       -2.083333333E-01               0
GRID*              11834               0-8.810997663E-017.1143057408E-01+
*       -2.083334288E-01               0
GRID*              11835               0-8.988525691E-016.7655736737E-01+
*       -2.083337263E-01               0
GRID*              11836               0-9.265118184E-016.4888473962E-01+
*       -2.083336156E-01               0
GRID*              11837               0-9.613317578E-016.3113144910E-01+
*       -2.083334047E-01               0
GRID*              11838               0-9.999270805E-016.2500002128E-01+
*       -2.083333333E-01               0
GRID*              11839               0-1.038587034E+006.3110563371E-01+
*       -2.083334552E-01               0
GRID*              11840               0-1.073454100E+006.4885946430E-01+
*       -2.083334000E-01               0
GRID*              11841               0-1.101101569E+006.7649172743E-01+
*       -2.083333465E-01               0
GRID*              11842               0-1.118862458E+007.1131261940E-01+
*       -2.083333354E-01               0
GRID*              11843               0-1.124999995E+007.4996343361E-01+
*       -2.083333333E-01               0
GRID*              11844               0-1.118885026E+007.8861792948E-01+
*       -2.083333343E-01               0
GRID*              11845               0-1.101144036E+008.2344980925E-01+
*       -2.083333691E-01               0
GRID*              11846               0-1.073511286E+008.5109912699E-01+
*       -2.083335130E-01               0
GRID*              11847               0-1.038653704E+008.6887289621E-01+
*       -2.083336015E-01               0
GRID*              11848               0-1.038660932E+008.6886990572E-01+
*       -1.666659451E-01               0
GRID*              11849               0-1.038660783E+008.6886996742E-01+
*       -1.249992988E-01               0
GRID*              11850               0-1.038658661E+008.6887084516E-01+
*       -8.333292256E-02               0
GRID*              11851               0-1.073513184E+008.5109758323E-01+
*       -4.166659865E-02               0
GRID*              11852               0-1.038656569E+008.6887171069E-01+
*       -4.166654232E-02               0
GRID*              11853               0-1.118884996E+007.8861801415E-01+
*       -4.166666440E-02               0
GRID*              11854               0-1.101144440E+008.2344921070E-01+
*       -4.166665306E-02               0
GRID*              11855               0-1.118862486E+007.1131269870E-01+
*       -4.166666572E-02               0
GRID*              11856               0-1.124999995E+007.4996343308E-01+
*       -4.166666674E-02               0
GRID*              11857               0-1.073452241E+006.4885795512E-01+
*       -4.166649090E-02               0
GRID*              11858               0-1.101101178E+006.7649114811E-01+
*       -4.166663206E-02               0
GRID*              11859               0-9.999270799E-016.2500002131E-01+
*       -4.166666669E-02               0
GRID*              11860               0-1.038584288E+006.3110449584E-01+
*       -4.166641230E-02               0
GRID*              11861               0-9.265078084E-016.4888768075E-01+
*       -4.166641351E-02               0
GRID*              11862               0-9.613304019E-016.3113192692E-01+
*       -4.166663017E-02               0
GRID*              11863               0-8.810986709E-017.1143332968E-01+
*       -4.166642400E-02               0
GRID*              11864               0-8.988477096E-016.7656370015E-01+
*       -4.166604919E-02               0
GRID*              11865               0-8.811223438E-017.8863891777E-01+
*       -4.166656928E-02               0
GRID*              11866               0-8.750000053E-017.5003648521E-01+
*       -4.166666667E-02               0
GRID*              11867               0-8.988955848E-018.2350177195E-01+
*       -4.166627052E-02               0
GRID*              11868               0-1.153510893E+008.9346037968E-01+
*       0.0000000000E+00               0
GRID*              11869               0-8.465085822E-018.9348027859E-01+
*       0.0000000000E+00               0
GRID*              11870               0-8.464882062E-01-8.934578221E-01+
*       0.0000000000E+00               0
GRID*              11871               0-1.153490535E+00-8.934828215E-01+
*       0.0000000000E+00               0
GRID*              11872               0-1.114906148E+004.8067398529E-01+
*       0.0000000000E+00               0
GRID*              11873               0-1.060070324E+005.8785514299E-01+
*       0.0000000000E+00               0
GRID*              11874               0-1.175267930E+007.3012565497E-01+
*       0.0000000000E+00               0
GRID*              11875               0-1.149789496E+006.2940421302E-01+
*       0.0000000000E+00               0
GRID*              11876               0-8.848981508E-01-4.806931785E-01+
*       0.0000000000E+00               0
GRID*              11877               0-9.398719329E-01-5.878794702E-01+
*       0.0000000000E+00               0
GRID*              11878               0-8.247269949E-01-7.301273875E-01+
*       0.0000000000E+00               0
GRID*              11879               0-8.501746765E-01-6.294162962E-01+
*       0.0000000000E+00               0
GRID*              11880               0-1.124866902E+00-2.053271198E-04+
*       0.0000000000E+00               0
GRID*              11881               0-9.991982792E-017.7351542898E-02+
*       0.0000000000E+00               0
GRID*              11882               0-8.736725827E-011.5391035168E-01+
*       0.0000000000E+00               0
GRID*              11883               0-1.121265491E+003.1058967727E-01+
*       0.0000000000E+00               0
GRID*              11884               0-9.894612268E-013.8877004885E-01+
*       0.0000000000E+00               0
GRID*              11885               0-8.645434486E-014.6116328117E-01+
*       0.0000000000E+00               0
GRID*              11886               0-9.716229394E-015.4118765428E-01+
*       0.0000000000E+00               0
GRID*              11887               0-8.571668079E-015.9869662380E-01+
*       0.0000000000E+00               0
GRID*              11888               0-8.706470164E-013.0864562645E-01+
*       0.0000000000E+00               0
GRID*              11889               0-1.123711821E+001.5431609295E-01+
*       0.0000000000E+00               0
GRID*              11890               0-9.961647692E-012.3232611629E-01+
*       0.0000000000E+00               0
GRID*              11891               0-8.784551127E-01-3.107346244E-01+
*       0.0000000000E+00               0
GRID*              11892               0-1.010287827E+00-3.889463676E-01+
*       0.0000000000E+00               0
GRID*              11893               0-1.135233218E+00-4.611626909E-01+
*       0.0000000000E+00               0
GRID*              11894               0-1.028269114E+00-5.412199104E-01+
*       0.0000000000E+00               0
GRID*              11895               0-1.142777890E+00-5.986864051E-01+
*       0.0000000000E+00               0
GRID*              11896               0-1.129157259E+00-3.089520199E-01+
*       0.0000000000E+00               0
GRID*              11897               0-1.126258045E+00-1.544564351E-01+
*       0.0000000000E+00               0
GRID*              11898               0-1.000665232E+00-7.730894243E-02+
*       0.0000000000E+00               0
GRID*              11899               0-8.748617713E-01-1.990324320E-04+
*       0.0000000000E+00               0
GRID*              11900               0-8.761583581E-01-1.544680058E-01+
*       0.0000000000E+00               0
GRID*              11901               0-1.003658936E+00-2.325263149E-01+
*       0.0000000000E+00               0
GRID*              11902               0-8.155497340E-017.0186950079E-01+
*       0.0000000000E+00               0
GRID*              11903               0-1.184442514E+00-7.018448533E-01+
*       0.0000000000E+00               0
GRID*              11904               0-9.582968736E-01-9.374999893E-01+
*       0.0000000000E+00               0
GRID*              11905               0-1.041666667E+009.3750000000E-01+
*       0.0000000000E+00               0
GRID*              11906               0-1.201755447E+009.4673018984E-01+
*       0.0000000000E+00               0
GRID*              11907               0-1.118422113E+009.4673018984E-01+
*       0.0000000000E+00               0
GRID*              11908               0-1.201755447E+008.6980711292E-01+
*       0.0000000000E+00               0
GRID*              11909               0-1.113511788E+008.7227918508E-01+
*       0.0000000000E+00               0
GRID*              11910               0-1.136197957E+008.4103916764E-01+
*       0.0000000000E+00               0
GRID*              11911               0-8.815876244E-019.4674013930E-01+
*       0.0000000000E+00               0
GRID*              11912               0-7.982542911E-019.4674013930E-01+
*       0.0000000000E+00               0
GRID*              11913               0-7.982542911E-018.6981706237E-01+
*       0.0000000000E+00               0
GRID*              11914               0-8.865386967E-018.7231845935E-01+
*       0.0000000000E+00               0
GRID*              11915               0-8.638153113E-018.4105922396E-01+
*       0.0000000000E+00               0
GRID*              11916               0-7.982441031E-01-9.467289110E-01+
*       0.0000000000E+00               0
GRID*              11917               0-8.815774364E-01-9.467289110E-01+
*       0.0000000000E+00               0
GRID*              11918               0-7.982441031E-01-8.698058341E-01+
*       0.0000000000E+00               0
GRID*              11919               0-8.864989584E-01-8.722857665E-01+
*       0.0000000000E+00               0
GRID*              11920               0-8.637938374E-01-8.410132501E-01+
*       0.0000000000E+00               0
GRID*              11921               0-1.118411934E+00-9.467414107E-01+
*       0.0000000000E+00               0
GRID*              11922               0-1.201745268E+00-9.467414107E-01+
*       0.0000000000E+00               0
GRID*              11923               0-1.201745268E+00-8.698183338E-01+
*       0.0000000000E+00               0
GRID*              11924               0-1.113472072E+00-8.723118736E-01+
*       0.0000000000E+00               0
GRID*              11925               0-1.136176505E+00-8.410850583E-01+
*       0.0000000000E+00               0
GRID*              11926               0-1.212633965E+007.1121667364E-01+
*       0.0000000000E+00               0
GRID*              11927               0-1.212633965E+007.8813975056E-01+
*       0.0000000000E+00               0
GRID*              11928               0-1.182453074E+005.0956776187E-01+
*       0.0000000000E+00               0
GRID*              11929               0-1.182453074E+004.3264468495E-01+
*       0.0000000000E+00               0
GRID*              11930               0-1.199894748E+006.6085595267E-01+
*       0.0000000000E+00               0
GRID*              11931               0-1.162528713E+006.7976493400E-01+
*       0.0000000000E+00               0
GRID*              11932               0-1.199894748E+005.8393287574E-01+
*       0.0000000000E+00               0
GRID*              11933               0-1.132347822E+005.5503909916E-01+
*       0.0000000000E+00               0
GRID*              11934               0-1.066761966E+006.1835710365E-01+
*       0.0000000000E+00               0
GRID*              11935               0-1.029998702E+006.0642758216E-01+
*       0.0000000000E+00               0
GRID*              11936               0-1.147065205E+007.2071916479E-01+
*       0.0000000000E+00               0
GRID*              11937               0-1.147076476E+007.5937180528E-01+
*       0.0000000000E+00               0
GRID*              11938               0-1.104929910E+006.0862967801E-01+
*       0.0000000000E+00               0
GRID*              11939               0-1.087488236E+005.3426456414E-01+
*       0.0000000000E+00               0
GRID*              11940               0-1.111621552E+006.3913163866E-01+
*       0.0000000000E+00               0
GRID*              11941               0-1.134325989E+006.7035844382E-01+
*       0.0000000000E+00               0
GRID*              11942               0-7.873634975E-01-7.112175399E-01+
*       0.0000000000E+00               0
GRID*              11943               0-7.873634975E-01-7.881406168E-01+
*       0.0000000000E+00               0
GRID*              11944               0-8.174490754E-01-5.095773585E-01+
*       0.0000000000E+00               0
GRID*              11945               0-8.174490754E-01-4.326542816E-01+
*       0.0000000000E+00               0
GRID*              11946               0-8.000873383E-01-6.608619942E-01+
*       0.0000000000E+00               0
GRID*              11947               0-8.374508357E-01-6.797718419E-01+
*       0.0000000000E+00               0
GRID*              11948               0-8.000873383E-01-5.839389173E-01+
*       0.0000000000E+00               0
GRID*              11949               0-8.675364137E-01-5.550547374E-01+
*       0.0000000000E+00               0
GRID*              11950               0-9.332203613E-01-6.183614054E-01+
*       0.0000000000E+00               0
GRID*              11951               0-9.699359665E-01-6.064397351E-01+
*       0.0000000000E+00               0
GRID*              11952               0-8.529245173E-01-7.207446027E-01+
*       0.0000000000E+00               0
GRID*              11953               0-8.529132318E-01-7.593480328E-01+
*       0.0000000000E+00               0
GRID*              11954               0-8.950233047E-01-6.086478832E-01+
*       0.0000000000E+00               0
GRID*              11955               0-9.123850419E-01-5.342863244E-01+
*       0.0000000000E+00               0
GRID*              11956               0-8.883717331E-01-6.391298184E-01+
*       0.0000000000E+00               0
GRID*              11957               0-8.656483581E-01-6.703890571E-01+
*       0.0000000000E+00               0
GRID*              11958               0-1.185632745E+003.4760253094E-01+
*       0.0000000000E+00               0
GRID*              11959               0-1.185632745E+002.7067945402E-01+
*       0.0000000000E+00               0
GRID*              11960               0-1.118085819E+003.9563183128E-01+
*       0.0000000000E+00               0
GRID*              11961               0-9.805420831E-014.6497885157E-01+
*       0.0000000000E+00               0
GRID*              11962               0-9.270023377E-014.2496666501E-01+
*       0.0000000000E+00               0
GRID*              11963               0-9.180831940E-015.0117546772E-01+
*       0.0000000000E+00               0
GRID*              11964               0-1.052183687E+004.3472201707E-01+
*       0.0000000000E+00               0
GRID*              11965               0-1.055363359E+003.4967986306E-01+
*       0.0000000000E+00               0
GRID*              11966               0-1.043264543E+005.1093081978E-01+
*       0.0000000000E+00               0
GRID*              11967               0-1.015846632E+005.6452139863E-01+
*       0.0000000000E+00               0
GRID*              11968               0-8.035834040E-016.4550215805E-01+
*       0.0000000000E+00               0
GRID*              11969               0-8.035834040E-015.6857908113E-01+
*       0.0000000000E+00               0
GRID*              11970               0-8.691331380E-016.5506396654E-01+
*       0.0000000000E+00               0
GRID*              11971               0-8.918382485E-016.2379144676E-01+
*       0.0000000000E+00               0
GRID*              11972               0-8.608551283E-015.2992995249E-01+
*       0.0000000000E+00               0
GRID*              11973               0-9.143948737E-015.6994213904E-01+
*       0.0000000000E+00               0
GRID*              11974               0-8.072717243E-014.9981240982E-01+
*       0.0000000000E+00               0
GRID*              11975               0-9.857750100E-015.8309383780E-01+
*       0.0000000000E+00               0
GRID*              11976               0-9.490663143E-015.9503696200E-01+
*       0.0000000000E+00               0
GRID*              11977               0-8.103235082E-012.6970742861E-01+
*       0.0000000000E+00               0
GRID*              11978               0-8.721597995E-012.3127798907E-01+
*       0.0000000000E+00               0
GRID*              11979               0-8.118362914E-011.9233979123E-01+
*       0.0000000000E+00               0
GRID*              11980               0-8.103235082E-013.4663050553E-01+
*       0.0000000000E+00               0
GRID*              11981               0-8.072717243E-014.2288933289E-01+
*       0.0000000000E+00               0
GRID*              11982               0-8.675952325E-013.8490445381E-01+
*       0.0000000000E+00               0
GRID*              11983               0-1.124289362E+007.7055382916E-02+
*       0.0000000000E+00               0
GRID*              11984               0-1.062032591E+003.8573107889E-02+
*       0.0000000000E+00               0
GRID*              11985               0-1.061455050E+001.1583381792E-01+
*       0.0000000000E+00               0
GRID*              11986               0-1.187433451E+003.8358874902E-02+
*       0.0000000000E+00               0
GRID*              11987               0-1.187433451E+00-3.856420202E-02+
*       0.0000000000E+00               0
GRID*              11988               0-1.186855911E+001.1561958494E-01+
*       0.0000000000E+00               0
GRID*              11989               0-1.186855911E+001.9254266186E-01+
*       0.0000000000E+00               0
GRID*              11990               0-9.300541216E-013.4870783765E-01+
*       0.0000000000E+00               0
GRID*              11991               0-9.334058928E-012.7048587137E-01+
*       0.0000000000E+00               0
GRID*              11992               0-9.928129980E-013.1054808257E-01+
*       0.0000000000E+00               0
GRID*              11993               0-9.349186759E-011.9311823399E-01+
*       0.0000000000E+00               0
GRID*              11994               0-9.976815242E-011.5483882959E-01+
*       0.0000000000E+00               0
GRID*              11995               0-9.364354309E-011.1563094729E-01+
*       0.0000000000E+00               0
GRID*              11996               0-1.058715130E+002.7145789678E-01+
*       0.0000000000E+00               0
GRID*              11997               0-1.122488656E+002.3245288511E-01+
*       0.0000000000E+00               0
GRID*              11998               0-1.059938295E+001.9332110462E-01+
*       0.0000000000E+00               0
GRID*              11999               0-8.142275564E-01-3.476750045E-01+
*       0.0000000000E+00               0
GRID*              12000               0-8.142275564E-01-2.707519276E-01+
*       0.0000000000E+00               0
GRID*              12001               0-8.816766318E-01-3.957139015E-01+
*       0.0000000000E+00               0
GRID*              12002               0-1.019278470E+00-4.650831390E-01+
*       0.0000000000E+00               0
GRID*              12003               0-1.072760522E+00-4.250545293E-01+
*       0.0000000000E+00               0
GRID*              12004               0-1.081751166E+00-5.011913006E-01+
*       0.0000000000E+00               0
GRID*              12005               0-9.475929887E-01-4.348197731E-01+
*       0.0000000000E+00               0
GRID*              12006               0-9.443714696E-01-3.498404960E-01+
*       0.0000000000E+00               0
GRID*              12007               0-9.565836326E-01-5.109565445E-01+
*       0.0000000000E+00               0
GRID*              12008               0-9.840705236E-01-5.645496903E-01+
*       0.0000000000E+00               0
GRID*              12009               0-1.196388945E+00-6.454970487E-01+
*       0.0000000000E+00               0
GRID*              12010               0-1.196388945E+00-5.685739718E-01+
*       0.0000000000E+00               0
GRID*              12011               0-1.130831459E+00-6.550342096E-01+
*       0.0000000000E+00               0
GRID*              12012               0-1.108145285E+00-6.237942022E-01+
*       0.0000000000E+00               0
GRID*              12013               0-1.139005554E+00-5.299245480E-01+
*       0.0000000000E+00               0
GRID*              12014               0-1.085523502E+00-5.699531578E-01+
*       0.0000000000E+00               0
GRID*              12015               0-1.192616609E+00-4.998121147E-01+
*       0.0000000000E+00               0
GRID*              12016               0-1.014134557E+00-5.831099552E-01+
*       0.0000000000E+00               0
GRID*              12017               0-1.050890898E+00-5.950609549E-01+
*       0.0000000000E+00               0
GRID*              12018               0-1.192616609E+00-4.228890377E-01+
*       0.0000000000E+00               0
GRID*              12019               0-1.132195239E+00-3.850573554E-01+
*       0.0000000000E+00               0
GRID*              12020               0-1.189578630E+00-3.467837022E-01+
*       0.0000000000E+00               0
GRID*              12021               0-1.188129022E+00-1.156897560E-01+
*       0.0000000000E+00               0
GRID*              12022               0-1.125562473E+00-7.733088109E-02+
*       0.0000000000E+00               0
GRID*              12023               0-1.188129022E+00-1.926128329E-01+
*       0.0000000000E+00               0
GRID*              12024               0-1.189578630E+00-2.698606253E-01+
*       0.0000000000E+00               0
GRID*              12025               0-1.127707652E+00-2.317042275E-01+
*       0.0000000000E+00               0
GRID*              12026               0-8.118362914E-011.1541671430E-01+
*       0.0000000000E+00               0
GRID*              12027               0-8.742671770E-017.6855659626E-02+
*       0.0000000000E+00               0
GRID*              12028               0-8.124308857E-013.8362022246E-02+
*       0.0000000000E+00               0
GRID*              12029               0-1.062766067E+00-3.875713477E-02+
*       0.0000000000E+00               0
GRID*              12030               0-9.999317555E-012.1300235256E-05+
*       0.0000000000E+00               0
GRID*              12031               0-1.063461638E+00-1.158826887E-01+
*       0.0000000000E+00               0
GRID*              12032               0-9.370300253E-013.8576255233E-02+
*       0.0000000000E+00               0
GRID*              12033               0-9.377635015E-01-3.875398743E-02+
*       0.0000000000E+00               0
GRID*              12034               0-8.124308857E-01-3.856105468E-02+
*       0.0000000000E+00               0
GRID*              12035               0-8.755100647E-01-7.733351911E-02+
*       0.0000000000E+00               0
GRID*              12036               0-9.384117949E-01-1.158884741E-01+
*       0.0000000000E+00               0
GRID*              12037               0-8.130791790E-01-1.156955414E-01+
*       0.0000000000E+00               0
GRID*              12038               0-8.130791790E-01-1.926186183E-01+
*       0.0000000000E+00               0
GRID*              12039               0-1.002162084E+00-1.549176287E-01+
*       0.0000000000E+00               0
GRID*              12040               0-9.399086473E-01-1.934971603E-01+
*       0.0000000000E+00               0
GRID*              12041               0-1.064958490E+00-1.934913750E-01+
*       0.0000000000E+00               0
GRID*              12042               0-1.066408098E+00-2.707391674E-01+
*       0.0000000000E+00               0
GRID*              12043               0-1.069722543E+00-3.489491938E-01+
*       0.0000000000E+00               0
GRID*              12044               0-8.773067354E-01-2.326013151E-01+
*       0.0000000000E+00               0
GRID*              12045               0-9.410570246E-01-2.716304696E-01+
*       0.0000000000E+00               0
GRID*              12046               0-1.006973381E+00-3.107363413E-01+
*       0.0000000000E+00               0
GRID*              12047               0-8.483246011E-017.0665040504E-01+
*       0.0000000000E+00               0
GRID*              12048               0-8.483358872E-017.4525383507E-01+
*       0.0000000000E+00               0
GRID*              12049               0-8.363582710E-016.5028306230E-01+
*       0.0000000000E+00               0
GRID*              12050               0-7.827748670E-016.9708859655E-01+
*       0.0000000000E+00               0
GRID*              12051               0-7.827748670E-017.7401167347E-01+
*       0.0000000000E+00               0
GRID*              12052               0-1.151663771E+00-7.066134337E-01+
*       0.0000000000E+00               0
GRID*              12053               0-1.151652494E+00-7.452660742E-01+
*       0.0000000000E+00               0
GRID*              12054               0-1.163610202E+00-6.502656292E-01+
*       0.0000000000E+00               0
GRID*              12055               0-1.217221257E+00-6.970762728E-01+
*       0.0000000000E+00               0
GRID*              12056               0-1.217221257E+00-7.739993497E-01+
*       0.0000000000E+00               0
GRID*              12057               0-1.168966524E+00-7.976638374E-01+
*       0.0000000000E+00               0
GRID*              12058               0-8.310291581E-017.9767488969E-01+
*       0.0000000000E+00               0
GRID*              12059               0-1.164389411E+008.1179301733E-01+
*       0.0000000000E+00               0
GRID*              12060               0-8.356076005E-01-8.117926048E-01+
*       0.0000000000E+00               0
GRID*              12061               0-9.232542911E-018.8424013930E-01+
*       0.0000000000E+00               0
GRID*              12062               0-1.076708808E+00-8.842414001E-01+
*       0.0000000000E+00               0
GRID*              12063               0-9.232076434E-01-8.842289004E-01+
*       0.0000000000E+00               0
GRID*              12064               0-1.076755447E+008.8423018984E-01+
*       0.0000000000E+00               0
GRID*              12065               0-9.374817701E-01-9.687499947E-01+
*       0.0000000000E+00               0
GRID*              12066               0-1.020815103E+00-9.687499947E-01+
*       0.0000000000E+00               0
GRID*              12067               0-9.023925399E-01-9.154789057E-01+
*       0.0000000000E+00               0
GRID*              12068               0-9.791119771E-01-9.062499840E-01+
*       0.0000000000E+00               0
GRID*              12069               0-1.055893704E+00-9.154914054E-01+
*       0.0000000000E+00               0
GRID*              12070               0-1.062500000E+009.6875000000E-01+
*       0.0000000000E+00               0
GRID*              12071               0-9.791666667E-019.6875000000E-01+
*       0.0000000000E+00               0
GRID*              12072               0-1.097588780E+009.1548018984E-01+
*       0.0000000000E+00               0
GRID*              12073               0-1.020833333E+009.0625000000E-01+
*       0.0000000000E+00               0
GRID*              12074               0-9.440876244E-019.1549013930E-01+
*       0.0000000000E+00               0
GRID*              12075               0-7.500000000E-011.6540197241E-02+
*       1.3703050293E-01               0
GRID*              12076               0-7.500000000E-01-2.701726105E-02+
*       2.6441875682E-01               0
GRID*              12077               0-7.500000000E-011.2680785800E-01+
*       1.2114640311E+00               0
GRID*              12078               0-7.500000000E-012.1289085734E-01+
*       1.3077179410E+00               0
GRID*              12079               0-7.500000000E-013.0740359776E-01+
*       1.4123747900E+00               0
GRID*              12080               0-7.500000000E-014.0487426680E-01+
*       1.5174890799E+00               0
GRID*              12081               0-7.500000000E-014.5042287128E-01+
*       5.6619341380E-01               0
GRID*              12082               0-7.500000000E-015.4102991497E-01+
*       4.5884903787E-01               0
GRID*              12083               0-7.500000000E-016.2290504710E-01+
*       3.4762081389E-01               0
GRID*              12084               0-7.500000000E-016.9839167933E-01+
*       2.3732303285E-01               0
GRID*              12085               0-7.500000000E-017.6767582278E-01+
*       1.1607938041E-01               0
GRID*              12086               0-7.500000000E-012.1796616313E-01+
*       2.8926410763E-01               0
GRID*              12087               0-7.500000000E-013.0094186039E-01+
*       1.5057639978E-01               0
GRID*              12088               0-7.500000000E-011.5620692104E-01+
*       1.4161333333E-01               0
GRID*              12089               0-7.500000000E-019.5982691472E-02+
*       2.6886668622E-01               0
GRID*              12090               0-7.500000000E-014.9450076593E-01+
*       3.2832911791E-01               0
GRID*              12091               0-7.500000000E-013.5529077878E-01+
*       3.0621881512E-01               0
GRID*              12092               0-7.500000000E-014.0148416440E-01+
*       4.4473888833E-01               0
GRID*              12093               0-7.500000000E-014.6803629309E-01+
*       1.6450692538E-01               0
GRID*              12094               0-7.500000000E-016.2544825391E-01+
*       1.2668806683E-01               0
GRID*              12095               0-7.500000000E-015.8345510690E-01+
*       2.4195035146E-01               0
GRID*              12096               0-7.500000000E-018.4796925328E-01+
*       9.2971858704E-01               0
GRID*              12097               0-7.500000000E-017.1205356700E-01+
*       9.4299297716E-01               0
GRID*              12098               0-7.500000000E-015.7139685082E-01+
*       9.5066252048E-01               0
GRID*              12099               0-7.500000000E-014.3711145738E-01+
*       9.6323504620E-01               0
GRID*              12100               0-7.500000000E-018.0485217738E-01+
*       1.0597697434E+00               0
GRID*              12101               0-7.500000000E-012.4259495537E-01+
*       1.1696605113E+00               0
GRID*              12102               0-7.500000000E-013.7074672172E-01+
*       1.1002178596E+00               0
GRID*              12103               0-7.500000000E-015.2400247616E-01+
*       1.0851387534E+00               0
GRID*              12104               0-7.500000000E-016.6385299570E-01+
*       1.0709257318E+00               0
GRID*              12105               0-7.500000000E-014.4435631287E-01+
*       1.3693883237E+00               0
GRID*              12106               0-7.500000000E-014.8159699986E-01+
*       1.2253706592E+00               0
GRID*              12107               0-7.500000000E-013.4296456403E-01+
*       1.2646211810E+00               0
GRID*              12108               0-7.500000000E-017.5241044055E-01+
*       1.1860726982E+00               0
GRID*              12109               0-7.500000000E-016.1883200429E-01+
*       1.1981375312E+00               0
GRID*              12110               0-7.500000000E-017.0302733485E-01+
*       1.2898633415E+00               0
GRID*              12111               0-7.500000000E-015.8571120748E-01+
*       1.3286220781E+00               0
GRID*              12112               0-7.500000000E-015.4426038668E-01+
*       1.4644777924E+00               0
GRID*              12113               0-7.500000000E-018.8387714976E-01+
*       5.2097473971E-01               0
GRID*              12114               0-7.500000000E-017.6618754424E-01+
*       5.7076021791E-01               0
GRID*              12115               0-7.500000000E-016.1326553519E-01+
*       6.1010015406E-01               0
GRID*              12116               0-7.500000000E-014.8215357129E-01+
*       7.0048582255E-01               0
GRID*              12117               0-7.500000000E-018.7856222558E-01+
*       6.5835409461E-01               0
GRID*              12118               0-7.500000000E-014.7505292186E-01+
*       8.3653607791E-01               0
GRID*              12119               0-7.500000000E-016.2389460221E-01+
*       7.9916317013E-01               0
GRID*              12120               0-7.500000000E-017.5411268892E-01+
*       7.1249411311E-01               0
GRID*              12121               0-7.500000000E-018.7167370117E-01+
*       7.9754577513E-01               0
GRID*              12122               0-7.500000000E-017.6366949368E-01+
*       8.3687797699E-01               0
GRID*              12123               0-7.500000000E-018.5486978747E-01+
*       2.3557871202E-01               0
GRID*              12124               0-7.500000000E-018.9286251052E-01+
*       1.0024280314E-01               0
GRID*              12125               0-7.500000000E-018.7932166878E-01+
*       3.8797059719E-01               0
GRID*              12126               0-7.500000000E-017.5306608515E-01+
*       3.5664534153E-01               0
GRID*              12127               0-7.500000000E-017.9224639995E-01+
*       4.6041782368E-01               0
GRID*              12128               0-7.500000000E-016.8234120264E-01+
*       4.6630245148E-01               0
GRID*              12129               0-7.500000000E-01-8.708753326E-01+
*       6.5853288264E-01               0
GRID*              12130               0-7.500000000E-01-7.394645139E-01+
*       7.1667327848E-01               0
GRID*              12131               0-7.500000000E-01-6.091178313E-01+
*       7.7499626772E-01               0
GRID*              12132               0-7.500000000E-01-4.826479108E-01+
*       8.2814647459E-01               0
GRID*              12133               0-7.500000000E-01-4.671417381E-01+
*       1.3861547789E-01               0
GRID*              12134               0-7.500000000E-01-4.134388610E-01+
*       2.8605402274E-01               0
GRID*              12135               0-7.500000000E-01-3.727451475E-01+
*       4.2712455606E-01               0
GRID*              12136               0-7.500000000E-01-2.922473250E-01+
*       1.7063541932E-01               0
GRID*              12137               0-7.500000000E-01-2.722703304E-01+
*       3.4128863799E-01               0
GRID*              12138               0-7.500000000E-01-1.528139733E-01+
*       2.8470668354E-01               0
GRID*              12139               0-7.500000000E-01-1.259315764E-01+
*       1.4339553116E-01               0
GRID*              12140               0-7.500000000E-01-4.866207831E-01+
*       6.9574899185E-01               0
GRID*              12141               0-7.500000000E-01-6.141970381E-01+
*       6.3070893884E-01               0
GRID*              12142               0-7.500000000E-01-7.472735210E-01+
*       5.7015113085E-01               0
GRID*              12143               0-7.500000000E-01-8.750638458E-01+
*       5.1090334088E-01               0
GRID*              12144               0-7.500000000E-01-5.147185520E-01+
*       3.8739175569E-01               0
GRID*              12145               0-7.500000000E-01-6.259616972E-01+
*       4.8241735206E-01               0
GRID*              12146               0-7.500000000E-01-4.708481886E-01+
*       5.4452122278E-01               0
GRID*              12147               0-7.500000000E-01-6.457364617E-01+
*       3.4240459720E-01               0
GRID*              12148               0-7.500000000E-01-7.585517880E-01+
*       2.8561905024E-01               0
GRID*              12149               0-7.500000000E-01-8.705013712E-01+
*       2.1075297574E-01               0
GRID*              12150               0-7.500000000E-01-8.764174414E-01+
*       3.6374877674E-01               0
GRID*              12151               0-7.500000000E-01-7.546534628E-01+
*       4.2564715715E-01               0
GRID*              12152               0-7.500000000E-01-5.524790895E-01+
*       2.5189854014E-01               0
GRID*              12153               0-7.500000000E-01-6.087197989E-01+
*       1.2770739659E-01               0
GRID*              12154               0-7.500000000E-01-6.608919064E-01+
*       2.3042676884E-01               0
GRID*              12155               0-7.500000000E-01-7.386321463E-01+
*       1.4355449246E-01               0
GRID*              12156               0-7.500000000E-01-2.505565404E-01+
*       1.1646748154E+00               0
GRID*              12157               0-7.500000000E-01-3.633133607E-01+
*       1.2304011175E+00               0
GRID*              12158               0-7.500000000E-01-4.857589572E-01+
*       1.2990174401E+00               0
GRID*              12159               0-7.500000000E-01-6.116723285E-01+
*       1.3670160538E+00               0
GRID*              12160               0-7.500000000E-01-4.910868283E-01+
*       1.4528638473E+00               0
GRID*              12161               0-7.500000000E-012.6643034903E-01+
*       1.5624878243E+00               0
GRID*              12162               0-7.500000000E-011.7212614875E-01+
*       1.4464884821E+00               0
GRID*              12163               0-7.500000000E-011.2469328616E-01+
*       1.5919611246E+00               0
GRID*              12164               0-7.500000000E-01-3.602393381E-01+
*       1.5265970242E+00               0
GRID*              12165               0-7.500000000E-01-3.645539621E-01+
*       1.3748067915E+00               0
GRID*              12166               0-7.500000000E-01-2.498370925E-01+
*       1.3009650549E+00               0
GRID*              12167               0-7.500000000E-01-1.285492329E-01+
*       1.2333334228E+00               0
GRID*              12168               0-7.500000000E-017.4269950254E-03+
*       1.2308166147E+00               0
GRID*              12169               0-7.500000000E-01-4.208143255E-02+
*       1.3506026026E+00               0
GRID*              12170               0-7.500000000E-013.5601086999E-02+
*       1.4661450450E+00               0
GRID*              12171               0-7.500000000E-018.5308932777E-02+
*       1.3348281743E+00               0
GRID*              12172               0-7.500000000E-01-2.294152479E-02+
*       1.6028997391E+00               0
GRID*              12173               0-7.500000000E-01-1.525205761E-01+
*       1.3593353134E+00               0
GRID*              12174               0-7.500000000E-01-1.026997977E-01+
*       1.4677289764E+00               0
GRID*              12175               0-7.500000000E-01-1.977635068E-01+
*       1.5961029261E+00               0
GRID*              12176               0-7.500000000E-01-2.379875338E-01+
*       1.4361495936E+00               0
GRID*              12177               0-7.500000000E-01-8.628544526E-01+
*       8.0487334372E-01               0
GRID*              12178               0-7.500000000E-01-8.485497907E-01+
*       9.4429628214E-01               0
GRID*              12179               0-7.500000000E-01-7.309201348E-01+
*       8.5952219658E-01               0
GRID*              12180               0-7.500000000E-01-4.772377516E-01+
*       1.1471656453E+00               0
GRID*              12181               0-7.500000000E-01-5.999755781E-01+
*       1.0654151861E+00               0
GRID*              12182               0-7.500000000E-01-7.241442305E-01+
*       9.9659357821E-01               0
GRID*              12183               0-7.500000000E-01-6.058742099E-01+
*       1.2141929364E+00               0
GRID*              12184               0-7.500000000E-01-7.301938135E-01+
*       1.2739214668E+00               0
GRID*              12185               0-7.500000000E-01-7.301006689E-01+
*       1.1317927585E+00               0
GRID*              12186               0-7.500000000E-01-8.312492457E-01+
*       1.0587885162E+00               0
GRID*              12187               0-7.500000000E-01-6.010328961E-01+
*       9.1706242162E-01               0
GRID*              12188               0-7.500000000E-01-3.519639761E-01+
*       1.0857156220E+00               0
GRID*              12189               0-7.500000000E-01-4.565693886E-01+
*       9.7903877200E-01               0
GRID*              12190               0-7.500000000E-012.6585554558E-01+
*       7.5288199891E-02               0
GRID*              12191               0-7.500000000E-013.4277862250E-01+
*       7.5288199891E-02               0
GRID*              12192               0-7.500000000E-011.1656499898E-01+
*       7.0806666664E-02               0
GRID*              12193               0-7.500000000E-014.6731637082E-02+
*       6.8515251465E-02               0
GRID*              12194               0-7.500000000E-018.6373559141E-02+
*       1.3932191813E-01               0
GRID*              12195               0-7.500000000E-011.9348807590E-01+
*       7.0806666664E-02               0
GRID*              12196               0-7.500000000E-012.2857439072E-01+
*       1.4609486656E-01               0
GRID*              12197               0-7.500000000E-011.8708654209E-01+
*       2.1543872048E-01               0
GRID*              12198               0-7.500000000E-012.5945401176E-01+
*       2.1992025371E-01               0
GRID*              12199               0-7.500000000E-011.3531138269E-02+
*       3.1914376932E-01               0
GRID*              12200               0-7.500000000E-01-4.054840501E-02+
*       3.1914377013E-01               0
GRID*              12201               0-7.500000000E-015.6261444357E-02+
*       2.0294859458E-01               0
GRID*              12202               0-7.500000000E-01-5.238531907E-03+
*       2.0072462987E-01               0
GRID*              12203               0-7.500000000E-013.4482715209E-02+
*       2.6664272152E-01               0
GRID*              12204               0-7.500000000E-011.2609480626E-01+
*       2.0524000978E-01               0
GRID*              12205               0-7.500000000E-011.5697442730E-01+
*       2.7906539693E-01               0
GRID*              12206               0-7.500000000E-017.5031114532E-02+
*       3.2136773402E-01               0
GRID*              12207               0-7.500000000E-011.2692007626E-01+
*       3.3660349485E-01               0
GRID*              12208               0-7.500000000E-011.8791181209E-01+
*       3.4680220555E-01               0
GRID*              12209               0-7.500000000E-014.7125703968E-01+
*       4.5179396310E-01               0
GRID*              12210               0-7.500000000E-014.2595351784E-01+
*       5.0546615106E-01               0
GRID*              12211               0-7.500000000E-014.9572639312E-01+
*       5.1252122583E-01               0
GRID*              12212               0-7.500000000E-014.4799246516E-01+
*       3.8653400312E-01               0
GRID*              12213               0-7.500000000E-014.2489577235E-01+
*       3.1727396652E-01               0
GRID*              12214               0-7.500000000E-013.7838747159E-01+
*       3.7547885173E-01               0
GRID*              12215               0-7.500000000E-015.1776534045E-01+
*       3.9358907789E-01               0
GRID*              12216               0-7.500000000E-015.8196748103E-01+
*       4.0323492588E-01               0
GRID*              12217               0-7.500000000E-015.5870290651E-01+
*       3.3797496590E-01               0
GRID*              12218               0-7.500000000E-013.8504954171E-01+
*       5.5537498599E-01               0
GRID*              12219               0-7.500000000E-014.0751441234E-01+
*       6.0456772936E-01               0
GRID*              12220               0-7.500000000E-013.6058018827E-01+
*       4.9464772326E-01               0
GRID*              12221               0-7.500000000E-012.3340621810E-01+
*       3.7604012118E-01               0
GRID*              12222               0-7.500000000E-013.0206852593E-01+
*       3.8451747493E-01               0
GRID*              12223               0-7.500000000E-012.8662847096E-01+
*       2.9774146138E-01               0
GRID*              12224               0-7.500000000E-013.2516521873E-01+
*       4.5377751153E-01               0
GRID*              12225               0-7.500000000E-014.2632583885E-01+
*       8.2253462691E-02               0
GRID*              12226               0-7.500000000E-015.0324891578E-01+
*       8.2253462691E-02               0
GRID*              12227               0-7.500000000E-013.8448907674E-01+
*       1.5754166258E-01               0
GRID*              12228               0-7.500000000E-013.2811631958E-01+
*       2.2839760745E-01               0
GRID*              12229               0-7.500000000E-014.1166353594E-01+
*       2.3536287025E-01               0
GRID*              12230               0-7.500000000E-017.2999175754E-01+
*       5.8039690204E-02               0
GRID*              12231               0-7.500000000E-018.0691483446E-01+
*       5.8039690204E-02               0
GRID*              12232               0-7.500000000E-016.9656203834E-01+
*       1.2138372362E-01               0
GRID*              12233               0-7.500000000E-016.6191996662E-01+
*       1.8200554984E-01               0
GRID*              12234               0-7.500000000E-017.3303375105E-01+
*       1.7670120663E-01               0
GRID*              12235               0-7.500000000E-016.5887797311E-01+
*       6.3344033413E-02               0
GRID*              12236               0-7.500000000E-015.8195489619E-01+
*       6.3344033413E-02               0
GRID*              12237               0-7.500000000E-016.0318007700E-01+
*       2.9478558268E-01               0
GRID*              12238               0-7.500000000E-015.3897793641E-01+
*       2.8513973468E-01               0
GRID*              12239               0-7.500000000E-016.4092339312E-01+
*       2.3963669215E-01               0
GRID*              12240               0-7.500000000E-016.0445168040E-01+
*       1.8431920914E-01               0
GRID*              12241               0-7.500000000E-016.6064836322E-01+
*       2.9247192337E-01               0
GRID*              12242               0-7.500000000E-014.8126852951E-01+
*       2.4641802165E-01               0
GRID*              12243               0-7.500000000E-015.2574570000E-01+
*       2.0322863842E-01               0
GRID*              12244               0-7.500000000E-015.4674227350E-01+
*       1.4559749610E-01               0
GRID*              12245               0-7.500000000E-018.8021224082E-01+
*       1.0522623801E+00               0
GRID*              12246               0-7.500000000E-018.5291034413E-01+
*       1.1218266587E+00               0
GRID*              12247               0-7.500000000E-018.2641071533E-01+
*       9.9474416522E-01               0
GRID*              12248               0-7.500000000E-017.8001141014E-01+
*       9.3635578210E-01               0
GRID*              12249               0-7.500000000E-017.5845287219E-01+
*       1.0013813603E+00               0
GRID*              12250               0-7.500000000E-019.0177077877E-01+
*       9.8723680189E-01               0
GRID*              12251               0-7.500000000E-019.1839989370E-01+
*       9.1438040112E-01               0
GRID*              12252               0-7.500000000E-016.8795328135E-01+
*       1.0069593545E+00               0
GRID*              12253               0-7.500000000E-017.3435258654E-01+
*       1.0653477376E+00               0
GRID*              12254               0-7.500000000E-016.4172520891E-01+
*       9.4682774882E-01               0
GRID*              12255               0-7.500000000E-016.1762492326E-01+
*       1.0107941261E+00               0
GRID*              12256               0-7.500000000E-011.4233266223E-01+
*       1.1535618628E+00               0
GRID*              12257               0-7.500000000E-019.0443704646E-02+
*       1.1687976357E+00               0
GRID*              12258               0-7.500000000E-012.0022621091E-01+
*       1.1326601029E+00               0
GRID*              12259               0-7.500000000E-011.8470140669E-01+
*       1.1905622712E+00               0
GRID*              12260               0-7.500000000E-015.4769966349E-01+
*       1.0179006370E+00               0
GRID*              12261               0-7.500000000E-015.9392773593E-01+
*       1.0780322426E+00               0
GRID*              12262               0-7.500000000E-014.8055696677E-01+
*       1.0241868998E+00               0
GRID*              12263               0-7.500000000E-014.0392908955E-01+
*       1.0317264529E+00               0
GRID*              12264               0-7.500000000E-014.4737459894E-01+
*       1.0926783065E+00               0
GRID*              12265               0-7.500000000E-015.0425415410E-01+
*       9.5694878334E-01               0
GRID*              12266               0-7.500000000E-012.4572062228E-01+
*       1.1034221961E+00               0
GRID*              12267               0-7.500000000E-013.0667083855E-01+
*       1.1349391854E+00               0
GRID*              12268               0-7.500000000E-013.0979650546E-01+
*       1.0687008703E+00               0
GRID*              12269               0-7.500000000E-013.4521146304E-01+
*       1.0278306485E+00               0
GRID*              12270               0-7.500000000E-013.7839383086E-01+
*       9.5933924178E-01               0
GRID*              12271               0-7.500000000E-013.7587995531E-01+
*       1.3908815569E+00               0
GRID*              12272               0-7.500000000E-013.5613893228E-01+
*       1.4649319350E+00               0
GRID*              12273               0-7.500000000E-014.2461528983E-01+
*       1.4434387018E+00               0
GRID*              12274               0-7.500000000E-013.2518408089E-01+
*       1.3384979855E+00               0
GRID*              12275               0-7.500000000E-012.7792771069E-01+
*       1.2861695610E+00               0
GRID*              12276               0-7.500000000E-012.6014722755E-01+
*       1.3600463655E+00               0
GRID*              12277               0-7.500000000E-013.9366043845E-01+
*       1.3170047524E+00               0
GRID*              12278               0-7.500000000E-014.6297665637E-01+
*       1.2973794915E+00               0
GRID*              12279               0-7.500000000E-014.1228078195E-01+
*       1.2449959201E+00               0
GRID*              12280               0-7.500000000E-012.2774290636E-01+
*       1.2386892261E+00               0
GRID*              12281               0-7.500000000E-011.6984935767E-01+
*       1.2595909861E+00               0
GRID*              12282               0-7.500000000E-014.2617186079E-01+
*       1.1627942594E+00               0
GRID*              12283               0-7.500000000E-013.5685564288E-01+
*       1.1824195203E+00               0
GRID*              12284               0-7.500000000E-015.0279973801E-01+
*       1.1552547063E+00               0
GRID*              12285               0-7.500000000E-012.9277975970E-01+
*       1.2171408461E+00               0
GRID*              12286               0-7.500000000E-018.2668947572E-01+
*       1.1849781361E+00               0
GRID*              12287               0-7.500000000E-017.8932461252E-01+
*       1.2496963818E+00               0
GRID*              12288               0-7.500000000E-017.7863130897E-01+
*       1.1229212208E+00               0
GRID*              12289               0-7.500000000E-017.0813171813E-01+
*       1.1284992150E+00               0
GRID*              12290               0-7.500000000E-015.7141724022E-01+
*       1.1416381423E+00               0
GRID*              12291               0-7.500000000E-015.5021450207E-01+
*       1.2117540952E+00               0
GRID*              12292               0-7.500000000E-016.4134249999E-01+
*       1.1345316315E+00               0
GRID*              12293               0-7.500000000E-016.8562122242E-01+
*       1.1921051147E+00               0
GRID*              12294               0-7.500000000E-017.2771888770E-01+
*       1.2379680198E+00               0
GRID*              12295               0-7.500000000E-016.6092966957E-01+
*       1.2440004363E+00               0
GRID*              12296               0-7.500000000E-017.6463305967E-01+
*       1.3015917034E+00               0
GRID*              12297               0-7.500000000E-017.1803952081E-01+
*       1.3600179578E+00               0
GRID*              12298               0-7.500000000E-016.0227160588E-01+
*       1.2633798046E+00               0
GRID*              12299               0-7.500000000E-016.4436927116E-01+
*       1.3092427098E+00               0
GRID*              12300               0-7.500000000E-015.3365410367E-01+
*       1.2769963686E+00               0
GRID*              12301               0-7.500000000E-015.1503376018E-01+
*       1.3490052009E+00               0
GRID*              12302               0-7.500000000E-014.7456732674E-01+
*       1.4909834361E+00               0
GRID*              12303               0-7.500000000E-014.9430834978E-01+
*       1.4169330581E+00               0
GRID*              12304               0-7.500000000E-015.2213007218E-01+
*       1.5402513948E+00               0
GRID*              12305               0-7.500000000E-015.8387493645E-01+
*       1.4981544347E+00               0
GRID*              12306               0-7.500000000E-014.5243701224E-01+
*       1.5667570386E+00               0
GRID*              12307               0-7.500000000E-015.6498579708E-01+
*       1.3965499352E+00               0
GRID*              12308               0-7.500000000E-016.3865604672E-01+
*       1.4473251833E+00               0
GRID*              12309               0-7.500000000E-016.5938145712E-01+
*       1.3793973261E+00               0
GRID*              12310               0-7.500000000E-019.3928111279E-01+
*       6.2917704731E-01               0
GRID*              12311               0-7.500000000E-019.3928111279E-01+
*       7.0417704731E-01               0
GRID*              12312               0-7.500000000E-019.4193857488E-01+
*       5.6048736986E-01               0
GRID*              12313               0-7.500000000E-019.4193857488E-01+
*       4.8548736986E-01               0
GRID*              12314               0-7.500000000E-018.8121968767E-01+
*       5.8966441716E-01               0
GRID*              12315               0-7.500000000E-018.2503234700E-01+
*       5.4586747881E-01               0
GRID*              12316               0-7.500000000E-018.2237488491E-01+
*       6.1455715626E-01               0
GRID*              12317               0-7.500000000E-014.0085870561E-01+
*       9.1014650073E-01               0
GRID*              12318               0-7.500000000E-014.2752645855E-01+
*       7.9326803895E-01               0
GRID*              12319               0-7.500000000E-014.7860324658E-01+
*       7.6851095023E-01               0
GRID*              12320               0-7.500000000E-014.3107678326E-01+
*       7.2524291127E-01               0
GRID*              12321               0-7.500000000E-014.1982943785E-01+
*       8.4679701658E-01               0
GRID*              12322               0-7.500000000E-015.5302408675E-01+
*       7.4982449634E-01               0
GRID*              12323               0-7.500000000E-016.1858006870E-01+
*       7.0463166209E-01               0
GRID*              12324               0-7.500000000E-015.4770955324E-01+
*       6.5529298830E-01               0
GRID*              12325               0-7.500000000E-015.4947376204E-01+
*       8.1784962402E-01               0
GRID*              12326               0-7.500000000E-017.6015011658E-01+
*       6.4162716551E-01               0
GRID*              12327               0-7.500000000E-018.1633745725E-01+
*       6.8542410386E-01               0
GRID*              12328               0-7.500000000E-016.8368911206E-01+
*       6.6129713359E-01               0
GRID*              12329               0-7.500000000E-016.8900364556E-01+
*       7.5582864162E-01               0
GRID*              12330               0-7.500000000E-016.8972653972E-01+
*       5.9043018599E-01               0
GRID*              12331               0-7.500000000E-014.5608218962E-01+
*       8.9988556205E-01               0
GRID*              12332               0-7.500000000E-015.2322488634E-01+
*       8.9359929919E-01               0
GRID*              12333               0-7.500000000E-015.9764572652E-01+
*       8.7491284530E-01               0
GRID*              12334               0-7.500000000E-016.6797408460E-01+
*       8.7107807364E-01               0
GRID*              12335               0-7.500000000E-019.3583685058E-01+
*       7.7377288756E-01               0
GRID*              12336               0-7.500000000E-018.7511796337E-01+
*       7.2794993487E-01               0
GRID*              12337               0-7.500000000E-019.3025211764E-01+
*       8.4829399516E-01               0
GRID*              12338               0-7.500000000E-018.5982147723E-01+
*       8.6363218108E-01               0
GRID*              12339               0-7.500000000E-018.1289319504E-01+
*       7.5501994412E-01               0
GRID*              12340               0-7.500000000E-017.3786153034E-01+
*       8.8993547708E-01               0
GRID*              12341               0-7.500000000E-016.9378204794E-01+
*       8.1802057356E-01               0
GRID*              12342               0-7.500000000E-017.5889109130E-01+
*       7.7468604505E-01               0
GRID*              12343               0-7.500000000E-018.0581937348E-01+
*       8.8329828201E-01               0
GRID*              12344               0-7.500000000E-018.1767159742E-01+
*       8.1721187606E-01               0
GRID*              12345               0-7.500000000E-018.1127280512E-01+
*       1.7582904621E-01               0
GRID*              12346               0-7.500000000E-017.7663073340E-01+
*       2.3645087243E-01               0
GRID*              12347               0-7.500000000E-018.6950817834E-01+
*       5.0121401568E-02               0
GRID*              12348               0-7.500000000E-018.3026916665E-01+
*       1.0816109177E-01               0
GRID*              12349               0-7.500000000E-019.4643125526E-01+
*       5.0121401568E-02               0
GRID*              12350               0-7.500000000E-019.4643125526E-01+
*       1.2512140157E-01               0
GRID*              12351               0-7.500000000E-018.7386614899E-01+
*       1.6791075758E-01               0
GRID*              12352               0-7.500000000E-019.2743489373E-01+
*       1.9278935601E-01               0
GRID*              12353               0-7.500000000E-019.2743489373E-01+
*       2.6778935601E-01               0
GRID*              12354               0-7.500000000E-019.3966083439E-01+
*       4.1898529860E-01               0
GRID*              12355               0-7.500000000E-018.8159940927E-01+
*       4.5447266845E-01               0
GRID*              12356               0-7.500000000E-019.3966083439E-01+
*       3.4398529860E-01               0
GRID*              12357               0-7.500000000E-018.6709572813E-01+
*       3.1177465460E-01               0
GRID*              12358               0-7.500000000E-017.2572888224E-01+
*       2.9698418719E-01               0
GRID*              12359               0-7.500000000E-016.8798556613E-01+
*       3.5213307771E-01               0
GRID*              12360               0-7.500000000E-018.0396793631E-01+
*       2.9611202677E-01               0
GRID*              12361               0-7.500000000E-018.1619387697E-01+
*       3.7230796936E-01               0
GRID*              12362               0-7.500000000E-018.3578403437E-01+
*       4.2419421044E-01               0
GRID*              12363               0-7.500000000E-017.7265624255E-01+
*       4.0853158261E-01               0
GRID*              12364               0-7.500000000E-018.3806177486E-01+
*       4.9069628170E-01               0
GRID*              12365               0-7.500000000E-017.7921697210E-01+
*       5.1558902080E-01               0
GRID*              12366               0-7.500000000E-016.5262312487E-01+
*       4.0696163269E-01               0
GRID*              12367               0-7.500000000E-016.1168555880E-01+
*       4.6257574468E-01               0
GRID*              12368               0-7.500000000E-017.1770364389E-01+
*       4.1147389651E-01               0
GRID*              12369               0-7.500000000E-017.3729380129E-01+
*       4.6336013758E-01               0
GRID*              12370               0-7.500000000E-014.2337976234E-01+
*       6.7171393374E-01               0
GRID*              12371               0-7.500000000E-017.2426437344E-01+
*       5.1853133469E-01               0
GRID*              12372               0-7.500000000E-016.4780336892E-01+
*       5.3820130277E-01               0
GRID*              12373               0-7.500000000E-014.6628822129E-01+
*       6.3333961817E-01               0
GRID*              12374               0-7.500000000E-015.3184420324E-01+
*       5.8814678393E-01               0
GRID*              12375               0-7.500000000E-015.7714772508E-01+
*       5.3447459597E-01               0
GRID*              12376               0-7.500000000E-01-4.258785614E-01+
*       6.9307738945E-02               0
GRID*              12377               0-7.500000000E-01-5.028016383E-01+
*       6.9307738945E-02               0
GRID*              12378               0-7.500000000E-01-3.796945316E-01+
*       1.5462544860E-01               0
GRID*              12379               0-7.500000000E-01-4.402902995E-01+
*       2.1233475031E-01               0
GRID*              12380               0-7.500000000E-01-3.528430930E-01+
*       2.2834472103E-01               0
GRID*              12381               0-7.500000000E-01-3.384313548E-01+
*       8.5317709658E-02               0
GRID*              12382               0-7.500000000E-01-2.615082779E-01+
*       8.5317709658E-02               0
GRID*              12383               0-7.500000000E-01-1.783504036E-01+
*       7.1697765580E-02               0
GRID*              12384               0-7.500000000E-01-1.014273267E-01+
*       7.1697765580E-02               0
GRID*              12385               0-7.500000000E-01-3.428545957E-01+
*       3.1367133036E-01               0
GRID*              12386               0-7.500000000E-01-3.930920042E-01+
*       3.5658928940E-01               0
GRID*              12387               0-7.500000000E-01-3.225077389E-01+
*       3.8420659703E-01               0
GRID*              12388               0-7.500000000E-01-2.090894507E-01+
*       1.5701547524E-01               0
GRID*              12389               0-7.500000000E-01-2.225306492E-01+
*       2.2767105143E-01               0
GRID*              12390               0-7.500000000E-01-1.393727749E-01+
*       2.1405110735E-01               0
GRID*              12391               0-7.500000000E-01-2.822588277E-01+
*       2.5596202865E-01               0
GRID*              12392               0-7.500000000E-01-2.125421519E-01+
*       3.1299766076E-01               0
GRID*              12393               0-7.500000000E-01-3.019143984E-02+
*       6.8515251465E-02               0
GRID*              12394               0-7.500000000E-01-3.107957146E-01+
*       4.4497034916E-01               0
GRID*              12395               0-7.500000000E-01-2.605583061E-01+
*       4.0205239012E-01               0
GRID*              12396               0-7.500000000E-01-3.462106829E-01+
*       4.8584056196E-01               0
GRID*              12397               0-7.500000000E-01-5.469568957E-02+
*       1.4021301704E-01               0
GRID*              12398               0-7.500000000E-01-7.647441872E-02+
*       2.0390714399E-01               0
GRID*              12399               0-7.500000000E-01-2.150639009E-01+
*       3.7281447311E-01               0
GRID*              12400               0-7.500000000E-01-1.553357224E-01+
*       3.4452349589E-01               0
GRID*              12401               0-7.500000000E-01-8.991561720E-02+
*       2.7456272018E-01               0
GRID*              12402               0-7.500000000E-01-1.034467611E-01+
*       3.2928773349E-01               0
GRID*              12403               0-7.500000000E-01-4.313239530E-01+
*       7.8907324304E-01               0
GRID*              12404               0-7.500000000E-01-4.236269307E-01+
*       8.4260222043E-01               0
GRID*              12405               0-7.500000000E-01-4.333103892E-01+
*       7.2287450167E-01               0
GRID*              12406               0-7.500000000E-01-4.846343469E-01+
*       7.6194773322E-01               0
GRID*              12407               0-7.500000000E-01-5.478693072E-01+
*       7.3537262979E-01               0
GRID*              12408               0-7.500000000E-01-5.504089106E-01+
*       6.6322896534E-01               0
GRID*              12409               0-7.500000000E-01-6.116574347E-01+
*       7.0285260328E-01               0
GRID*              12410               0-7.500000000E-01-5.458828710E-01+
*       8.0157137116E-01               0
GRID*              12411               0-7.500000000E-01-6.768307760E-01+
*       6.7369110866E-01               0
GRID*              12412               0-7.500000000E-01-6.742911726E-01+
*       7.4583477310E-01               0
GRID*              12413               0-7.500000000E-01-6.807352796E-01+
*       6.0043003484E-01               0
GRID*              12414               0-7.500000000E-01-7.433690175E-01+
*       6.4341220466E-01               0
GRID*              12415               0-7.500000000E-01-9.375319229E-01+
*       5.5545167044E-01               0
GRID*              12416               0-7.500000000E-01-9.375319229E-01+
*       4.8045167044E-01               0
GRID*              12417               0-7.500000000E-01-8.729695892E-01+
*       5.8471811176E-01               0
GRID*              12418               0-7.500000000E-01-9.354376663E-01+
*       6.2926644132E-01               0
GRID*              12419               0-7.500000000E-01-8.090744268E-01+
*       6.1434200675E-01               0
GRID*              12420               0-7.500000000E-01-8.051699232E-01+
*       6.8760308056E-01               0
GRID*              12421               0-7.500000000E-01-8.111686834E-01+
*       5.4052723587E-01               0
GRID*              12422               0-7.500000000E-01-6.200793677E-01+
*       5.5656314545E-01               0
GRID*              12423               0-7.500000000E-01-6.866176091E-01+
*       5.2628424146E-01               0
GRID*              12424               0-7.500000000E-01-5.425226134E-01+
*       5.8761508081E-01               0
GRID*              12425               0-7.500000000E-01-4.787344858E-01+
*       6.2013510732E-01               0
GRID*              12426               0-7.500000000E-01-5.484049429E-01+
*       5.1346928742E-01               0
GRID*              12427               0-7.500000000E-01-4.927833703E-01+
*       4.6595648923E-01               0
GRID*              12428               0-7.500000000E-01-5.703401246E-01+
*       4.3490455387E-01               0
GRID*              12429               0-7.500000000E-01-4.437318498E-01+
*       4.0725815588E-01               0
GRID*              12430               0-7.500000000E-01-4.640787065E-01+
*       3.3672288921E-01               0
GRID*              12431               0-7.500000000E-01-4.217966680E-01+
*       4.8582288942E-01               0
GRID*              12432               0-7.500000000E-01-4.256133698E-01+
*       6.6934552390E-01               0
GRID*              12433               0-7.500000000E-01-4.177270726E-01+
*       5.9373163936E-01               0
GRID*              12434               0-7.500000000E-01-3.952622035E-01+
*       5.4453889532E-01               0
GRID*              12435               0-7.500000000E-01-9.352506856E-01+
*       2.5537648787E-01               0
GRID*              12436               0-7.500000000E-01-9.382087207E-01+
*       3.3187438837E-01               0
GRID*              12437               0-7.500000000E-01-8.734594063E-01+
*       2.8725087624E-01               0
GRID*              12438               0-7.500000000E-01-9.352506856E-01+
*       1.8037648787E-01               0
GRID*              12439               0-7.500000000E-01-9.382087207E-01+
*       4.0687438837E-01               0
GRID*              12440               0-7.500000000E-01-8.757406436E-01+
*       4.3732605881E-01               0
GRID*              12441               0-7.500000000E-01-7.509634919E-01+
*       4.9789914400E-01               0
GRID*              12442               0-7.500000000E-01-6.903075800E-01+
*       4.5403225460E-01               0
GRID*              12443               0-7.500000000E-01-8.148586543E-01+
*       4.6827524902E-01               0
GRID*              12444               0-7.500000000E-01-8.155354521E-01+
*       3.9469796694E-01               0
GRID*              12445               0-7.500000000E-01-8.174846147E-01+
*       3.2468391349E-01               0
GRID*              12446               0-7.500000000E-01-8.145265796E-01+
*       2.4818601299E-01               0
GRID*              12447               0-7.500000000E-01-7.566026254E-01+
*       3.5563310369E-01               0
GRID*              12448               0-7.500000000E-01-6.358490794E-01+
*       4.1241097463E-01               0
GRID*              12449               0-7.500000000E-01-5.802275068E-01+
*       3.6489817644E-01               0
GRID*              12450               0-7.500000000E-01-7.001949622E-01+
*       3.8402587717E-01               0
GRID*              12451               0-7.500000000E-01-7.021441248E-01+
*       3.1401182372E-01               0
GRID*              12452               0-7.500000000E-01-5.335988208E-01+
*       3.1964514791E-01               0
GRID*              12453               0-7.500000000E-01-5.991077756E-01+
*       2.9715156867E-01               0
GRID*              12454               0-7.500000000E-01-4.829589753E-01+
*       2.6897628144E-01               0
GRID*              12455               0-7.500000000E-01-5.098104138E-01+
*       1.9525700902E-01               0
GRID*              12456               0-7.500000000E-01-5.735906687E-01+
*       6.3853698295E-02               0
GRID*              12457               0-7.500000000E-01-6.505137456E-01+
*       6.3853698295E-02               0
GRID*              12458               0-7.500000000E-01-5.379307685E-01+
*       1.3316143724E-01               0
GRID*              12459               0-7.500000000E-01-5.805994442E-01+
*       1.8980296837E-01               0
GRID*              12460               0-7.500000000E-01-6.533141840E-01+
*       2.8641568302E-01               0
GRID*              12461               0-7.500000000E-01-7.097218472E-01+
*       2.5802290954E-01               0
GRID*              12462               0-7.500000000E-01-6.066854980E-01+
*       2.4116265449E-01               0
GRID*              12463               0-7.500000000E-01-6.348058527E-01+
*       1.7906708271E-01               0
GRID*              12464               0-7.500000000E-01-7.154699193E-01+
*       7.1777246228E-02               0
GRID*              12465               0-7.500000000E-01-7.923929962E-01+
*       7.1777246228E-02               0
GRID*              12466               0-7.500000000E-01-6.736759726E-01+
*       1.3563094452E-01               0
GRID*              12467               0-7.500000000E-01-6.997620264E-01+
*       1.8699063065E-01               0
GRID*              12468               0-7.500000000E-01-7.485919671E-01+
*       2.1458677135E-01               0
GRID*              12469               0-7.500000000E-01-8.045667588E-01+
*       1.7715373410E-01               0
GRID*              12470               0-7.500000000E-01-8.583276087E-01+
*       1.0537648787E-01               0
GRID*              12471               0-7.500000000E-01-5.572881573E-01+
*       1.4923474621E+00               0
GRID*              12472               0-7.500000000E-01-4.955432930E-01+
*       1.5344444223E+00               0
GRID*              12473               0-7.500000000E-01-6.175809074E-01+
*       1.4494235654E+00               0
GRID*              12474               0-7.500000000E-01-6.723620176E-01+
*       1.3985943140E+00               0
GRID*              12475               0-7.500000000E-01-5.513795784E-01+
*       1.4099399505E+00               0
GRID*              12476               0-7.500000000E-01-4.884228928E-01+
*       1.3759406437E+00               0
GRID*              12477               0-7.500000000E-01-5.487156429E-01+
*       1.3330167470E+00               0
GRID*              12478               0-7.500000000E-013.1588567621E-01+
*       1.6216807671E+00               0
GRID*              12479               0-7.500000000E-012.4447562371E-01+
*       1.6437077868E+00               0
GRID*              12480               0-7.500000000E-013.8510763510E-01+
*       1.5991813949E+00               0
GRID*              12481               0-7.500000000E-013.3565230791E-01+
*       1.5399884521E+00               0
GRID*              12482               0-7.500000000E-012.8691697339E-01+
*       1.4874313072E+00               0
GRID*              12483               0-7.500000000E-011.7360709227E-01+
*       1.6584444370E+00               0
GRID*              12484               0-7.500000000E-019.9711675700E-02+
*       1.6695822319E+00               0
GRID*              12485               0-7.500000000E-011.9556181759E-01+
*       1.5772244745E+00               0
GRID*              12486               0-7.500000000E-012.1927824889E-01+
*       1.5044881532E+00               0
GRID*              12487               0-7.500000000E-011.4840971745E-01+
*       1.5192248034E+00               0
GRID*              12488               0-7.500000000E-012.3976487325E-01+
*       1.4294316361E+00               0
GRID*              12489               0-7.500000000E-011.9250850305E-01+
*       1.3771032116E+00               0
GRID*              12490               0-7.500000000E-01-4.301195479E-01+
*       1.5713110107E+00               0
GRID*              12491               0-7.500000000E-01-4.256630832E-01+
*       1.4897304358E+00               0
GRID*              12492               0-7.500000000E-01-3.627901707E-01+
*       1.6037353671E+00               0
GRID*              12493               0-7.500000000E-01-4.278203952E-01+
*       1.4138353194E+00               0
GRID*              12494               0-7.500000000E-01-3.623966501E-01+
*       1.4507019079E+00               0
GRID*              12495               0-7.500000000E-01-4.251564597E-01+
*       1.3369121158E+00               0
GRID*              12496               0-7.500000000E-01-3.639336614E-01+
*       1.3026039545E+00               0
GRID*              12497               0-7.500000000E-01-4.245361589E-01+
*       1.2647092788E+00               0
GRID*              12498               0-7.500000000E-013.0753273156E-02+
*       1.1784739276E+00               0
GRID*              12499               0-7.500000000E-016.7117426515E-02+
*       1.2211403229E+00               0
GRID*              12500               0-7.500000000E-01-3.065752266E-01+
*       1.2656830862E+00               0
GRID*              12501               0-7.500000000E-01-3.071955273E-01+
*       1.3378859232E+00               0
GRID*              12502               0-7.500000000E-01-2.501968164E-01+
*       1.2328199351E+00               0
GRID*              12503               0-7.500000000E-01-1.891931627E-01+
*       1.2671492389E+00               0
GRID*              12504               0-7.500000000E-01-1.895528866E-01+
*       1.1990041191E+00               0
GRID*              12505               0-7.500000000E-01-3.069349505E-01+
*       1.1975379664E+00               0
GRID*              12506               0-7.500000000E-01-2.332627245E-02+
*       1.1784739284E+00               0
GRID*              12507               0-7.500000000E-01-9.131438641E-02+
*       1.1797323324E+00               0
GRID*              12508               0-7.500000000E-01-6.056111894E-02+
*       1.2320750188E+00               0
GRID*              12509               0-7.500000000E-01-1.432033445E-01+
*       1.1644965610E+00               0
GRID*              12510               0-7.500000000E-01-2.042069982E-01+
*       1.1301672573E+00               0
GRID*              12511               0-7.500000000E-01-1.732721876E-02+
*       1.2907096087E+00               0
GRID*              12512               0-7.500000000E-01-8.531533273E-02+
*       1.2919680127E+00               0
GRID*              12513               0-7.500000000E-011.0605839539E-01+
*       1.2731461027E+00               0
GRID*              12514               0-7.500000000E-014.6367963901E-02+
*       1.2828223945E+00               0
GRID*              12515               0-7.500000000E-011.4909989506E-01+
*       1.3212730577E+00               0
GRID*              12516               0-7.500000000E-011.2871754076E-01+
*       1.3906583282E+00               0
GRID*              12517               0-7.500000000E-011.0386361788E-01+
*       1.4563167636E+00               0
GRID*              12518               0-7.500000000E-018.0147186578E-02+
*       1.5290530848E+00               0
GRID*              12519               0-7.500000000E-016.0455009888E-02+
*       1.4004866097E+00               0
GRID*              12520               0-7.500000000E-012.1613750112E-02+
*       1.3427153885E+00               0
GRID*              12521               0-7.500000000E-01-3.240172777E-03+
*       1.4083738238E+00               0
GRID*              12522               0-7.500000000E-015.0875880682E-02+
*       1.5974304318E+00               0
GRID*              12523               0-7.500000000E-016.3297811032E-03+
*       1.5345223920E+00               0
GRID*              12524               0-7.500000000E-012.5894270226E-02+
*       1.6750515391E+00               0
GRID*              12525               0-7.500000000E-01-4.883579502E-02+
*       1.6750515391E+00               0
GRID*              12526               0-7.500000000E-01-3.354935534E-02+
*       1.4669370107E+00               0
GRID*              12527               0-7.500000000E-01-6.282066123E-02+
*       1.5353143578E+00               0
GRID*              12528               0-7.500000000E-01-7.239061511E-02+
*       1.4091657895E+00               0
GRID*              12529               0-7.500000000E-01-1.405349045E-01+
*       1.2963343681E+00               0
GRID*              12530               0-7.500000000E-01-2.011788343E-01+
*       1.3301501842E+00               0
GRID*              12531               0-7.500000000E-01-9.730100431E-02+
*       1.3549689580E+00               0
GRID*              12532               0-7.500000000E-01-1.276101869E-01+
*       1.4135321449E+00               0
GRID*              12533               0-7.500000000E-01-1.103525158E-01+
*       1.5995013326E+00               0
GRID*              12534               0-7.500000000E-01-1.502316522E-01+
*       1.5319159513E+00               0
GRID*              12535               0-7.500000000E-01-1.362467860E-01+
*       1.6716531326E+00               0
GRID*              12536               0-7.500000000E-01-2.101422026E-01+
*       1.6605153377E+00               0
GRID*              12537               0-7.500000000E-01-2.439123131E-01+
*       1.3685573242E+00               0
GRID*              12538               0-7.500000000E-01-1.952540549E-01+
*       1.3977424535E+00               0
GRID*              12539               0-7.500000000E-01-3.012707480E-01+
*       1.4054781925E+00               0
GRID*              12540               0-7.500000000E-01-2.991134360E-01+
*       1.4813733089E+00               0
GRID*              12541               0-7.500000000E-01-1.703436657E-01+
*       1.4519392850E+00               0
GRID*              12542               0-7.500000000E-01-2.178755203E-01+
*       1.5161262598E+00               0
GRID*              12543               0-7.500000000E-01-2.815522551E-01+
*       1.6384883180E+00               0
GRID*              12544               0-7.500000000E-01-2.790014224E-01+
*       1.5613499752E+00               0
GRID*              12545               0-7.500000000E-01-9.314272263E-01+
*       7.7743667186E-01               0
GRID*              12546               0-7.500000000E-01-9.258424933E-01+
*       8.5195777946E-01               0
GRID*              12547               0-7.500000000E-01-9.354376663E-01+
*       7.0426644132E-01               0
GRID*              12548               0-7.500000000E-01-8.668648926E-01+
*       7.3170311318E-01               0
GRID*              12549               0-7.500000000E-01-8.011594832E-01+
*       7.6077331110E-01               0
GRID*              12550               0-7.500000000E-01-9.186901624E-01+
*       9.2166924867E-01               0
GRID*              12551               0-7.500000000E-01-8.557021216E-01+
*       8.7458481293E-01               0
GRID*              12552               0-7.500000000E-01-9.020610475E-01+
*       9.9452564944E-01               0
GRID*              12553               0-7.500000000E-01-7.968872937E-01+
*       8.3219777015E-01               0
GRID*              12554               0-7.500000000E-01-7.897349628E-01+
*       9.0190923936E-01               0
GRID*              12555               0-7.500000000E-01-7.351923243E-01+
*       7.8809773753E-01               0
GRID*              12556               0-7.500000000E-01-6.700189830E-01+
*       8.1725923215E-01               0
GRID*              12557               0-7.500000000E-01-4.814983544E-01+
*       1.2230915427E+00               0
GRID*              12558               0-7.500000000E-01-4.202755561E-01+
*       1.1887833814E+00               0
GRID*              12559               0-7.500000000E-01-5.458165835E-01+
*       1.2566051882E+00               0
GRID*              12560               0-7.500000000E-01-6.087732692E-01+
*       1.2906044951E+00               0
GRID*              12561               0-7.500000000E-01-5.415559807E-01+
*       1.1806792909E+00               0
GRID*              12562               0-7.500000000E-01-5.386066648E-01+
*       1.1062904157E+00               0
GRID*              12563               0-7.500000000E-01-6.029248940E-01+
*       1.1398040612E+00               0
GRID*              12564               0-7.500000000E-01-6.709330710E-01+
*       1.3204687603E+00               0
GRID*              12565               0-7.500000000E-01-6.680340117E-01+
*       1.2440572016E+00               0
GRID*              12566               0-7.500000000E-01-7.316227601E-01+
*       1.3520470205E+00               0
GRID*              12567               0-7.500000000E-01-7.782162990E-01+
*       1.2936207661E+00               0
GRID*              12568               0-7.500000000E-01-6.650381235E-01+
*       1.0986039723E+00               0
GRID*              12569               0-7.500000000E-01-6.620599043E-01+
*       1.0310043821E+00               0
GRID*              12570               0-7.500000000E-01-7.271224497E-01+
*       1.0641931684E+00               0
GRID*              12571               0-7.500000000E-01-6.679874394E-01+
*       1.1729928474E+00               0
GRID*              12572               0-7.500000000E-01-7.301472412E-01+
*       1.2028571127E+00               0
GRID*              12573               0-7.500000000E-01-7.776967381E-01+
*       1.0276910472E+00               0
GRID*              12574               0-7.500000000E-01-7.806749573E-01+
*       1.0952906373E+00               0
GRID*              12575               0-7.500000000E-01-8.398995182E-01+
*       1.0015423992E+00               0
GRID*              12576               0-7.500000000E-01-8.934107750E-01+
*       1.0517717665E+00               0
GRID*              12577               0-7.500000000E-01-7.863470106E-01+
*       9.7044493017E-01               0
GRID*              12578               0-7.500000000E-01-8.661088783E-01+
*       1.1213360450E+00               0
GRID*              12579               0-7.500000000E-01-8.155811622E-01+
*       1.2289025204E+00               0
GRID*              12580               0-7.500000000E-01-8.155345899E-01+
*       1.1578381662E+00               0
GRID*              12581               0-7.500000000E-01-6.050753637E-01+
*       8.4602934467E-01               0
GRID*              12582               0-7.500000000E-01-5.418404035E-01+
*       8.7260444811E-01               0
GRID*              12583               0-7.500000000E-01-6.659765155E-01+
*       8.8829230910E-01               0
GRID*              12584               0-7.500000000E-01-7.275321827E-01+
*       9.2805788739E-01               0
GRID*              12585               0-7.500000000E-01-6.625885633E-01+
*       9.5682799992E-01               0
GRID*              12586               0-7.500000000E-01-3.576386684E-01+
*       1.1580583697E+00               0
GRID*              12587               0-7.500000000E-01-4.146008638E-01+
*       1.1164406337E+00               0
GRID*              12588               0-7.500000000E-01-3.012602582E-01+
*       1.1251952187E+00               0
GRID*              12589               0-7.500000000E-01-2.497014105E-01+
*       1.1009293519E+00               0
GRID*              12590               0-7.500000000E-01-3.004051283E-01+
*       1.0614497552E+00               0
GRID*              12591               0-7.500000000E-01-4.669035701E-01+
*       1.0631022087E+00               0
GRID*              12592               0-7.500000000E-01-4.042666823E-01+
*       1.0323771970E+00               0
GRID*              12593               0-7.500000000E-01-5.282724834E-01+
*       1.0222269790E+00               0
GRID*              12594               0-7.500000000E-01-6.005042371E-01+
*       9.9123880385E-01               0
GRID*              12595               0-7.500000000E-01-5.288011424E-01+
*       9.4805059681E-01               0
GRID*              12596               0-7.500000000E-01-3.358200871E-01+
*       1.0205795345E+00               0
GRID*              12597               0-7.500000000E-01-3.881227934E-01+
*       9.6724110951E-01               0
GRID*              12598               0-7.500000000E-01-4.696086497E-01+
*       9.0359262330E-01               0
GRID*              12599               0-7.500000000E-01-4.105876696E-01+
*       9.1804836914E-01               0
GRID*              12600               0-7.500000000E-01-9.352506856E-01+
*       1.0537648787E-01               0
GRID*              12601               0-6.250016342E-013.6460406771E-01+
*       8.5706411527E-01               0
GRID*              12602               0-6.249995242E-013.1967706835E-01+
*       9.5544181259E-01               0
GRID*              12603               0-6.250029233E-012.4883738044E-01+
*       1.0371911731E+00               0
GRID*              12604               0-6.249984614E-011.5786277666E-01+
*       1.0956568483E+00               0
GRID*              12605               0-6.250025899E-015.4069421491E-02+
*       1.1261322250E+00               0
GRID*              12606               0-6.249974101E-01-5.406941012E-02+
*       1.1261322266E+00               0
GRID*              12607               0-6.250015386E-01-1.578627662E-01+
*       1.0956568531E+00               0
GRID*              12608               0-6.249970767E-01-2.488373718E-01+
*       1.0371911806E+00               0
GRID*              12609               0-6.250004758E-01-3.196770621E-01+
*       9.5544182225E-01               0
GRID*              12610               0-6.249983658E-01-3.646040645E-01+
*       8.5706412627E-01               0
GRID*              12611               0-6.250000000E-01-3.799999952E-01+
*       7.5000001148E-01               0
GRID*              12612               0-6.250016342E-01-3.646040709E-01+
*       6.4293589573E-01               0
GRID*              12613               0-6.249995242E-01-3.196770808E-01+
*       5.4455819360E-01               0
GRID*              12614               0-6.250029233E-01-2.488373747E-01+
*       4.6280884709E-01               0
GRID*              12615               0-6.249984614E-01-1.578627800E-01+
*       4.0434315591E-01               0
GRID*              12616               0-6.250025899E-01-5.406941768E-02+
*       3.7386779642E-01               0
GRID*              12617               0-6.249974101E-015.4069406312E-02+
*       3.7386779479E-01               0
GRID*              12618               0-6.250015386E-011.5786276951E-01+
*       4.0434315113E-01               0
GRID*              12619               0-6.249970767E-012.4883736600E-01+
*       4.6280883957E-01               0
GRID*              12620               0-6.250004758E-013.1967707460E-01+
*       5.4455818394E-01               0
GRID*              12621               0-6.249983658E-013.6460406771E-01+
*       6.4293588473E-01               0
GRID*              12622               0-6.875006821E-013.7613095734E-01+
*       8.0408227885E-01               0
GRID*              12623               0-6.249974101E-013.7613222217E-01+
*       8.0406941530E-01               0
GRID*              12624               0-6.875021941E-013.6460342592E-01+
*       8.5706623046E-01               0
GRID*              12625               0-5.624989087E-013.7613164279E-01+
*       8.0407530767E-01               0
GRID*              12626               0-5.624975595E-013.6460874113E-01+
*       8.5704871280E-01               0
GRID*              12627               0-5.625012022E-013.4565747903E-01+
*       9.0786159935E-01               0
GRID*              12628               0-6.250015386E-013.4565685285E-01+
*       9.0786277099E-01               0
GRID*              12629               0-5.624998495E-013.1967646253E-01+
*       9.5544294611E-01               0
GRID*              12630               0-5.624983157E-012.8718805974E-01+
*       9.9884115858E-01               0
GRID*              12631               0-6.249970767E-012.8719116504E-01+
*       9.9883737434E-01               0
GRID*              12632               0-5.624978675E-012.4885281823E-01+
*       1.0371785013E+00               0
GRID*              12633               0-5.625006849E-012.0544110067E-01+
*       1.0696774751E+00               0
GRID*              12634               0-6.250004758E-012.0544182932E-01+
*       1.0696770859E+00               0
GRID*              12635               0-5.624994551E-011.5785931379E-01+
*       1.0956586979E+00               0
GRID*              12636               0-5.624978059E-011.0706623427E-01+
*       1.1146034259E+00               0
GRID*              12637               0-6.249983658E-011.0706411916E-01+
*       1.1146040679E+00               0
GRID*              12638               0-5.624993179E-015.4082285101E-02+
*       1.1261309605E+00               0
GRID*              12639               0-5.625000000E-015.7405416964E-09+
*       1.1299999952E+00               0
GRID*              12640               0-6.250000000E-015.7402283982E-09+
*       1.1299999952E+00               0
GRID*              12641               0-5.624989087E-01-5.407530252E-02+
*       1.1261316474E+00               0
GRID*              12642               0-5.624975595E-01-1.070487061E-01+
*       1.1146087461E+00               0
GRID*              12643               0-6.250016342E-01-1.070641082E-01+
*       1.1146040711E+00               0
GRID*              12644               0-5.625012022E-01-1.578615944E-01+
*       1.0956574790E+00               0
GRID*              12645               0-5.624998495E-01-2.054429533E-01+
*       1.0696764866E+00               0
GRID*              12646               0-5.624983157E-01-2.488411556E-01+
*       1.0371880747E+00               0
GRID*              12647               0-6.249995242E-01-2.054418197E-01+
*       1.0696770921E+00               0
GRID*              12648               0-5.624978675E-01-2.871784879E-01+
*       9.9885282264E-01               0
GRID*              12649               0-5.625006849E-01-3.196774515E-01+
*       9.5544109369E-01               0
GRID*              12650               0-6.250029233E-01-2.871911575E-01+
*       9.9883738302E-01               0
GRID*              12651               0-5.624994551E-01-3.456586986E-01+
*       9.0785931903E-01               0
GRID*              12652               0-5.624978059E-01-3.646034227E-01+
*       8.5706624147E-01               0
GRID*              12653               0-6.249984614E-01-3.456568481E-01+
*       9.0786278144E-01               0
GRID*              12654               0-5.624993179E-01-3.761309557E-01+
*       8.0408229019E-01               0
GRID*              12655               0-5.625000000E-01-3.799999952E-01+
*       7.5000001148E-01               0
GRID*              12656               0-6.250025899E-01-3.761322205E-01+
*       8.0406942667E-01               0
GRID*              12657               0-5.624989087E-01-3.761316444E-01+
*       6.9592470369E-01               0
GRID*              12658               0-5.624975595E-01-3.646087444E-01+
*       6.4295129821E-01               0
GRID*              12659               0-6.249974101E-01-3.761322238E-01+
*       6.9593059607E-01               0
GRID*              12660               0-5.625012022E-01-3.456574842E-01+
*       5.9213841082E-01               0
GRID*              12661               0-5.624998495E-01-3.196764750E-01+
*       5.4455706004E-01               0
GRID*              12662               0-6.250015386E-01-3.456568580E-01+
*       5.9213723919E-01               0
GRID*              12663               0-5.624983157E-01-2.871880630E-01+
*       5.0115885865E-01               0
GRID*              12664               0-5.624978675E-01-2.488528115E-01+
*       4.6282152000E-01               0
GRID*              12665               0-6.249970767E-01-2.871911692E-01+
*       5.0116264208E-01               0
GRID*              12666               0-5.625006849E-01-2.054410975E-01+
*       4.3032254205E-01               0
GRID*              12667               0-5.624994551E-01-1.578593174E-01+
*       4.0434130577E-01               0
GRID*              12668               0-6.250004758E-01-2.054418261E-01+
*       4.3032293136E-01               0
GRID*              12669               0-5.624978059E-01-1.070662375E-01+
*       3.8539659022E-01               0
GRID*              12670               0-5.624993179E-01-5.408228101E-02+
*       3.7386906388E-01               0
GRID*              12671               0-6.249983658E-01-1.070641222E-01+
*       3.8539594868E-01               0
GRID*              12672               0-5.625000000E-01-5.739959796E-09+
*       3.7000000477E-01               0
GRID*              12673               0-5.624989087E-015.4075298575E-02+
*       3.7386837537E-01               0
GRID*              12674               0-6.250000000E-01-5.740294668E-09+
*       3.7000000477E-01               0
GRID*              12675               0-5.624975595E-011.0704870821E-01+
*       3.8539127385E-01               0
GRID*              12676               0-5.625012022E-011.5786159780E-01+
*       4.0434252507E-01               0
GRID*              12677               0-6.250016342E-011.0706411124E-01+
*       3.8539594545E-01               0
GRID*              12678               0-5.624998495E-012.0544295003E-01+
*       4.3032353085E-01               0
GRID*              12679               0-5.624983157E-012.4884114957E-01+
*       4.6281194569E-01               0
GRID*              12680               0-6.249995242E-012.0544181643E-01+
*       4.3032292515E-01               0
GRID*              12681               0-5.624978675E-012.8717848820E-01+
*       5.0114719705E-01               0
GRID*              12682               0-5.625006849E-013.1967746397E-01+
*       5.4455891250E-01               0
GRID*              12683               0-6.250029233E-012.8719116173E-01+
*       5.0116263341E-01               0
GRID*              12684               0-5.624994551E-013.4565870368E-01+
*       5.9214069117E-01               0
GRID*              12685               0-5.624978059E-013.6460342592E-01+
*       6.4293376954E-01               0
GRID*              12686               0-6.249984614E-013.4565685323E-01+
*       5.9213722874E-01               0
GRID*              12687               0-5.624993179E-013.7613095734E-01+
*       6.9591772115E-01               0
GRID*              12688               0-6.250025899E-013.7613222217E-01+
*       6.9593058470E-01               0
GRID*              12689               0-6.875024405E-013.6460874113E-01+
*       6.4295128720E-01               0
GRID*              12690               0-6.875010913E-013.7613164279E-01+
*       6.9592469233E-01               0
GRID*              12691               0-6.875001505E-013.1967646878E-01+
*       5.4455705038E-01               0
GRID*              12692               0-6.874987978E-013.4565747939E-01+
*       5.9213840038E-01               0
GRID*              12693               0-6.875021325E-012.4885280288E-01+
*       4.6282151248E-01               0
GRID*              12694               0-6.875016843E-012.8718805546E-01+
*       5.0115884998E-01               0
GRID*              12695               0-6.875005449E-011.5785930691E-01+
*       4.0434130100E-01               0
GRID*              12696               0-6.874993151E-012.0544108784E-01+
*       4.3032253584E-01               0
GRID*              12697               0-6.875006821E-015.4082269662E-02+
*       3.7386906225E-01               0
GRID*              12698               0-6.875021941E-011.0706622648E-01+
*       3.8539658698E-01               0
GRID*              12699               0-6.875010913E-01-5.407530994E-02+
*       3.7386837700E-01               0
GRID*              12700               0-6.875000000E-01-5.740630002E-09+
*       3.7000000477E-01               0
GRID*              12701               0-6.874987978E-01-1.578616082E-01+
*       4.0434252984E-01               0
GRID*              12702               0-6.875024405E-01-1.070487192E-01+
*       3.8539127708E-01               0
GRID*              12703               0-6.875016843E-01-2.488411582E-01+
*       4.6281195321E-01               0
GRID*              12704               0-6.875001505E-01-2.054429597E-01+
*       4.3032353705E-01               0
GRID*              12705               0-6.874993151E-01-3.196774702E-01+
*       5.4455892216E-01               0
GRID*              12706               0-6.875021325E-01-2.871784957E-01+
*       5.0114720572E-01               0
GRID*              12707               0-6.875021941E-01-3.646034292E-01+
*       6.4293378056E-01               0
GRID*              12708               0-6.875005449E-01-3.456587085E-01+
*       5.9214070161E-01               0
GRID*              12709               0-6.875000000E-01-3.799999952E-01+
*       7.5000001148E-01               0
GRID*              12710               0-6.875006821E-01-3.761309590E-01+
*       6.9591773250E-01               0
GRID*              12711               0-6.875024405E-01-3.646087379E-01+
*       8.5704872382E-01               0
GRID*              12712               0-6.875010913E-01-3.761316412E-01+
*       8.0407531904E-01               0
GRID*              12713               0-6.875001505E-01-3.196764563E-01+
*       9.5544295577E-01               0
GRID*              12714               0-6.874987978E-01-3.456574743E-01+
*       9.0786160979E-01               0
GRID*              12715               0-6.875021325E-01-2.488528096E-01+
*       1.0371785088E+00               0
GRID*              12716               0-6.875016843E-01-2.871880522E-01+
*       9.9884116726E-01               0
GRID*              12717               0-6.875005449E-01-1.578593033E-01+
*       1.0956587027E+00               0
GRID*              12718               0-6.874993151E-01-2.054410910E-01+
*       1.0696774813E+00               0
GRID*              12719               0-6.875006821E-01-5.408227375E-02+
*       1.1261309621E+00               0
GRID*              12720               0-6.875021941E-01-1.070662233E-01+
*       1.1146034291E+00               0
GRID*              12721               0-6.875010913E-015.4075313884E-02+
*       1.1261316458E+00               0
GRID*              12722               0-6.875000000E-015.7405964280E-09+
*       1.1299999952E+00               0
GRID*              12723               0-6.874987978E-011.5786160485E-01+
*       1.0956574742E+00               0
GRID*              12724               0-6.875024405E-011.0704871716E-01+
*       1.1146087429E+00               0
GRID*              12725               0-6.875016843E-012.4884116424E-01+
*       1.0371880672E+00               0
GRID*              12726               0-6.875001505E-012.0544296299E-01+
*       1.0696764804E+00               0
GRID*              12727               0-6.874993151E-013.1967745773E-01+
*       9.5544108403E-01               0
GRID*              12728               0-6.875021325E-012.8717849546E-01+
*       9.9885281397E-01               0
GRID*              12729               0-6.875005449E-013.4565870335E-01+
*       9.0785930859E-01               0
GRID*              12730               0-6.249992602E-012.9475715353E-01+
*       1.7055716001E+00               0
GRID*              12731               0-6.250003996E-019.3087320484E-01+
*       1.1153420964E+00               0
GRID*              12732               0-6.249996288E-019.7352648911E-01+
*       9.7857383045E-01               0
GRID*              12733               0-6.249981799E-019.9588914849E-01+
*       8.4057497675E-01               0
GRID*              12734               0-6.250022720E-018.6602145131E-01+
*       1.2500056679E+00               0
GRID*              12735               0-6.249982754E-017.8183429362E-01+
*       1.3734853479E+00               0
GRID*              12736               0-6.249987265E-016.8017532518E-01+
*       1.4830490078E+00               0
GRID*              12737               0-6.250001097E-015.6331976852E-01+
*       1.5762389239E+00               0
GRID*              12738               0-6.250020848E-014.3387780685E-01+
*       1.6509711040E+00               0
GRID*              12739               0-6.250017246E-01-7.818342936E-01+
*       1.3734853479E+00               0
GRID*              12740               0-6.250003712E-01-9.735264891E-01+
*       9.7857383045E-01               0
GRID*              12741               0-6.250018201E-01-9.958891485E-01+
*       8.4057497675E-01               0
GRID*              12742               0-6.249995326E-01-9.304884282E-01+
*       1.1163209191E+00               0
GRID*              12743               0-6.249977260E-01-8.659345856E-01+
*       1.2501560898E+00               0
GRID*              12744               0-6.250000000E-01-2.015838488E-13+
*       1.7500000000E+00               0
GRID*              12745               0-6.249982760E-011.4904734945E-01+
*       1.7388296262E+00               0
GRID*              12746               0-6.250012735E-01-6.801753252E-01+
*       1.4830490078E+00               0
GRID*              12747               0-6.249998903E-01-5.633197685E-01+
*       1.5762389239E+00               0
GRID*              12748               0-6.250017240E-01-1.490473495E-01+
*       1.7388296262E+00               0
GRID*              12749               0-6.249979152E-01-4.338778068E-01+
*       1.6509711040E+00               0
GRID*              12750               0-6.250007398E-01-2.947571535E-01+
*       1.7055716001E+00               0
GRID*              12751               0-6.874993180E-019.4388371790E-01+
*       1.0802770235E+00               0
GRID*              12752               0-6.875014938E-019.1655992199E-01+
*       1.1498959381E+00               0
GRID*              12753               0-6.875004650E-019.6511640147E-01+
*       1.0118202684E+00               0
GRID*              12754               0-6.875018713E-019.8198255576E-01+
*       9.3896911127E-01               0
GRID*              12755               0-6.249999339E-019.5465192047E-01+
*       1.0477224244E+00               0
GRID*              12756               0-5.624994382E-019.4388360918E-01+
*       1.0802773722E+00               0
GRID*              12757               0-5.625008810E-019.6511602546E-01+
*       1.0118214744E+00               0
GRID*              12758               0-5.624984126E-019.8198444491E-01+
*       9.3895877678E-01               0
GRID*              12759               0-6.874999970E-019.9279038796E-01+
*       8.6986334171E-01               0
GRID*              12760               0-6.250022658E-019.8712037691E-01+
*       9.0997565813E-01               0
GRID*              12761               0-6.875013573E-019.9897101346E-01+
*       7.9534094673E-01               0
GRID*              12762               0-6.250022168E-019.9897085547E-01+
*       7.9534355274E-01               0
GRID*              12763               0-5.624999995E-019.9279038749E-01+
*       8.6986334947E-01               0
GRID*              12764               0-5.624982866E-019.9897157787E-01+
*       7.9533163718E-01               0
GRID*              12765               0-5.624981720E-019.1656406614E-01+
*       1.1498867397E+00               0
GRID*              12766               0-6.875000085E-018.8411535241E-01+
*       1.2172686309E+00               0
GRID*              12767               0-6.875016039E-018.4672128441E-01+
*       1.2820360198E+00               0
GRID*              12768               0-6.249979152E-019.0097110936E-01+
*       1.1838778106E+00               0
GRID*              12769               0-5.625000508E-018.8411528600E-01+
*       1.2172687409E+00               0
GRID*              12770               0-6.875005618E-013.3027737528E-01+
*       1.6938836072E+00               0
GRID*              12771               0-6.874990506E-012.5882172696E-01+
*       1.7159247761E+00               0
GRID*              12772               0-5.624987314E-018.4672579299E-01+
*       1.2820285502E+00               0
GRID*              12773               0-6.875007886E-018.0459606601E-01+
*       1.3438218654E+00               0
GRID*              12774               0-6.874992483E-017.5797303261E-01+
*       1.4022855451E+00               0
GRID*              12775               0-6.249998903E-018.2623895302E-01+
*       1.3133197850E+00               0
GRID*              12776               0-5.624997072E-018.0459809370E-01+
*       1.3438192810E+00               0
GRID*              12777               0-5.624998066E-017.5797198604E-01+
*       1.4022868790E+00               0
GRID*              12778               0-6.875018255E-017.0710246570E-01+
*       1.4571103112E+00               0
GRID*              12779               0-6.875001934E-016.5228691345E-01+
*       1.5079720186E+00               0
GRID*              12780               0-6.250012735E-017.3304898085E-01+
*       1.4301753025E+00               0
GRID*              12781               0-5.624981745E-017.0711030433E-01+
*       1.4571024650E+00               0
GRID*              12782               0-5.625007517E-016.5228557841E-01+
*       1.5079730637E+00               0
GRID*              12783               0-5.624992114E-015.9382186175E-01+
*       1.5545960474E+00               0
GRID*              12784               0-5.624983961E-015.3203600608E-01+
*       1.5967212614E+00               0
GRID*              12785               0-6.250017246E-016.2348536313E-01+
*       1.5318342977E+00               0
GRID*              12786               0-6.875002928E-015.9381927513E-01+
*       1.5545980723E+00               0
GRID*              12787               0-6.875012686E-015.3202853777E-01+
*       1.5967257722E+00               0
GRID*              12788               0-6.875018280E-013.9988673998E-01+
*       1.6665640702E+00               0
GRID*              12789               0-6.874999492E-014.6726873627E-01+
*       1.6341152760E+00               0
GRID*              12790               0-6.249996004E-013.6534209981E-01+
*       1.6808732140E+00               0
GRID*              12791               0-5.625006820E-013.3027702650E-01+
*       1.6938837156E+00               0
GRID*              12792               0-5.624985062E-013.9989593697E-01+
*       1.6665599230E+00               0
GRID*              12793               0-5.624999915E-014.6726862627E-01+
*       1.6341153424E+00               0
GRID*              12794               0-6.249977280E-015.0000565932E-01+
*       1.6160214369E+00               0
GRID*              12795               0-5.624981287E-01-9.819825558E-01+
*       9.3896911127E-01               0
GRID*              12796               0-5.624995350E-01-9.651164015E-01+
*       1.0118202684E+00               0
GRID*              12797               0-6.875000005E-01-9.927903875E-01+
*       8.6986334947E-01               0
GRID*              12798               0-6.249977342E-01-9.871203769E-01+
*       9.0997565813E-01               0
GRID*              12799               0-6.875015874E-01-9.819844449E-01+
*       9.3895877678E-01               0
GRID*              12800               0-6.875017134E-01-9.989715779E-01+
*       7.9533163718E-01               0
GRID*              12801               0-6.249977832E-01-9.989708555E-01+
*       7.9534355274E-01               0
GRID*              12802               0-5.625000030E-01-9.927903880E-01+
*       8.6986334171E-01               0
GRID*              12803               0-5.624986427E-01-9.989710135E-01+
*       7.9534094673E-01               0
GRID*              12804               0-6.874991190E-01-9.651160255E-01+
*       1.0118214744E+00               0
GRID*              12805               0-5.625007333E-01-9.437099916E-01+
*       1.0807730923E+00               0
GRID*              12806               0-5.624984870E-01-9.163495184E-01+
*       1.1503778315E+00               0
GRID*              12807               0-6.250002125E-01-9.544953885E-01+
*       1.0482238822E+00               0
GRID*              12808               0-6.875005422E-01-9.437098187E-01+
*       1.0807736470E+00               0
GRID*              12809               0-5.624992114E-01-8.045960660E-01+
*       1.3438218654E+00               0
GRID*              12810               0-5.625007517E-01-7.579730326E-01+
*       1.4022855451E+00               0
GRID*              12811               0-6.875012651E-01-8.466795791E-01+
*       1.2821020942E+00               0
GRID*              12812               0-6.874999462E-01-8.840746965E-01+
*       1.2173455303E+00               0
GRID*              12813               0-6.250001065E-01-8.261900222E-01+
*       1.3133915484E+00               0
GRID*              12814               0-5.624984012E-01-8.466750839E-01+
*       1.2821095416E+00               0
GRID*              12815               0-6.875002928E-01-8.045980937E-01+
*       1.3438192810E+00               0
GRID*              12816               0-5.624999910E-01-8.840747667E-01+
*       1.2173454139E+00               0
GRID*              12817               0-6.875018392E-01-9.163537006E-01+
*       1.1503685488E+00               0
GRID*              12818               0-6.250020531E-01-9.007051047E-01+
*       1.1844297659E+00               0
GRID*              12819               0-5.624996403E-012.5882001680E-01+
*       1.7159253076E+00               0
GRID*              12820               0-6.875016863E-011.8590646434E-01+
*       1.7325668626E+00               0
GRID*              12821               0-6.875000731E-011.1196426334E-01+
*       1.7437122299E+00               0
GRID*              12822               0-6.250008090E-012.2251849071E-01+
*       1.7249281912E+00               0
GRID*              12823               0-5.624981152E-011.8591713198E-01+
*       1.7325648968E+00               0
GRID*              12824               0-5.625003648E-011.1196337893E-01+
*       1.7437122829E+00               0
GRID*              12825               0-6.875011351E-013.7387720975E-02+
*       1.7493005158E+00               0
GRID*              12826               0-6.875010288E-01-3.739428140E-02+
*       1.7493001225E+00               0
GRID*              12827               0-6.250021895E-017.4723435709E-02+
*       1.7472037317E+00               0
GRID*              12828               0-5.624989712E-013.7394281396E-02+
*       1.7493001225E+00               0
GRID*              12829               0-6.875001934E-01-7.579719860E-01+
*       1.4022868790E+00               0
GRID*              12830               0-5.624981745E-01-7.071024657E-01+
*       1.4571103112E+00               0
GRID*              12831               0-5.624998066E-01-6.522869134E-01+
*       1.5079720186E+00               0
GRID*              12832               0-6.249987265E-01-7.330489809E-01+
*       1.4301753025E+00               0
GRID*              12833               0-6.875018255E-01-7.071103043E-01+
*       1.4571024650E+00               0
GRID*              12834               0-5.624988649E-01-3.738772097E-02+
*       1.7493005158E+00               0
GRID*              12835               0-6.874992483E-01-6.522855784E-01+
*       1.5079730637E+00               0
GRID*              12836               0-5.624997072E-01-5.938192751E-01+
*       1.5545980723E+00               0
GRID*              12837               0-5.624987314E-01-5.320285378E-01+
*       1.5967257722E+00               0
GRID*              12838               0-6.249982754E-01-6.234853631E-01+
*       1.5318342977E+00               0
GRID*              12839               0-6.875007886E-01-5.938218617E-01+
*       1.5545960474E+00               0
GRID*              12840               0-6.874996352E-01-1.119633789E-01+
*       1.7437122829E+00               0
GRID*              12841               0-6.875018848E-01-1.859171320E-01+
*       1.7325648968E+00               0
GRID*              12842               0-6.249978105E-01-7.472343571E-02+
*       1.7472037317E+00               0
GRID*              12843               0-5.624999269E-01-1.119642633E-01+
*       1.7437122299E+00               0
GRID*              12844               0-5.624983137E-01-1.859064643E-01+
*       1.7325668626E+00               0
GRID*              12845               0-6.875016039E-01-5.320360061E-01+
*       1.5967212614E+00               0
GRID*              12846               0-5.625000508E-01-4.672687363E-01+
*       1.6341152760E+00               0
GRID*              12847               0-5.624981720E-01-3.998867400E-01+
*       1.6665640702E+00               0
GRID*              12848               0-6.250022720E-01-5.000056593E-01+
*       1.6160214369E+00               0
GRID*              12849               0-6.875000085E-01-4.672686263E-01+
*       1.6341153424E+00               0
GRID*              12850               0-6.875014938E-01-3.998959370E-01+
*       1.6665599230E+00               0
GRID*              12851               0-6.875003597E-01-2.588200168E-01+
*       1.7159253076E+00               0
GRID*              12852               0-6.874993180E-01-3.302770265E-01+
*       1.6938837156E+00               0
GRID*              12853               0-6.249991910E-01-2.225184907E-01+
*       1.7249281912E+00               0
GRID*              12854               0-5.625009494E-01-2.588217270E-01+
*       1.7159247761E+00               0
GRID*              12855               0-5.624994382E-01-3.302773753E-01+
*       1.6938836072E+00               0
GRID*              12856               0-6.250003996E-01-3.653420998E-01+
*       1.6808732140E+00               0
GRID*              12857               0-5.000000000E-01-1.654020083E-02+
*       1.3703050332E-01               0
GRID*              12858               0-5.000000000E-012.7017253520E-02+
*       2.6441875666E-01               0
GRID*              12859               0-5.000000000E-01-1.268078495E-01+
*       1.2114640334E+00               0
GRID*              12860               0-5.000000000E-01-2.128908516E-01+
*       1.3077179431E+00               0
GRID*              12861               0-5.000000000E-01-3.074035944E-01+
*       1.4123747915E+00               0
GRID*              12862               0-5.000000000E-01-4.048742653E-01+
*       1.5174890807E+00               0
GRID*              12863               0-5.000000000E-01-4.504228742E-01+
*       5.6619342153E-01               0
GRID*              12864               0-5.000000000E-01-5.410299171E-01+
*       4.5884904301E-01               0
GRID*              12865               0-5.000000000E-01-6.229050485E-01+
*       3.4762081725E-01               0
GRID*              12866               0-5.000000000E-01-6.983916802E-01+
*       2.3732303487E-01               0
GRID*              12867               0-5.000000000E-01-7.676758231E-01+
*       1.1607938125E-01               0
GRID*              12868               0-5.000000000E-01-2.179661691E-01+
*       2.8926411116E-01               0
GRID*              12869               0-5.000000000E-01-3.009418629E-01+
*       1.5057640180E-01               0
GRID*              12870               0-5.000000000E-01-1.562069242E-01+
*       1.4161333462E-01               0
GRID*              12871               0-5.000000000E-01-9.598269851E-02+
*       2.6886668801E-01               0
GRID*              12872               0-5.000000000E-01-4.945007684E-01+
*       3.2832912214E-01               0
GRID*              12873               0-5.000000000E-01-3.552907830E-01+
*       3.0621881962E-01               0
GRID*              12874               0-5.000000000E-01-4.014841687E-01+
*       4.4473889480E-01               0
GRID*              12875               0-5.000000000E-01-4.680362947E-01+
*       1.6450692756E-01               0
GRID*              12876               0-5.000000000E-01-6.254482545E-01+
*       1.2668806820E-01               0
GRID*              12877               0-5.000000000E-01-5.834551083E-01+
*       2.4195035413E-01               0
GRID*              12878               0-5.000000000E-01-8.479692529E-01+
*       9.2971858863E-01               0
GRID*              12879               0-5.000000000E-01-7.120535660E-01+
*       9.4299298032E-01               0
GRID*              12880               0-5.000000000E-01-5.713968489E-01+
*       9.5066252584E-01               0
GRID*              12881               0-5.000000000E-01-4.371114538E-01+
*       9.6323505376E-01               0
GRID*              12882               0-5.000000000E-01-8.048521767E-01+
*       1.0597697450E+00               0
GRID*              12883               0-5.000000000E-01-2.425949480E-01+
*       1.1696605155E+00               0
GRID*              12884               0-5.000000000E-01-3.707467165E-01+
*       1.1002178654E+00               0
GRID*              12885               0-5.000000000E-01-5.240024733E-01+
*       1.0851387580E+00               0
GRID*              12886               0-5.000000000E-01-6.638529942E-01+
*       1.0709257348E+00               0
GRID*              12887               0-5.000000000E-01-4.443563104E-01+
*       1.3693883256E+00               0
GRID*              12888               0-5.000000000E-01-4.815969968E-01+
*       1.2253706624E+00               0
GRID*              12889               0-5.000000000E-01-3.429645595E-01+
*       1.2646211841E+00               0
GRID*              12890               0-5.000000000E-01-7.524104397E-01+
*       1.1860726996E+00               0
GRID*              12891               0-5.000000000E-01-6.188320025E-01+
*       1.1981375337E+00               0
GRID*              12892               0-5.000000000E-01-7.030273340E-01+
*       1.2898633426E+00               0
GRID*              12893               0-5.000000000E-01-5.857112060E-01+
*       1.3286220797E+00               0
GRID*              12894               0-5.000000000E-01-5.442603857E-01+
*       1.4644777932E+00               0
GRID*              12895               0-5.000000000E-01-8.838771500E-01+
*       5.2097474105E-01               0
GRID*              12896               0-5.000000000E-01-7.661875447E-01+
*       5.7076022066E-01               0
GRID*              12897               0-5.000000000E-01-6.132655361E-01+
*       6.1010015911E-01               0
GRID*              12898               0-5.000000000E-01-4.821535721E-01+
*       7.0048583087E-01               0
GRID*              12899               0-5.000000000E-01-8.785622256E-01+
*       6.5835409605E-01               0
GRID*              12900               0-5.000000000E-01-4.750529204E-01+
*       8.3653608620E-01               0
GRID*              12901               0-5.000000000E-01-6.238946018E-01+
*       7.9916317533E-01               0
GRID*              12902               0-5.000000000E-01-7.541126889E-01+
*       7.1249411613E-01               0
GRID*              12903               0-5.000000000E-01-8.716737010E-01+
*       7.9754577665E-01               0
GRID*              12904               0-5.000000000E-01-7.636694933E-01+
*       8.3687797989E-01               0
GRID*              12905               0-5.000000000E-01-8.548697878E-01+
*       2.3557871300E-01               0
GRID*              12906               0-5.000000000E-01-8.928625106E-01+
*       1.0024280347E-01               0
GRID*              12907               0-5.000000000E-01-8.793216690E-01+
*       3.8797059838E-01               0
GRID*              12908               0-5.000000000E-01-7.530660858E-01+
*       3.5664534378E-01               0
GRID*              12909               0-5.000000000E-01-7.922464005E-01+
*       4.6041782587E-01               0
GRID*              12910               0-5.000000000E-01-6.823412036E-01+
*       4.6630245483E-01               0
GRID*              12911               0-5.000000000E-018.7087533251E-01+
*       6.5853288098E-01               0
GRID*              12912               0-5.000000000E-017.3946451390E-01+
*       7.1667327496E-01               0
GRID*              12913               0-5.000000000E-016.0911783162E-01+
*       7.7499626204E-01               0
GRID*              12914               0-5.000000000E-014.8264791204E-01+
*       8.2814646639E-01               0
GRID*              12915               0-5.000000000E-014.6714173658E-01+
*       1.3861547626E-01               0
GRID*              12916               0-5.000000000E-014.1343885746E-01+
*       2.8605401905E-01               0
GRID*              12917               0-5.000000000E-013.7274514227E-01+
*       4.2712454977E-01               0
GRID*              12918               0-5.000000000E-012.9224732171E-01+
*       1.7063541746E-01               0
GRID*              12919               0-5.000000000E-012.7227032379E-01+
*       3.4128863339E-01               0
GRID*              12920               0-5.000000000E-011.5281396591E-01+
*       2.8470668125E-01               0
GRID*              12921               0-5.000000000E-011.2593157269E-01+
*       1.4339553051E-01               0
GRID*              12922               0-5.000000000E-014.8662078220E-01+
*       6.9574898359E-01               0
GRID*              12923               0-5.000000000E-016.1419703730E-01+
*       6.3070893354E-01               0
GRID*              12924               0-5.000000000E-017.4727352046E-01+
*       5.7015112775E-01               0
GRID*              12925               0-5.000000000E-018.7506384549E-01+
*       5.1090333950E-01               0
GRID*              12926               0-5.000000000E-015.1471854927E-01+
*       3.8739175122E-01               0
GRID*              12927               0-5.000000000E-016.2596169561E-01+
*       4.8241734782E-01               0
GRID*              12928               0-5.000000000E-014.7084818562E-01+
*       5.4452121570E-01               0
GRID*              12929               0-5.000000000E-016.4573646021E-01+
*       3.4240459429E-01               0
GRID*              12930               0-5.000000000E-017.5855178719E-01+
*       2.8561904852E-01               0
GRID*              12931               0-5.000000000E-018.7050137095E-01+
*       2.1075297504E-01               0
GRID*              12932               0-5.000000000E-018.7641744106E-01+
*       3.6374877568E-01               0
GRID*              12933               0-5.000000000E-017.5465346199E-01+
*       4.2564715474E-01               0
GRID*              12934               0-5.000000000E-015.5247908771E-01+
*       2.5189853747E-01               0
GRID*              12935               0-5.000000000E-016.0871979812E-01+
*       1.2770739535E-01               0
GRID*              12936               0-5.000000000E-016.6089190535E-01+
*       2.3042676693E-01               0
GRID*              12937               0-5.000000000E-017.3863214573E-01+
*       1.4355449153E-01               0
GRID*              12938               0-5.000000000E-012.5055654767E-01+
*       1.1646748109E+00               0
GRID*              12939               0-5.000000000E-013.6331336543E-01+
*       1.2304011139E+00               0
GRID*              12940               0-5.000000000E-014.8575895996E-01+
*       1.2990174378E+00               0
GRID*              12941               0-5.000000000E-016.1167232968E-01+
*       1.3670160526E+00               0
GRID*              12942               0-5.000000000E-014.9108682986E-01+
*       1.4528638462E+00               0
GRID*              12943               0-5.000000000E-01-2.664303472E-01+
*       1.5624878249E+00               0
GRID*              12944               0-5.000000000E-01-1.721261448E-01+
*       1.4464884830E+00               0
GRID*              12945               0-5.000000000E-01-1.246932841E-01+
*       1.5919611248E+00               0
GRID*              12946               0-5.000000000E-013.6023933993E-01+
*       1.5265970234E+00               0
GRID*              12947               0-5.000000000E-013.6455396555E-01+
*       1.3748067895E+00               0
GRID*              12948               0-5.000000000E-012.4983709788E-01+
*       1.3009650524E+00               0
GRID*              12949               0-5.000000000E-011.2854924083E-01+
*       1.2333334206E+00               0
GRID*              12950               0-5.000000000E-01-7.426986283E-03+
*       1.2308166148E+00               0
GRID*              12951               0-5.000000000E-014.2081438626E-02+
*       1.3506026021E+00               0
GRID*              12952               0-5.000000000E-01-3.560108284E-02+
*       1.4661450451E+00               0
GRID*              12953               0-5.000000000E-01-8.530892651E-02+
*       1.3348281751E+00               0
GRID*              12954               0-5.000000000E-012.2941526878E-02+
*       1.6028997389E+00               0
GRID*              12955               0-5.000000000E-011.5252058157E-01+
*       1.3593353119E+00               0
GRID*              12956               0-5.000000000E-011.0269980165E-01+
*       1.4677289757E+00               0
GRID*              12957               0-5.000000000E-011.9776350849E-01+
*       1.5961029256E+00               0
GRID*              12958               0-5.000000000E-012.3798753755E-01+
*       1.4361495922E+00               0
GRID*              12959               0-5.000000000E-018.6285445276E-01+
*       8.0487334200E-01               0
GRID*              12960               0-5.000000000E-018.4854979115E-01+
*       9.4429628056E-01               0
GRID*              12961               0-5.000000000E-017.3092013536E-01+
*       8.5952219315E-01               0
GRID*              12962               0-5.000000000E-014.7723775501E-01+
*       1.1471656412E+00               0
GRID*              12963               0-5.000000000E-015.9997558011E-01+
*       1.0654151821E+00               0
GRID*              12964               0-5.000000000E-017.2414423151E-01+
*       9.9659357530E-01               0
GRID*              12965               0-5.000000000E-016.0587421169E-01+
*       1.2141929339E+00               0
GRID*              12966               0-5.000000000E-017.3019381419E-01+
*       1.2739214658E+00               0
GRID*              12967               0-5.000000000E-017.3010066989E-01+
*       1.1317927566E+00               0
GRID*              12968               0-5.000000000E-018.3124924621E-01+
*       1.0587885148E+00               0
GRID*              12969               0-5.000000000E-016.0103289747E-01+
*       9.1706241645E-01               0
GRID*              12970               0-5.000000000E-013.5196398183E-01+
*       1.0857156158E+00               0
GRID*              12971               0-5.000000000E-014.5656939193E-01+
*       9.7903876503E-01               0
GRID*              12972               0-5.000000000E-01-2.658555468E-01+
*       7.5288200902E-02               0
GRID*              12973               0-5.000000000E-01-3.427786238E-01+
*       7.5288200902E-02               0
GRID*              12974               0-5.000000000E-01-1.165650006E-01+
*       7.0806667309E-02               0
GRID*              12975               0-5.000000000E-01-4.673163887E-02+
*       6.8515251658E-02               0
GRID*              12976               0-5.000000000E-01-8.637356252E-02+
*       1.3932191897E-01               0
GRID*              12977               0-5.000000000E-01-1.934880775E-01+
*       7.0806667309E-02               0
GRID*              12978               0-5.000000000E-01-2.285743936E-01+
*       1.4609486821E-01               0
GRID*              12979               0-5.000000000E-01-1.870865466E-01+
*       2.1543872289E-01               0
GRID*              12980               0-5.000000000E-01-2.594540160E-01+
*       2.1992025648E-01               0
GRID*              12981               0-5.000000000E-01-1.353114772E-02+
*       3.1914377005E-01               0
GRID*              12982               0-5.000000000E-014.0548395556E-02+
*       3.1914376924E-01               0
GRID*              12983               0-5.000000000E-01-5.626144967E-02+
*       2.0294859566E-01               0
GRID*              12984               0-5.000000000E-015.2385263467E-03+
*       2.0072462999E-01               0
GRID*              12985               0-5.000000000E-01-3.448272249E-02+
*       2.6664272233E-01               0
GRID*              12986               0-5.000000000E-01-1.260948114E-01+
*       2.0524001131E-01               0
GRID*              12987               0-5.000000000E-01-1.569744338E-01+
*       2.7906539959E-01               0
GRID*              12988               0-5.000000000E-01-7.503112373E-02+
*       3.2136773573E-01               0
GRID*              12989               0-5.000000000E-01-1.269200850E-01+
*       3.3660349812E-01               0
GRID*              12990               0-5.000000000E-01-1.879118203E-01+
*       3.4680220970E-01               0
GRID*              12991               0-5.000000000E-01-4.712570429E-01+
*       4.5179396890E-01               0
GRID*              12992               0-5.000000000E-01-4.259535215E-01+
*       5.0546615816E-01               0
GRID*              12993               0-5.000000000E-01-4.957263957E-01+
*       5.1252123227E-01               0
GRID*              12994               0-5.000000000E-01-4.479924686E-01+
*       3.8653400847E-01               0
GRID*              12995               0-5.000000000E-01-4.248957757E-01+
*       3.1727397088E-01               0
GRID*              12996               0-5.000000000E-01-3.783874759E-01+
*       3.7547885721E-01               0
GRID*              12997               0-5.000000000E-01-5.177653428E-01+
*       3.9358908258E-01               0
GRID*              12998               0-5.000000000E-01-5.819674828E-01+
*       4.0323493013E-01               0
GRID*              12999               0-5.000000000E-01-5.587029085E-01+
*       3.3797496970E-01               0
GRID*              13000               0-5.000000000E-01-3.850495463E-01+
*       5.5537499469E-01               0
GRID*              13001               0-5.000000000E-01-4.075144154E-01+
*       6.0456773874E-01               0
GRID*              13002               0-5.000000000E-01-3.605801935E-01+
*       4.9464773132E-01               0
GRID*              13003               0-5.000000000E-01-2.334062254E-01+
*       3.7604012671E-01               0
GRID*              13004               0-5.000000000E-01-3.020685324E-01+
*       3.8451748094E-01               0
GRID*              13005               0-5.000000000E-01-2.866284761E-01+
*       2.9774146539E-01               0
GRID*              13006               0-5.000000000E-01-3.251652252E-01+
*       4.5377751853E-01               0
GRID*              13007               0-5.000000000E-01-4.263258396E-01+
*       8.2253463780E-02               0
GRID*              13008               0-5.000000000E-01-5.032489166E-01+
*       8.2253463780E-02               0
GRID*              13009               0-5.000000000E-01-3.844890788E-01+
*       1.5754166468E-01               0
GRID*              13010               0-5.000000000E-01-3.281163230E-01+
*       2.2839761071E-01               0
GRID*              13011               0-5.000000000E-01-4.116635388E-01+
*       2.3536287359E-01               0
GRID*              13012               0-5.000000000E-01-7.299917577E-01+
*       5.8039690625E-02               0
GRID*              13013               0-5.000000000E-01-8.069148346E-01+
*       5.8039690625E-02               0
GRID*              13014               0-5.000000000E-01-6.965620388E-01+
*       1.2138372473E-01               0
GRID*              13015               0-5.000000000E-01-6.619199674E-01+
*       1.8200555154E-01               0
GRID*              13016               0-5.000000000E-01-7.330337516E-01+
*       1.7670120806E-01               0
GRID*              13017               0-5.000000000E-01-6.588779734E-01+
*       6.3344034101E-02               0
GRID*              13018               0-5.000000000E-01-5.819548965E-01+
*       6.3344034101E-02               0
GRID*              13019               0-5.000000000E-01-6.031800784E-01+
*       2.9478558569E-01               0
GRID*              13020               0-5.000000000E-01-5.389779384E-01+
*       2.8513973814E-01               0
GRID*              13021               0-5.000000000E-01-6.409233942E-01+
*       2.3963669450E-01               0
GRID*              13022               0-5.000000000E-01-6.044516814E-01+
*       1.8431921117E-01               0
GRID*              13023               0-5.000000000E-01-6.606483643E-01+
*       2.9247192606E-01               0
GRID*              13024               0-5.000000000E-01-4.812685316E-01+
*       2.4641802485E-01               0
GRID*              13025               0-5.000000000E-01-5.257457015E-01+
*       2.0322864085E-01               0
GRID*              13026               0-5.000000000E-01-5.467422746E-01+
*       1.4559749788E-01               0
GRID*              13027               0-5.000000000E-01-8.802122405E-01+
*       1.0522623808E+00               0
GRID*              13028               0-5.000000000E-01-8.529103438E-01+
*       1.1218266594E+00               0
GRID*              13029               0-5.000000000E-01-8.264107148E-01+
*       9.9474416679E-01               0
GRID*              13030               0-5.000000000E-01-7.800114094E-01+
*       9.3635578448E-01               0
GRID*              13031               0-5.000000000E-01-7.584528714E-01+
*       1.0013813626E+00               0
GRID*              13032               0-5.000000000E-01-9.017707786E-01+
*       9.8723680269E-01               0
GRID*              13033               0-5.000000000E-01-9.183998935E-01+
*       9.1438040192E-01               0
GRID*              13034               0-5.000000000E-01-6.879532801E-01+
*       1.0069593576E+00               0
GRID*              13035               0-5.000000000E-01-7.343525855E-01+
*       1.0653477399E+00               0
GRID*              13036               0-5.000000000E-01-6.417252075E-01+
*       9.4682775308E-01               0
GRID*              13037               0-5.000000000E-01-6.176249216E-01+
*       1.0107941303E+00               0
GRID*              13038               0-5.000000000E-01-1.423326528E-01+
*       1.1535618663E+00               0
GRID*              13039               0-5.000000000E-01-9.044369472E-02+
*       1.1687976377E+00               0
GRID*              13040               0-5.000000000E-01-2.002262020E-01+
*       1.1326601074E+00               0
GRID*              13041               0-5.000000000E-01-1.847013988E-01+
*       1.1905622744E+00               0
GRID*              13042               0-5.000000000E-01-5.476996611E-01+
*       1.0179006419E+00               0
GRID*              13043               0-5.000000000E-01-5.939277338E-01+
*       1.0780322464E+00               0
GRID*              13044               0-5.000000000E-01-4.805569636E-01+
*       1.0241869059E+00               0
GRID*              13045               0-5.000000000E-01-4.039290852E-01+
*       1.0317264596E+00               0
GRID*              13046               0-5.000000000E-01-4.473745949E-01+
*       1.0926783117E+00               0
GRID*              13047               0-5.000000000E-01-5.042541514E-01+
*       9.5694878980E-01               0
GRID*              13048               0-5.000000000E-01-2.457206143E-01+
*       1.1034222020E+00               0
GRID*              13049               0-5.000000000E-01-3.066708322E-01+
*       1.1349391904E+00               0
GRID*              13050               0-5.000000000E-01-3.097964985E-01+
*       1.0687008769E+00               0
GRID*              13051               0-5.000000000E-01-3.452114573E-01+
*       1.0278306562E+00               0
GRID*              13052               0-5.000000000E-01-3.783938260E-01+
*       9.5933925038E-01               0
GRID*              13053               0-5.000000000E-01-3.758799524E-01+
*       1.3908815586E+00               0
GRID*              13054               0-5.000000000E-01-3.561389298E-01+
*       1.4649319361E+00               0
GRID*              13055               0-5.000000000E-01-4.246152878E-01+
*       1.4434387031E+00               0
GRID*              13056               0-5.000000000E-01-3.251840769E-01+
*       1.3384979878E+00               0
GRID*              13057               0-5.000000000E-01-2.779277055E-01+
*       1.2861695636E+00               0
GRID*              13058               0-5.000000000E-01-2.601472230E-01+
*       1.3600463673E+00               0
GRID*              13059               0-5.000000000E-01-3.936604349E-01+
*       1.3170047548E+00               0
GRID*              13060               0-5.000000000E-01-4.629766536E-01+
*       1.2973794940E+00               0
GRID*              13061               0-5.000000000E-01-4.122807781E-01+
*       1.2449959232E+00               0
GRID*              13062               0-5.000000000E-01-2.277428998E-01+
*       1.2386892293E+00               0
GRID*              13063               0-5.000000000E-01-1.698493506E-01+
*       1.2595909882E+00               0
GRID*              13064               0-5.000000000E-01-4.261718567E-01+
*       1.1627942639E+00               0
GRID*              13065               0-5.000000000E-01-3.568556380E-01+
*       1.1824195247E+00               0
GRID*              13066               0-5.000000000E-01-5.027997351E-01+
*       1.1552547102E+00               0
GRID*              13067               0-5.000000000E-01-2.927797537E-01+
*       1.2171408498E+00               0
GRID*              13068               0-5.000000000E-01-8.266894753E-01+
*       1.1849781368E+00               0
GRID*              13069               0-5.000000000E-01-7.893246121E-01+
*       1.2496963825E+00               0
GRID*              13070               0-5.000000000E-01-7.786313082E-01+
*       1.1229212223E+00               0
GRID*              13071               0-5.000000000E-01-7.081317169E-01+
*       1.1284992172E+00               0
GRID*              13072               0-5.000000000E-01-5.714172379E-01+
*       1.1416381458E+00               0
GRID*              13073               0-5.000000000E-01-5.502144997E-01+
*       1.2117540980E+00               0
GRID*              13074               0-5.000000000E-01-6.413424983E-01+
*       1.1345316342E+00               0
GRID*              13075               0-5.000000000E-01-6.856212211E-01+
*       1.1921051166E+00               0
GRID*              13076               0-5.000000000E-01-7.277188869E-01+
*       1.2379680211E+00               0
GRID*              13077               0-5.000000000E-01-6.609296682E-01+
*       1.2440004381E+00               0
GRID*              13078               0-5.000000000E-01-7.646330592E-01+
*       1.3015917040E+00               0
GRID*              13079               0-5.000000000E-01-7.180395204E-01+
*       1.3600179584E+00               0
GRID*              13080               0-5.000000000E-01-6.022716042E-01+
*       1.2633798067E+00               0
GRID*              13081               0-5.000000000E-01-6.443692700E-01+
*       1.3092427111E+00               0
GRID*              13082               0-5.000000000E-01-5.336541014E-01+
*       1.2769963710E+00               0
GRID*              13083               0-5.000000000E-01-5.150337582E-01+
*       1.3490052026E+00               0
GRID*              13084               0-5.000000000E-01-4.745673255E-01+
*       1.4909834369E+00               0
GRID*              13085               0-5.000000000E-01-4.943083480E-01+
*       1.4169330594E+00               0
GRID*              13086               0-5.000000000E-01-5.221300717E-01+
*       1.5402513952E+00               0
GRID*              13087               0-5.000000000E-01-5.838749360E-01+
*       1.4981544351E+00               0
GRID*              13088               0-5.000000000E-01-4.524370115E-01+
*       1.5667570390E+00               0
GRID*              13089               0-5.000000000E-01-5.649857958E-01+
*       1.3965499364E+00               0
GRID*              13090               0-5.000000000E-01-6.386560462E-01+
*       1.4473251837E+00               0
GRID*              13091               0-5.000000000E-01-6.593814564E-01+
*       1.3793973269E+00               0
GRID*              13092               0-5.000000000E-01-9.392811128E-01+
*       6.2917704803E-01               0
GRID*              13093               0-5.000000000E-01-9.392811128E-01+
*       7.0417704803E-01               0
GRID*              13094               0-5.000000000E-01-9.419385750E-01+
*       5.6048737052E-01               0
GRID*              13095               0-5.000000000E-01-9.419385750E-01+
*       4.8548737052E-01               0
GRID*              13096               0-5.000000000E-01-8.812196878E-01+
*       5.8966441855E-01               0
GRID*              13097               0-5.000000000E-01-8.250323473E-01+
*       5.4586748085E-01               0
GRID*              13098               0-5.000000000E-01-8.223748852E-01+
*       6.1455715835E-01               0
GRID*              13099               0-5.000000000E-01-4.008587022E-01+
*       9.1014651002E-01               0
GRID*              13100               0-5.000000000E-01-4.275264578E-01+
*       7.9326804884E-01               0
GRID*              13101               0-5.000000000E-01-4.786032463E-01+
*       7.6851095854E-01               0
GRID*              13102               0-5.000000000E-01-4.310767837E-01+
*       7.2524292117E-01               0
GRID*              13103               0-5.000000000E-01-4.198294355E-01+
*       8.4679702624E-01               0
GRID*              13104               0-5.000000000E-01-5.530240869E-01+
*       7.4982450310E-01               0
GRID*              13105               0-5.000000000E-01-6.185800689E-01+
*       7.0463166722E-01               0
GRID*              13106               0-5.000000000E-01-5.477095541E-01+
*       6.5529299499E-01               0
GRID*              13107               0-5.000000000E-01-5.494737611E-01+
*       8.1784963077E-01               0
GRID*              13108               0-5.000000000E-01-7.601501168E-01+
*       6.4162716839E-01               0
GRID*              13109               0-5.000000000E-01-8.163374573E-01+
*       6.8542410609E-01               0
GRID*              13110               0-5.000000000E-01-6.836891125E-01+
*       6.6129713762E-01               0
GRID*              13111               0-5.000000000E-01-6.890036453E-01+
*       7.5582864573E-01               0
GRID*              13112               0-5.000000000E-01-6.897265404E-01+
*       5.9043018989E-01               0
GRID*              13113               0-5.000000000E-01-4.560821871E-01+
*       8.9988556998E-01               0
GRID*              13114               0-5.000000000E-01-5.232248847E-01+
*       8.9359930602E-01               0
GRID*              13115               0-5.000000000E-01-5.976457253E-01+
*       8.7491285058E-01               0
GRID*              13116               0-5.000000000E-01-6.679740839E-01+
*       8.7107807783E-01               0
GRID*              13117               0-5.000000000E-01-9.358368505E-01+
*       7.7377288833E-01               0
GRID*              13118               0-5.000000000E-01-8.751179633E-01+
*       7.2794993635E-01               0
GRID*              13119               0-5.000000000E-01-9.302521176E-01+
*       8.4829399592E-01               0
GRID*              13120               0-5.000000000E-01-8.598214769E-01+
*       8.6363218264E-01               0
GRID*              13121               0-5.000000000E-01-8.128931950E-01+
*       7.5501994639E-01               0
GRID*              13122               0-5.000000000E-01-7.378615296E-01+
*       8.8993548011E-01               0
GRID*              13123               0-5.000000000E-01-6.937820475E-01+
*       8.1802057761E-01               0
GRID*              13124               0-5.000000000E-01-7.588910911E-01+
*       7.7468604801E-01               0
GRID*              13125               0-5.000000000E-01-8.058193731E-01+
*       8.8329828426E-01               0
GRID*              13126               0-5.000000000E-01-8.176715971E-01+
*       8.1721187827E-01               0
GRID*              13127               0-5.000000000E-01-8.112728055E-01+
*       1.7582904713E-01               0
GRID*              13128               0-5.000000000E-01-7.766307340E-01+
*       2.3645087394E-01               0
GRID*              13129               0-5.000000000E-01-8.695081784E-01+
*       5.0121401736E-02               0
GRID*              13130               0-5.000000000E-01-8.302691669E-01+
*       1.0816109236E-01               0
GRID*              13131               0-5.000000000E-01-9.464312553E-01+
*       5.0121401736E-02               0
GRID*              13132               0-5.000000000E-01-9.464312553E-01+
*       1.2512140174E-01               0
GRID*              13133               0-5.000000000E-01-8.738661492E-01+
*       1.6791075824E-01               0
GRID*              13134               0-5.000000000E-01-9.274348939E-01+
*       1.9278935650E-01               0
GRID*              13135               0-5.000000000E-01-9.274348939E-01+
*       2.6778935650E-01               0
GRID*              13136               0-5.000000000E-01-9.396608345E-01+
*       4.1898529919E-01               0
GRID*              13137               0-5.000000000E-01-8.815994095E-01+
*       4.5447266971E-01               0
GRID*              13138               0-5.000000000E-01-9.396608345E-01+
*       3.4398529919E-01               0
GRID*              13139               0-5.000000000E-01-8.670957284E-01+
*       3.1177465569E-01               0
GRID*              13140               0-5.000000000E-01-7.257288830E-01+
*       2.9698418932E-01               0
GRID*              13141               0-5.000000000E-01-6.879855672E-01+
*       3.5213308051E-01               0
GRID*              13142               0-5.000000000E-01-8.039679368E-01+
*       2.9611202839E-01               0
GRID*              13143               0-5.000000000E-01-8.161938774E-01+
*       3.7230797108E-01               0
GRID*              13144               0-5.000000000E-01-8.357840347E-01+
*       4.2419421212E-01               0
GRID*              13145               0-5.000000000E-01-7.726562431E-01+
*       4.0853158482E-01               0
GRID*              13146               0-5.000000000E-01-8.380617752E-01+
*       4.9069628346E-01               0
GRID*              13147               0-5.000000000E-01-7.792169726E-01+
*       5.1558902326E-01               0
GRID*              13148               0-5.000000000E-01-6.526231261E-01+
*       4.0696163604E-01               0
GRID*              13149               0-5.000000000E-01-6.116855604E-01+
*       4.6257574892E-01               0
GRID*              13150               0-5.000000000E-01-7.177036447E-01+
*       4.1147389930E-01               0
GRID*              13151               0-5.000000000E-01-7.372938020E-01+
*       4.6336014035E-01               0
GRID*              13152               0-5.000000000E-01-4.233797644E-01+
*       6.7171394340E-01               0
GRID*              13153               0-5.000000000E-01-7.242643742E-01+
*       5.1853133774E-01               0
GRID*              13154               0-5.000000000E-01-6.478033699E-01+
*       5.3820130697E-01               0
GRID*              13155               0-5.000000000E-01-4.662882232E-01+
*       6.3333962620E-01               0
GRID*              13156               0-5.000000000E-01-5.318442052E-01+
*       5.8814679032E-01               0
GRID*              13157               0-5.000000000E-01-5.771477266E-01+
*       5.3447460106E-01               0
GRID*              13158               0-5.000000000E-014.2587856060E-01+
*       6.9307738130E-02               0
GRID*              13159               0-5.000000000E-015.0280163752E-01+
*       6.9307738130E-02               0
GRID*              13160               0-5.000000000E-013.7969452915E-01+
*       1.5462544686E-01               0
GRID*              13161               0-5.000000000E-014.4029029702E-01+
*       2.1233474765E-01               0
GRID*              13162               0-5.000000000E-013.5284308958E-01+
*       2.2834471825E-01               0
GRID*              13163               0-5.000000000E-013.3843135316E-01+
*       8.5317708730E-02               0
GRID*              13164               0-5.000000000E-012.6150827624E-01+
*       8.5317708730E-02               0
GRID*              13165               0-5.000000000E-011.7835040173E-01+
*       7.1697765257E-02               0
GRID*              13166               0-5.000000000E-011.0142732481E-01+
*       7.1697765257E-02               0
GRID*              13167               0-5.000000000E-013.4285459062E-01+
*       3.1367132622E-01               0
GRID*              13168               0-5.000000000E-013.9309199986E-01+
*       3.5658928441E-01               0
GRID*              13169               0-5.000000000E-013.2250773303E-01+
*       3.8420659158E-01               0
GRID*              13170               0-5.000000000E-012.0908944720E-01+
*       1.5701547399E-01               0
GRID*              13171               0-5.000000000E-012.2253064381E-01+
*       2.2767104936E-01               0
GRID*              13172               0-5.000000000E-011.3937276930E-01+
*       2.1405110588E-01               0
GRID*              13173               0-5.000000000E-012.8225882275E-01+
*       2.5596202542E-01               0
GRID*              13174               0-5.000000000E-012.1254214485E-01+
*       3.1299765732E-01               0
GRID*              13175               0-5.000000000E-013.0191438048E-02+
*       6.8515251658E-02               0
GRID*              13176               0-5.000000000E-013.1079570767E-01+
*       4.4497034225E-01               0
GRID*              13177               0-5.000000000E-012.6055829843E-01+
*       4.0205238406E-01               0
GRID*              13178               0-5.000000000E-013.4621067721E-01+
*       4.8584055398E-01               0
GRID*              13179               0-5.000000000E-015.4695685930E-02+
*       1.4021301692E-01               0
GRID*              13180               0-5.000000000E-017.6474413103E-02+
*       2.0390714359E-01               0
GRID*              13181               0-5.000000000E-012.1506389242E-01+
*       3.7281446843E-01               0
GRID*              13182               0-5.000000000E-011.5533571348E-01+
*       3.4452349236E-01               0
GRID*              13183               0-5.000000000E-018.9915609716E-02+
*       2.7456271896E-01               0
GRID*              13184               0-5.000000000E-011.0344675175E-01+
*       3.2928773153E-01               0
GRID*              13185               0-5.000000000E-014.3132395364E-01+
*       7.8907323319E-01               0
GRID*              13186               0-5.000000000E-014.2362693294E-01+
*       8.4260221082E-01               0
GRID*              13187               0-5.000000000E-014.3331038872E-01+
*       7.2287449179E-01               0
GRID*              13188               0-5.000000000E-014.8463434712E-01+
*       7.6194772499E-01               0
GRID*              13189               0-5.000000000E-015.4786930691E-01+
*       7.3537262281E-01               0
GRID*              13190               0-5.000000000E-015.5040890975E-01+
*       6.6322895856E-01               0
GRID*              13191               0-5.000000000E-016.1165743446E-01+
*       7.0285259779E-01               0
GRID*              13192               0-5.000000000E-015.4588287183E-01+
*       8.0157136421E-01               0
GRID*              13193               0-5.000000000E-016.7683077560E-01+
*       6.7369110425E-01               0
GRID*              13194               0-5.000000000E-016.7429117276E-01+
*       7.4583476850E-01               0
GRID*              13195               0-5.000000000E-016.8073527888E-01+
*       6.0043003064E-01               0
GRID*              13196               0-5.000000000E-017.4336901718E-01+
*       6.4341220136E-01               0
GRID*              13197               0-5.000000000E-019.3753192274E-01+
*       5.5545166975E-01               0
GRID*              13198               0-5.000000000E-019.3753192274E-01+
*       4.8045166975E-01               0
GRID*              13199               0-5.000000000E-018.7296958900E-01+
*       5.8471811024E-01               0
GRID*              13200               0-5.000000000E-019.3543766625E-01+
*       6.2926644049E-01               0
GRID*              13201               0-5.000000000E-018.0907442648E-01+
*       6.1434200436E-01               0
GRID*              13202               0-5.000000000E-018.0516992320E-01+
*       6.8760307797E-01               0
GRID*              13203               0-5.000000000E-018.1116868297E-01+
*       5.4052723362E-01               0
GRID*              13204               0-5.000000000E-016.2007936646E-01+
*       5.5656314068E-01               0
GRID*              13205               0-5.000000000E-016.8661760804E-01+
*       5.2628423779E-01               0
GRID*              13206               0-5.000000000E-015.4252261146E-01+
*       5.8761507462E-01               0
GRID*              13207               0-5.000000000E-014.7873448391E-01+
*       6.2013509964E-01               0
GRID*              13208               0-5.000000000E-015.4840494061E-01+
*       5.1346928176E-01               0
GRID*              13209               0-5.000000000E-014.9278336745E-01+
*       4.6595648346E-01               0
GRID*              13210               0-5.000000000E-015.7034012244E-01+
*       4.3490454952E-01               0
GRID*              13211               0-5.000000000E-014.4373184577E-01+
*       4.0725815049E-01               0
GRID*              13212               0-5.000000000E-014.6407870337E-01+
*       3.3672288513E-01               0
GRID*              13213               0-5.000000000E-014.2179666394E-01+
*       4.8582288273E-01               0
GRID*              13214               0-5.000000000E-014.2561336780E-01+
*       6.6934551426E-01               0
GRID*              13215               0-5.000000000E-014.1772706951E-01+
*       5.9373163031E-01               0
GRID*              13216               0-5.000000000E-013.9526219888E-01+
*       5.4453888694E-01               0
GRID*              13217               0-5.000000000E-019.3525068548E-01+
*       2.5537648752E-01               0
GRID*              13218               0-5.000000000E-019.3820872053E-01+
*       3.3187438784E-01               0
GRID*              13219               0-5.000000000E-018.7345940600E-01+
*       2.8725087536E-01               0
GRID*              13220               0-5.000000000E-019.3525068548E-01+
*       1.8037648752E-01               0
GRID*              13221               0-5.000000000E-019.3820872053E-01+
*       4.0687438784E-01               0
GRID*              13222               0-5.000000000E-018.7574064327E-01+
*       4.3732605759E-01               0
GRID*              13223               0-5.000000000E-017.5096349123E-01+
*       4.9789914125E-01               0
GRID*              13224               0-5.000000000E-016.9030757880E-01+
*       4.5403225128E-01               0
GRID*              13225               0-5.000000000E-018.1485865374E-01+
*       4.6827524712E-01               0
GRID*              13226               0-5.000000000E-018.1553545153E-01+
*       3.9469796521E-01               0
GRID*              13227               0-5.000000000E-018.1748461413E-01+
*       3.2468391210E-01               0
GRID*              13228               0-5.000000000E-018.1452657907E-01+
*       2.4818601178E-01               0
GRID*              13229               0-5.000000000E-017.5660262459E-01+
*       3.5563310163E-01               0
GRID*              13230               0-5.000000000E-016.3584907791E-01+
*       4.1241097105E-01               0
GRID*              13231               0-5.000000000E-015.8022750474E-01+
*       3.6489817275E-01               0
GRID*              13232               0-5.000000000E-017.0019496110E-01+
*       3.8402587451E-01               0
GRID*              13233               0-5.000000000E-017.0214412370E-01+
*       3.1401182140E-01               0
GRID*              13234               0-5.000000000E-015.3359881849E-01+
*       3.1964514434E-01               0
GRID*              13235               0-5.000000000E-015.9910777396E-01+
*       2.9715156588E-01               0
GRID*              13236               0-5.000000000E-014.8295897258E-01+
*       2.6897627826E-01               0
GRID*              13237               0-5.000000000E-015.0981041214E-01+
*       1.9525700686E-01               0
GRID*              13238               0-5.000000000E-015.7359066829E-01+
*       6.3853697677E-02               0
GRID*              13239               0-5.000000000E-016.5051374521E-01+
*       6.3853697677E-02               0
GRID*              13240               0-5.000000000E-015.3793076735E-01+
*       1.3316143581E-01               0
GRID*              13241               0-5.000000000E-015.8059944291E-01+
*       1.8980296641E-01               0
GRID*              13242               0-5.000000000E-016.5331418278E-01+
*       2.8641568061E-01               0
GRID*              13243               0-5.000000000E-017.0972184627E-01+
*       2.5802290772E-01               0
GRID*              13244               0-5.000000000E-016.0668549653E-01+
*       2.4116265220E-01               0
GRID*              13245               0-5.000000000E-016.3480585173E-01+
*       1.7906708114E-01               0
GRID*              13246               0-5.000000000E-017.1546991902E-01+
*       7.1777245766E-02               0
GRID*              13247               0-5.000000000E-017.9239299594E-01+
*       7.1777245766E-02               0
GRID*              13248               0-5.000000000E-016.7367597193E-01+
*       1.3563094344E-01               0
GRID*              13249               0-5.000000000E-016.9976202554E-01+
*       1.8699062923E-01               0
GRID*              13250               0-5.000000000E-017.4859196646E-01+
*       2.1458677003E-01               0
GRID*              13251               0-5.000000000E-018.0456675834E-01+
*       1.7715373329E-01               0
GRID*              13252               0-5.000000000E-018.5832760855E-01+
*       1.0537648752E-01               0
GRID*              13253               0-5.000000000E-015.5728815804E-01+
*       1.4923474616E+00               0
GRID*              13254               0-5.000000000E-014.9554329377E-01+
*       1.5344444217E+00               0
GRID*              13255               0-5.000000000E-016.1758090795E-01+
*       1.4494235648E+00               0
GRID*              13256               0-5.000000000E-016.7236201822E-01+
*       1.3985943134E+00               0
GRID*              13257               0-5.000000000E-015.5137957977E-01+
*       1.4099399494E+00               0
GRID*              13258               0-5.000000000E-014.8842289491E-01+
*       1.3759406420E+00               0
GRID*              13259               0-5.000000000E-015.4871564482E-01+
*       1.3330167452E+00               0
GRID*              13260               0-5.000000000E-01-3.158856753E-01+
*       1.6216807674E+00               0
GRID*              13261               0-5.000000000E-01-2.444756228E-01+
*       1.6437077871E+00               0
GRID*              13262               0-5.000000000E-01-3.851076344E-01+
*       1.5991813953E+00               0
GRID*              13263               0-5.000000000E-01-3.356523062E-01+
*       1.5399884528E+00               0
GRID*              13264               0-5.000000000E-01-2.869169708E-01+
*       1.4874313082E+00               0
GRID*              13265               0-5.000000000E-01-1.736070912E-01+
*       1.6584444371E+00               0
GRID*              13266               0-5.000000000E-01-9.971167466E-02+
*       1.6695822320E+00               0
GRID*              13267               0-5.000000000E-01-1.955618156E-01+
*       1.5772244749E+00               0
GRID*              13268               0-5.000000000E-01-2.192782460E-01+
*       1.5044881539E+00               0
GRID*              13269               0-5.000000000E-01-1.484097144E-01+
*       1.5192248039E+00               0
GRID*              13270               0-5.000000000E-01-2.397648696E-01+
*       1.4294316373E+00               0
GRID*              13271               0-5.000000000E-01-1.925084982E-01+
*       1.3771032130E+00               0
GRID*              13272               0-5.000000000E-014.3011954881E-01+
*       1.5713110103E+00               0
GRID*              13273               0-5.000000000E-014.2566308489E-01+
*       1.4897304348E+00               0
GRID*              13274               0-5.000000000E-013.6279017166E-01+
*       1.6037353667E+00               0
GRID*              13275               0-5.000000000E-014.2782039770E-01+
*       1.4138353179E+00               0
GRID*              13276               0-5.000000000E-013.6239665274E-01+
*       1.4507019065E+00               0
GRID*              13277               0-5.000000000E-014.2515646276E-01+
*       1.3369121136E+00               0
GRID*              13278               0-5.000000000E-013.6393366549E-01+
*       1.3026039517E+00               0
GRID*              13279               0-5.000000000E-014.2453616270E-01+
*       1.2647092758E+00               0
GRID*              13280               0-5.000000000E-01-3.075326310E-02+
*       1.1784739284E+00               0
GRID*              13281               0-5.000000000E-01-6.711741790E-02+
*       1.2211403241E+00               0
GRID*              13282               0-5.000000000E-013.0657523166E-01+
*       1.2656830831E+00               0
GRID*              13283               0-5.000000000E-013.0719553172E-01+
*       1.3378859209E+00               0
GRID*              13284               0-5.000000000E-012.5019682278E-01+
*       1.2328199316E+00               0
GRID*              13285               0-5.000000000E-011.8919316936E-01+
*       1.2671492365E+00               0
GRID*              13286               0-5.000000000E-011.8955289425E-01+
*       1.1990041157E+00               0
GRID*              13287               0-5.000000000E-013.0693495655E-01+
*       1.1975379624E+00               0
GRID*              13288               0-5.000000000E-012.3326282502E-02+
*       1.1784739276E+00               0
GRID*              13289               0-5.000000000E-019.1314396061E-02+
*       1.1797323305E+00               0
GRID*              13290               0-5.000000000E-016.0561127276E-02+
*       1.2320750177E+00               0
GRID*              13291               0-5.000000000E-011.4320335364E-01+
*       1.1644965575E+00               0
GRID*              13292               0-5.000000000E-012.0420700706E-01+
*       1.1301672527E+00               0
GRID*              13293               0-5.000000000E-011.7327226172E-02+
*       1.2907096085E+00               0
GRID*              13294               0-5.000000000E-018.5315339730E-02+
*       1.2919680113E+00               0
GRID*              13295               0-5.000000000E-01-1.060583880E-01+
*       1.2731461042E+00               0
GRID*              13296               0-5.000000000E-01-4.636795640E-02+
*       1.2828223950E+00               0
GRID*              13297               0-5.000000000E-01-1.490998890E-01+
*       1.3212730591E+00               0
GRID*              13298               0-5.000000000E-01-1.287175356E-01+
*       1.3906583291E+00               0
GRID*              13299               0-5.000000000E-01-1.038636138E-01+
*       1.4563167640E+00               0
GRID*              13300               0-5.000000000E-01-8.014718346E-02+
*       1.5290530850E+00               0
GRID*              13301               0-5.000000000E-01-6.045500468E-02+
*       1.4004866101E+00               0
GRID*              13302               0-5.000000000E-01-2.161374394E-02+
*       1.3427153886E+00               0
GRID*              13303               0-5.000000000E-013.2401778909E-03+
*       1.4083738236E+00               0
GRID*              13304               0-5.000000000E-01-5.087587860E-02+
*       1.5974304319E+00               0
GRID*              13305               0-5.000000000E-01-6.329777983E-03+
*       1.5345223920E+00               0
GRID*              13306               0-5.000000000E-01-2.589426918E-02+
*       1.6750515390E+00               0
GRID*              13307               0-5.000000000E-014.8835796061E-02+
*       1.6750515390E+00               0
GRID*              13308               0-5.000000000E-013.3549359403E-02+
*       1.4669370104E+00               0
GRID*              13309               0-5.000000000E-016.2820664264E-02+
*       1.5353143573E+00               0
GRID*              13310               0-5.000000000E-017.2390620138E-02+
*       1.4091657889E+00               0
GRID*              13311               0-5.000000000E-011.4053491120E-01+
*       1.2963343662E+00               0
GRID*              13312               0-5.000000000E-012.0117883973E-01+
*       1.3301501821E+00               0
GRID*              13313               0-5.000000000E-019.7301010100E-02+
*       1.3549689570E+00               0
GRID*              13314               0-5.000000000E-011.2761019161E-01+
*       1.4135321438E+00               0
GRID*              13315               0-5.000000000E-011.1035251769E-01+
*       1.5995013323E+00               0
GRID*              13316               0-5.000000000E-011.5023165507E-01+
*       1.5319159507E+00               0
GRID*              13317               0-5.000000000E-011.3624678687E-01+
*       1.6716531324E+00               0
GRID*              13318               0-5.000000000E-012.1014220344E-01+
*       1.6605153375E+00               0
GRID*              13319               0-5.000000000E-012.4391231772E-01+
*       1.3685573223E+00               0
GRID*              13320               0-5.000000000E-011.9525405956E-01+
*       1.3977424521E+00               0
GRID*              13321               0-5.000000000E-013.0127075155E-01+
*       1.4054781909E+00               0
GRID*              13322               0-5.000000000E-012.9911343874E-01+
*       1.4813733078E+00               0
GRID*              13323               0-5.000000000E-011.7034366960E-01+
*       1.4519392840E+00               0
GRID*              13324               0-5.000000000E-012.1787552302E-01+
*       1.5161262589E+00               0
GRID*              13325               0-5.000000000E-012.8155225594E-01+
*       1.6384883178E+00               0
GRID*              13326               0-5.000000000E-012.7900142421E-01+
*       1.5613499745E+00               0
GRID*              13327               0-5.000000000E-019.3142722638E-01+
*       7.7743667100E-01               0
GRID*              13328               0-5.000000000E-019.2584249344E-01+
*       8.5195777860E-01               0
GRID*              13329               0-5.000000000E-019.3543766625E-01+
*       7.0426644049E-01               0
GRID*              13330               0-5.000000000E-018.6686489263E-01+
*       7.3170311149E-01               0
GRID*              13331               0-5.000000000E-018.0115948333E-01+
*       7.6077330848E-01               0
GRID*              13332               0-5.000000000E-019.1869016263E-01+
*       9.2166924788E-01               0
GRID*              13333               0-5.000000000E-018.5570212196E-01+
*       8.7458481128E-01               0
GRID*              13334               0-5.000000000E-019.0206104770E-01+
*       9.9452564865E-01               0
GRID*              13335               0-5.000000000E-017.9688729406E-01+
*       8.3219776758E-01               0
GRID*              13336               0-5.000000000E-017.8973496325E-01+
*       9.0190923685E-01               0
GRID*              13337               0-5.000000000E-017.3519232463E-01+
*       7.8809773406E-01               0
GRID*              13338               0-5.000000000E-016.7001898349E-01+
*       8.1725922759E-01               0
GRID*              13339               0-5.000000000E-014.8149835749E-01+
*       1.2230915395E+00               0
GRID*              13340               0-5.000000000E-014.2027556022E-01+
*       1.1887833776E+00               0
GRID*              13341               0-5.000000000E-015.4581658583E-01+
*       1.2566051858E+00               0
GRID*              13342               0-5.000000000E-016.0877327069E-01+
*       1.2906044933E+00               0
GRID*              13343               0-5.000000000E-015.4155598335E-01+
*       1.1806792876E+00               0
GRID*              13344               0-5.000000000E-015.3860666756E-01+
*       1.1062904117E+00               0
GRID*              13345               0-5.000000000E-016.0292489590E-01+
*       1.1398040580E+00               0
GRID*              13346               0-5.000000000E-016.7093307193E-01+
*       1.3204687592E+00               0
GRID*              13347               0-5.000000000E-016.6803401294E-01+
*       1.2440571999E+00               0
GRID*              13348               0-5.000000000E-017.3162276048E-01+
*       1.3520470200E+00               0
GRID*              13349               0-5.000000000E-017.7821629934E-01+
*       1.2936207656E+00               0
GRID*              13350               0-5.000000000E-016.6503812500E-01+
*       1.0986039694E+00               0
GRID*              13351               0-5.000000000E-016.6205990581E-01+
*       1.0310043787E+00               0
GRID*              13352               0-5.000000000E-017.2712245070E-01+
*       1.0641931659E+00               0
GRID*              13353               0-5.000000000E-016.6798744079E-01+
*       1.1729928453E+00               0
GRID*              13354               0-5.000000000E-017.3014724204E-01+
*       1.2028571112E+00               0
GRID*              13355               0-5.000000000E-017.7769673886E-01+
*       1.0276910451E+00               0
GRID*              13356               0-5.000000000E-017.8067495805E-01+
*       1.0952906357E+00               0
GRID*              13357               0-5.000000000E-018.3989951868E-01+
*       1.0015423977E+00               0
GRID*              13358               0-5.000000000E-018.9341077523E-01+
*       1.0517717658E+00               0
GRID*              13359               0-5.000000000E-017.8634701133E-01+
*       9.7044492793E-01               0
GRID*              13360               0-5.000000000E-018.6610887854E-01+
*       1.1213360444E+00               0
GRID*              13361               0-5.000000000E-018.1558116253E-01+
*       1.2289025199E+00               0
GRID*              13362               0-5.000000000E-018.1553459039E-01+
*       1.1578381653E+00               0
GRID*              13363               0-5.000000000E-016.0507536455E-01+
*       8.4602933924E-01               0
GRID*              13364               0-5.000000000E-015.4184040476E-01+
*       8.7260444142E-01               0
GRID*              13365               0-5.000000000E-016.6597651641E-01+
*       8.8829230480E-01               0
GRID*              13366               0-5.000000000E-017.2753218344E-01+
*       9.2805788423E-01               0
GRID*              13367               0-5.000000000E-016.6258856449E-01+
*       9.5682799588E-01               0
GRID*              13368               0-5.000000000E-013.5763867363E-01+
*       1.1580583649E+00               0
GRID*              13369               0-5.000000000E-014.1460086842E-01+
*       1.1164406285E+00               0
GRID*              13370               0-5.000000000E-013.0126026475E-01+
*       1.1251952134E+00               0
GRID*              13371               0-5.000000000E-012.4970141843E-01+
*       1.1009293459E+00               0
GRID*              13372               0-5.000000000E-013.0040513551E-01+
*       1.0614497484E+00               0
GRID*              13373               0-5.000000000E-014.6690357347E-01+
*       1.0631022031E+00               0
GRID*              13374               0-5.000000000E-014.0426668688E-01+
*       1.0323771904E+00               0
GRID*              13375               0-5.000000000E-015.2827248602E-01+
*       1.0222269736E+00               0
GRID*              13376               0-5.000000000E-016.0050423879E-01+
*       9.9123879929E-01               0
GRID*              13377               0-5.000000000E-015.2880114470E-01+
*       9.4805059074E-01               0
GRID*              13378               0-5.000000000E-013.3582009309E-01+
*       1.0205795266E+00               0
GRID*              13379               0-5.000000000E-013.8812279814E-01+
*       9.6724110119E-01               0
GRID*              13380               0-5.000000000E-014.6960865199E-01+
*       9.0359261571E-01               0
GRID*              13381               0-5.000000000E-014.1058767288E-01+
*       9.1804836014E-01               0
GRID*              13382               0-5.000000000E-019.3525068548E-01+
*       1.0537648752E-01               0
GRID*              13383               06.2160437612E-01-1.000000000E+00+
*       7.2224269560E-02               0
GRID*              13384               0-6.211184893E-01-1.000000000E+00+
*       7.2807175153E-02               0
GRID*              13385               0-6.246915999E-01-1.000000000E+00+
*       3.7375806146E-01               0
GRID*              13386               0-6.243026029E-01-1.000000000E+00+
*       2.2454924833E-01               0
GRID*              13387               0-6.249416422E-01-1.000000000E+00+
*       5.2256573368E-01               0
GRID*              13388               0-6.249885970E-01-1.000000000E+00+
*       6.5858974724E-01               0
GRID*              13389               0-2.898578963E-01-1.000000000E+00+
*       -1.249504826E-01               0
GRID*              13390               0-4.382755759E-01-1.000000000E+00+
*       -1.190519380E-01               0
GRID*              13391               0-1.012707068E+00-1.000000000E+00+
*       -1.253738140E-01               0
GRID*              13392               0-1.154624451E+00-1.000000000E+00+
*       -1.253099601E-01               0
GRID*              13393               0-8.651710670E-01-1.000000000E+00+
*       -1.299415303E-01               0
GRID*              13394               0-6.033296586E-01-1.000000000E+00+
*       -9.997230976E-02               0
GRID*              13395               0-7.388193677E-01-1.000000000E+00+
*       -1.477849542E-01               0
GRID*              13396               02.8985785081E-01-1.000000000E+00+
*       -1.249504746E-01               0
GRID*              13397               0-1.449470951E-01-1.000000000E+00+
*       -1.249475887E-01               0
GRID*              13398               01.4494708746E-01-1.000000000E+00+
*       -1.249475871E-01               0
GRID*              13399               0-1.272371452E-09-1.000000000E+00+
*       -1.249358689E-01               0
GRID*              13400               04.3855341413E-01-1.000000000E+00+
*       -1.199448593E-01               0
GRID*              13401               01.0127070113E+00-1.000000000E+00+
*       -1.253737930E-01               0
GRID*              13402               01.1546244424E+00-1.000000000E+00+
*       -1.253099564E-01               0
GRID*              13403               08.6411032838E-01-1.000000000E+00+
*       -1.309937736E-01               0
GRID*              13404               07.3876540710E-01-1.000000000E+00+
*       -1.476857965E-01               0
GRID*              13405               06.0334085036E-01-1.000000000E+00+
*       -9.989784802E-02               0
GRID*              13406               06.2469158975E-01-1.000000000E+00+
*       3.7375806062E-01               0
GRID*              13407               06.2439662329E-01-1.000000000E+00+
*       2.2445693350E-01               0
GRID*              13408               06.2494164023E-01-1.000000000E+00+
*       5.2256573354E-01               0
GRID*              13409               06.2498859662E-01-1.000000000E+00+
*       6.5858974722E-01               0
GRID*              13410               0-5.605592447E-01-1.000000000E+00+
*       1.1140358758E-01               0
GRID*              13411               0-5.605592447E-01-1.000000000E+00+
*       3.6403587576E-02               0
GRID*              13412               0-5.621513015E-01-1.000000000E+00+
*       1.8727462417E-01               0
GRID*              13413               0-5.621513015E-01-1.000000000E+00+
*       2.6227462417E-01               0
GRID*              13414               0-6.227105461E-01-1.000000000E+00+
*       1.4867821174E-01               0
GRID*              13415               0-6.871513015E-01-1.000000000E+00+
*       1.8727462417E-01               0
GRID*              13416               0-6.855592447E-01-1.000000000E+00+
*       1.1140358758E-01               0
GRID*              13417               0-6.871513015E-01-1.000000000E+00+
*       2.6227462417E-01               0
GRID*              13418               0-5.623458000E-01-1.000000000E+00+
*       3.3687903073E-01               0
GRID*              13419               0-5.623458000E-01-1.000000000E+00+
*       4.1187903073E-01               0
GRID*              13420               0-6.244971014E-01-1.000000000E+00+
*       2.9915365489E-01               0
GRID*              13421               0-6.873458000E-01-1.000000000E+00+
*       3.3687903073E-01               0
GRID*              13422               0-6.873458000E-01-1.000000000E+00+
*       4.1187903073E-01               0
GRID*              13423               0-5.624708211E-01-1.000000000E+00+
*       4.8628286684E-01               0
GRID*              13424               0-5.624708211E-01-1.000000000E+00+
*       5.6128286684E-01               0
GRID*              13425               0-6.248166211E-01-1.000000000E+00+
*       4.4816189757E-01               0
GRID*              13426               0-6.874708211E-01-1.000000000E+00+
*       4.8628286684E-01               0
GRID*              13427               0-6.874708211E-01-1.000000000E+00+
*       5.6128286684E-01               0
GRID*              13428               0-5.624942985E-01-1.000000000E+00+
*       6.2929487362E-01               0
GRID*              13429               0-6.249651196E-01-1.000000000E+00+
*       5.9057774046E-01               0
GRID*              13430               0-5.624942985E-01-1.000000000E+00+
*       7.0429487362E-01               0
GRID*              13431               0-6.249942985E-01-1.000000000E+00+
*       7.0429487362E-01               0
GRID*              13432               0-6.874942985E-01-1.000000000E+00+
*       6.2929487362E-01               0
GRID*              13433               0-6.874942985E-01-1.000000000E+00+
*       7.0429487362E-01               0
GRID*              13434               06.8580218806E-01-1.000000000E+00+
*       1.1111213478E-01               0
GRID*              13435               06.8580218806E-01-1.000000000E+00+
*       3.6112134780E-02               0
GRID*              13436               0-3.287524776E-01-1.000000000E+00+
*       -1.874752413E-01               0
GRID*              13437               0-2.552230658E-01-1.000000000E+00+
*       -1.874752413E-01               0
GRID*              13438               0-4.029613174E-01-1.000000000E+00+
*       -1.845259690E-01               0
GRID*              13439               0-4.764907291E-01-1.000000000E+00+
*       -1.845259690E-01               0
GRID*              13440               0-3.640667361E-01-1.000000000E+00+
*       -1.220012103E-01               0
GRID*              13441               0-3.235003767E-01-1.000000000E+00+
*       -6.247524131E-02               0
GRID*              13442               0-3.977092165E-01-1.000000000E+00+
*       -5.952596899E-02               0
GRID*              13443               0-1.057824122E+00-1.000000000E+00+
*       -1.876869070E-01               0
GRID*              13444               0-9.842947103E-01-1.000000000E+00+
*       -1.876869070E-01               0
GRID*              13445               0-1.118978892E+00-1.000000000E+00+
*       -6.265498006E-02               0
GRID*              13446               0-1.083665760E+00-1.000000000E+00+
*       -1.253418870E-01               0
GRID*              13447               0-1.048020200E+00-1.000000000E+00+
*       -6.268690699E-02               0
GRID*              13448               0-1.202312226E+00-1.000000000E+00+
*       -6.265498006E-02               0
GRID*              13449               0-1.202312226E+00-1.000000000E+00+
*       -1.251549801E-01               0
GRID*              13450               0-1.128782814E+00-1.000000000E+00+
*       -1.876549801E-01               0
GRID*              13451               0-1.202312226E+00-1.000000000E+00+
*       -1.876549801E-01               0
GRID*              13452               0-9.646868671E-01-1.000000000E+00+
*       -6.268690699E-02               0
GRID*              13453               0-9.389390673E-01-1.000000000E+00+
*       -1.276576721E-01               0
GRID*              13454               0-8.909188668E-01-1.000000000E+00+
*       -6.497076513E-02               0
GRID*              13455               0-9.105267100E-01-1.000000000E+00+
*       -1.899707651E-01               0
GRID*              13456               0-8.369972982E-01-1.000000000E+00+
*       -1.899707651E-01               0
GRID*              13457               0-5.590177705E-01-1.000000000E+00+
*       -1.749861549E-01               0
GRID*              13458               0-5.208026173E-01-1.000000000E+00+
*       -1.095121239E-01               0
GRID*              13459               0-7.738214486E-01-1.000000000E+00+
*       -1.988924771E-01               0
GRID*              13460               0-8.019952174E-01-1.000000000E+00+
*       -1.388632423E-01               0
GRID*              13461               0-7.002920368E-01-1.000000000E+00+
*       -1.988924771E-01               0
GRID*              13462               0-6.325471823E-01-1.000000000E+00+
*       -1.749861549E-01               0
GRID*              13463               0-6.710745132E-01-1.000000000E+00+
*       -1.238786320E-01               0
GRID*              13464               0-4.691377880E-01-1.000000000E+00+
*       -5.952596899E-02               0
GRID*              13465               0-5.516648293E-01-1.000000000E+00+
*       -4.998615488E-02               0
GRID*              13466               0-8.075855335E-01-1.000000000E+00+
*       -6.497076513E-02               0
GRID*              13467               0-7.444096839E-01-1.000000000E+00+
*       -7.389247712E-02               0
GRID*              13468               0-6.122240740E-01-1.000000000E+00+
*       -1.358256730E-02               0
GRID*              13469               0-6.766648293E-01-1.000000000E+00+
*       -4.998615488E-02               0
GRID*              13470               0-6.855592447E-01-1.000000000E+00+
*       3.6403587576E-02               0
GRID*              13471               0-2.520718053E-01-1.000000000E+00+
*       -6.247524131E-02               0
GRID*              13472               0-2.174024957E-01-1.000000000E+00+
*       -1.249490357E-01               0
GRID*              13473               0-1.796164047E-01-1.000000000E+00+
*       -6.247379437E-02               0
GRID*              13474               0-1.827676652E-01-1.000000000E+00+
*       -1.874737944E-01               0
GRID*              13475               0-1.092382534E-01-1.000000000E+00+
*       -1.874737944E-01               0
GRID*              13476               01.8276766138E-01-1.000000000E+00+
*       -1.874737935E-01               0
GRID*              13477               01.0923824961E-01-1.000000000E+00+
*       -1.874737935E-01               0
GRID*              13478               02.5522304305E-01-1.000000000E+00+
*       -1.874752373E-01               0
GRID*              13479               02.1740246914E-01-1.000000000E+00+
*       -1.249490308E-01               0
GRID*              13480               02.5207178255E-01-1.000000000E+00+
*       -6.247523729E-02               0
GRID*              13481               03.2350035398E-01-1.000000000E+00+
*       -6.247523729E-02               0
GRID*              13482               01.7961640087E-01-1.000000000E+00+
*       -6.247379353E-02               0
GRID*              13483               03.6764705246E-02-1.000000000E+00+
*       -1.874679344E-01               0
GRID*              13484               07.2473543095E-02-1.000000000E+00+
*       -1.249417280E-01               0
GRID*              13485               0-3.676470652E-02-1.000000000E+00+
*       -1.874679344E-01               0
GRID*              13486               0-7.247354818E-02-1.000000000E+00+
*       -1.249417288E-01               0
GRID*              13487               01.0818782945E-01-1.000000000E+00+
*       -6.247379353E-02               0
GRID*              13488               03.5714285078E-02-1.000000000E+00+
*       -6.246793444E-02               0
GRID*              13489               0-3.571428635E-02-1.000000000E+00+
*       -6.246793444E-02               0
GRID*              13490               0-1.081878333E-01-1.000000000E+00+
*       -6.247379437E-02               0
GRID*              13491               03.2875245482E-01-1.000000000E+00+
*       -1.874752373E-01               0
GRID*              13492               04.0310023648E-01-1.000000000E+00+
*       -1.849724297E-01               0
GRID*              13493               04.7662964824E-01-1.000000000E+00+
*       -1.849724297E-01               0
GRID*              13494               03.6420563247E-01-1.000000000E+00+
*       -1.224476670E-01               0
GRID*              13495               03.9784813564E-01-1.000000000E+00+
*       -5.997242967E-02               0
GRID*              13496               01.0578240939E+00-1.000000000E+00+
*       -1.876868965E-01               0
GRID*              13497               09.8429468212E-01-1.000000000E+00+
*       -1.876868965E-01               0
GRID*              13498               01.1189788879E+00-1.000000000E+00+
*       -6.265497821E-02               0
GRID*              13499               01.0480201723E+00-1.000000000E+00+
*       -6.268689652E-02               0
GRID*              13500               01.0836657268E+00-1.000000000E+00+
*       -1.253418747E-01               0
GRID*              13501               01.2023122212E+00-1.000000000E+00+
*       -6.265497821E-02               0
GRID*              13502               01.2023122212E+00-1.000000000E+00+
*       -1.251549782E-01               0
GRID*              13503               01.1287828094E+00-1.000000000E+00+
*       -1.876549782E-01               0
GRID*              13504               01.2023122212E+00-1.000000000E+00+
*       -1.876549782E-01               0
GRID*              13505               09.0999634066E-01-1.000000000E+00+
*       -1.904968868E-01               0
GRID*              13506               08.3646692890E-01-1.000000000E+00+
*       -1.904968868E-01               0
GRID*              13507               09.3840866984E-01-1.000000000E+00+
*       -1.281837833E-01               0
GRID*              13508               09.6468683899E-01-1.000000000E+00+
*       -6.268689652E-02               0
GRID*              13509               08.9038849752E-01-1.000000000E+00+
*       -6.549688678E-02               0
GRID*              13510               05.5902336635E-01-1.000000000E+00+
*       -1.749489240E-01               0
GRID*              13511               05.2094713224E-01-1.000000000E+00+
*       -1.099213537E-01               0
GRID*              13512               07.7379446826E-01-1.000000000E+00+
*       -1.988428983E-01               0
GRID*              13513               07.0026505649E-01-1.000000000E+00+
*       -1.988428983E-01               0
GRID*              13514               08.0143786774E-01-1.000000000E+00+
*       -1.393397850E-01               0
GRID*              13515               06.3255277812E-01-1.000000000E+00+
*       -1.749489240E-01               0
GRID*              13516               06.7105312873E-01-1.000000000E+00+
*       -1.237918223E-01               0
GRID*              13517               04.6927670707E-01-1.000000000E+00+
*       -5.997242967E-02               0
GRID*              13518               05.5167042518E-01-1.000000000E+00+
*       -4.994892401E-02               0
GRID*              13519               08.0705516419E-01-1.000000000E+00+
*       -6.549688678E-02               0
GRID*              13520               07.4438270355E-01-1.000000000E+00+
*       -7.384289826E-02               0
GRID*              13521               06.1247261324E-01-1.000000000E+00+
*       -1.383678923E-02               0
GRID*              13522               05.6080218806E-01-1.000000000E+00+
*       3.6112134780E-02               0
GRID*              13523               06.7667042518E-01-1.000000000E+00+
*       -4.994892401E-02               0
GRID*              13524               06.8719831164E-01-1.000000000E+00+
*       1.8722846675E-01               0
GRID*              13525               06.8719831164E-01-1.000000000E+00+
*       2.6222846675E-01               0
GRID*              13526               06.2300049971E-01-1.000000000E+00+
*       1.4834060153E-01               0
GRID*              13527               05.6080218806E-01-1.000000000E+00+
*       1.1111213478E-01               0
GRID*              13528               05.6219831164E-01-1.000000000E+00+
*       1.8722846675E-01               0
GRID*              13529               05.6219831164E-01-1.000000000E+00+
*       2.6222846675E-01               0
GRID*              13530               06.8734579488E-01-1.000000000E+00+
*       3.3687903031E-01               0
GRID*              13531               06.8734579488E-01-1.000000000E+00+
*       4.1187903031E-01               0
GRID*              13532               06.2454410652E-01-1.000000000E+00+
*       2.9910749706E-01               0
GRID*              13533               05.6234579488E-01-1.000000000E+00+
*       3.3687903031E-01               0
GRID*              13534               05.6234579488E-01-1.000000000E+00+
*       4.1187903031E-01               0
GRID*              13535               06.8747082012E-01-1.000000000E+00+
*       4.8628286677E-01               0
GRID*              13536               06.8747082012E-01-1.000000000E+00+
*       5.6128286677E-01               0
GRID*              13537               06.2481661499E-01-1.000000000E+00+
*       4.4816189708E-01               0
GRID*              13538               05.6247082012E-01-1.000000000E+00+
*       4.8628286677E-01               0
GRID*              13539               05.6247082012E-01-1.000000000E+00+
*       5.6128286677E-01               0
GRID*              13540               06.8749429831E-01-1.000000000E+00+
*       6.2929487361E-01               0
GRID*              13541               06.2496511843E-01-1.000000000E+00+
*       5.9057774038E-01               0
GRID*              13542               06.8749429831E-01-1.000000000E+00+
*       7.0429487361E-01               0
GRID*              13543               06.2499429831E-01-1.000000000E+00+
*       7.0429487361E-01               0
GRID*              13544               05.6249429831E-01-1.000000000E+00+
*       6.2929487361E-01               0
GRID*              13545               05.6249429831E-01-1.000000000E+00+
*       7.0429487361E-01               0
GRID*              13546               08.3264129295E-01-6.408230440E-01+
*       -2.500000000E-01               0
GRID*              13547               07.7780939875E-01-5.373329321E-01+
*       -2.500000000E-01               0
GRID*              13548               07.2188765554E-01-4.146734132E-01+
*       -2.500000000E-01               0
GRID*              13549               06.6437225216E-01-2.811578043E-01+
*       -2.500000000E-01               0
GRID*              13550               06.0441474190E-01-1.415109716E-01+
*       -2.500000000E-01               0
GRID*              13551               05.4243199552E-011.0241550908E-03+
*       -2.500000000E-01               0
GRID*              13552               04.7956953688E-011.4468934537E-01+
*       -2.500000000E-01               0
GRID*              13553               04.1653571931E-012.8924583780E-01+
*       -2.500000000E-01               0
GRID*              13554               03.5231942568E-014.3529811869E-01+
*       -2.500000000E-01               0
GRID*              13555               02.8506013028E-015.8191599578E-01+
*       -2.500000000E-01               0
GRID*              13556               02.1471194153E-017.2586428928E-01+
*       -2.500000000E-01               0
GRID*              13557               01.4359136603E-018.6513399342E-01+
*       -2.500000000E-01               0
GRID*              13558               05.6733081999E-012.6732870409E-01+
*       -2.500000000E-01               0
GRID*              13559               06.5980983554E-013.9149504599E-01+
*       -2.500000000E-01               0
GRID*              13560               07.6479542248E-015.1952036335E-01+
*       -2.500000000E-01               0
GRID*              13561               08.2413114589E-016.4536158275E-01+
*       -2.500000000E-01               0
GRID*              13562               01.1499469648E+00-5.993586722E-01+
*       -2.500000000E-01               0
GRID*              13563               09.5530092187E-015.5268352577E-01+
*       -2.500000000E-01               0
GRID*              13564               08.8896097388E-014.6765719174E-01+
*       -2.500000000E-01               0
GRID*              13565               08.0370105648E-013.6555409451E-01+
*       -2.500000000E-01               0
GRID*              13566               07.1518604723E-012.4512768088E-01+
*       -2.500000000E-01               0
GRID*              13567               06.2773368923E-011.2235936790E-01+
*       -2.500000000E-01               0
GRID*              13568               08.7400211503E-015.6799826828E-01+
*       -2.500000000E-01               0
GRID*              13569               01.1768762834E+007.3308288340E-01+
*       -2.500000000E-01               0
GRID*              13570               01.1501297152E+00-4.646627952E-01+
*       -2.500000000E-01               0
GRID*              13571               01.1420705200E+00-3.168369386E-01+
*       -2.500000000E-01               0
GRID*              13572               01.1335045683E+00-1.595017463E-01+
*       -2.500000000E-01               0
GRID*              13573               01.1356809766E+00-1.441068058E-03+
*       -2.500000000E-01               0
GRID*              13574               01.1373430447E+001.4865549898E-01+
*       -2.500000000E-01               0
GRID*              13575               01.1348795319E+002.9672785580E-01+
*       -2.500000000E-01               0
GRID*              13576               01.1195608584E+004.4967966034E-01+
*       -2.500000000E-01               0
GRID*              13577               01.1279388939E+005.7078703988E-01+
*       -2.500000000E-01               0
GRID*              13578               01.1640175935E+006.5226849451E-01+
*       -2.500000000E-01               0
GRID*              13579               06.8823775377E-01-2.285919281E-02+
*       -2.500000000E-01               0
GRID*              13580               07.4654755974E-01-1.684706160E-01+
*       -2.500000000E-01               0
GRID*              13581               07.9948001135E-01-3.112040685E-01+
*       -2.500000000E-01               0
GRID*              13582               08.4728846078E-01-4.453581205E-01+
*       -2.500000000E-01               0
GRID*              13583               08.9127701295E-01-5.646173579E-01+
*       -2.500000000E-01               0
GRID*              13584               01.0087982274E+002.1824712778E-01+
*       -2.500000000E-01               0
GRID*              13585               08.5847060481E-012.2661788047E-01+
*       -2.500000000E-01               0
GRID*              13586               09.3205717265E-013.4917577889E-01+
*       -2.500000000E-01               0
GRID*              13587               01.0379840554E+003.5533297332E-01+
*       -2.500000000E-01               0
GRID*              13588               09.9589253791E-014.5506461461E-01+
*       -2.500000000E-01               0
GRID*              13589               01.0443119181E+005.5190958611E-01+
*       -2.500000000E-01               0
GRID*              13590               09.1763586786E-018.3437019350E-02+
*       -2.500000000E-01               0
GRID*              13591               08.3453320183E-01-4.724668710E-02+
*       -2.500000000E-01               0
GRID*              13592               07.7356225112E-011.0158293134E-01+
*       -2.500000000E-01               0
GRID*              13593               09.9615036440E-01-7.229772527E-02+
*       -2.500000000E-01               0
GRID*              13594               01.0403596305E+007.6249161206E-02+
*       -2.500000000E-01               0
GRID*              13595               08.8745092610E-01-2.014773056E-01+
*       -2.500000000E-01               0
GRID*              13596               01.0223208596E+00-2.524859794E-01+
*       -2.500000000E-01               0
GRID*              13597               01.0633684951E+00-5.398545951E-01+
*       -2.500000000E-01               0
GRID*              13598               01.0449252553E+00-4.030888008E-01+
*       -2.500000000E-01               0
GRID*              13599               09.6273611645E-01-4.881714028E-01+
*       -2.500000000E-01               0
GRID*              13600               09.2753549702E-01-3.509161352E-01+
*       -2.500000000E-01               0
GRID*              13601               01.0581617274E+009.2165449367E-01+
*       -2.500000000E-01               0
GRID*              13602               01.1405182465E+009.0009017184E-01+
*       -2.500000000E-01               0
GRID*              13603               04.4374278709E-015.6739132522E-01+
*       -2.500000000E-01               0
GRID*              13604               06.0419600365E-015.4403493530E-01+
*       -2.500000000E-01               0
GRID*              13605               05.0741050497E-014.1558435260E-01+
*       -2.500000000E-01               0
GRID*              13606               07.9041304762E-017.6057863290E-01+
*       -2.500000000E-01               0
GRID*              13607               07.2863375937E-018.7833789496E-01+
*       -2.500000000E-01               0
GRID*              13608               08.4195852021E-018.6357682729E-01+
*       -2.500000000E-01               0
GRID*              13609               09.0899903062E-019.1541239352E-01+
*       -2.500000000E-01               0
GRID*              13610               02.9397352801E-018.6206103105E-01+
*       -2.500000000E-01               0
GRID*              13611               03.7146899114E-017.1894914543E-01+
*       -2.500000000E-01               0
GRID*              13612               04.4823376533E-018.6212780626E-01+
*       -2.500000000E-01               0
GRID*              13613               05.4831170639E-017.1464603719E-01+
*       -2.500000000E-01               0
GRID*              13614               05.9665612419E-018.7318861483E-01+
*       -2.500000000E-01               0
GRID*              13615               06.7499761237E-017.7826194204E-01+
*       -2.500000000E-01               0
GRID*              13616               07.0241143851E-016.6082032059E-01+
*       -2.500000000E-01               0
GRID*              13617               01.3269434813E-015.9383870978E-01+
*       -2.500000000E-01               0
GRID*              13618               0-1.719303364E-026.0482591989E-01+
*       -2.500000000E-01               0
GRID*              13619               0-1.665812946E-016.1675886178E-01+
*       -2.500000000E-01               0
GRID*              13620               0-3.158706026E-016.3254105055E-01+
*       -2.500000000E-01               0
GRID*              13621               0-4.540976679E-016.5815633939E-01+
*       -2.500000000E-01               0
GRID*              13622               0-5.742436013E-016.7614856073E-01+
*       -2.500000000E-01               0
GRID*              13623               0-6.847450042E-016.8206483184E-01+
*       -2.500000000E-01               0
GRID*              13624               0-7.878980831E-016.9524972883E-01+
*       -2.500000000E-01               0
GRID*              13625               0-8.747372163E-019.0159535187E-01+
*       -2.500000000E-01               0
GRID*              13626               0-1.058185242E+009.2163916671E-01+
*       -2.500000000E-01               0
GRID*              13627               0-1.140538551E+009.0007341888E-01+
*       -2.500000000E-01               0
GRID*              13628               0-4.409260089E-018.8363775679E-01+
*       -2.500000000E-01               0
GRID*              13629               0-5.103946140E-017.7353688601E-01+
*       -2.500000000E-01               0
GRID*              13630               0-8.285679489E-017.9947601176E-01+
*       -2.500000000E-01               0
GRID*              13631               0-7.335548624E-017.6434407239E-01+
*       -2.500000000E-01               0
GRID*              13632               0-6.354934897E-017.7503410911E-01+
*       -2.500000000E-01               0
GRID*              13633               0-5.821289423E-018.8449605810E-01+
*       -2.500000000E-01               0
GRID*              13634               0-7.323391755E-018.7529270689E-01+
*       -2.500000000E-01               0
GRID*              13635               0-4.730999117E-038.6908274857E-01+
*       -2.500000000E-01               0
GRID*              13636               0-1.520570057E-018.7359912594E-01+
*       -2.500000000E-01               0
GRID*              13637               0-2.979988856E-018.7873639325E-01+
*       -2.500000000E-01               0
GRID*              13638               0-3.755873466E-017.6308010578E-01+
*       -2.500000000E-01               0
GRID*              13639               06.4027900414E-027.3346485776E-01+
*       -2.500000000E-01               0
GRID*              13640               0-2.323284381E-017.5118132386E-01+
*       -2.500000000E-01               0
GRID*              13641               0-8.497381953E-027.4153479079E-01+
*       -2.500000000E-01               0
GRID*              13642               0-1.006590033E-014.7709649535E-01+
*       -2.500000000E-01               0
GRID*              13643               0-1.841650092E-013.4812718833E-01+
*       -2.500000000E-01               0
GRID*              13644               0-2.659222796E-012.1780615706E-01+
*       -2.500000000E-01               0
GRID*              13645               0-3.463496913E-018.8378815740E-02+
*       -2.500000000E-01               0
GRID*              13646               0-4.285700162E-01-3.853921840E-02+
*       -2.500000000E-01               0
GRID*              13647               0-5.158930291E-01-1.630368752E-01+
*       -2.500000000E-01               0
GRID*              13648               0-6.107517302E-01-2.892397725E-01+
*       -2.500000000E-01               0
GRID*              13649               0-7.017753167E-01-4.229463661E-01+
*       -2.500000000E-01               0
GRID*              13650               0-7.779509099E-01-5.498548209E-01+
*       -2.500000000E-01               0
GRID*              13651               0-8.367205997E-01-6.510442281E-01+
*       -2.500000000E-01               0
GRID*              13652               0-1.149370860E+006.3183632327E-01+
*       -2.500000000E-01               0
GRID*              13653               0-1.139073545E+00-4.853138140E-01+
*       -2.500000000E-01               0
GRID*              13654               0-1.051323683E+00-5.658000280E-01+
*       -2.500000000E-01               0
GRID*              13655               0-1.175687478E+00-7.299784498E-01+
*       -2.500000000E-01               0
GRID*              13656               0-1.152022727E+00-6.251459764E-01+
*       -2.500000000E-01               0
GRID*              13657               0-4.932454161E-019.6781820749E-02+
*       -2.500000000E-01               0
GRID*              13658               0-5.599975999E-012.2931147122E-01+
*       -2.500000000E-01               0
GRID*              13659               0-6.292224835E-013.5771820814E-01+
*       -2.500000000E-01               0
GRID*              13660               0-6.956300726E-014.7922909992E-01+
*       -2.500000000E-01               0
GRID*              13661               0-7.480377230E-015.9353499546E-01+
*       -2.500000000E-01               0
GRID*              13662               0-4.202702378E-015.0855040296E-01+
*       -2.500000000E-01               0
GRID*              13663               0-4.883761441E-013.5914385800E-01+
*       -2.500000000E-01               0
GRID*              13664               0-6.331972942E-015.8270240452E-01+
*       -2.500000000E-01               0
GRID*              13665               0-5.316962765E-015.8230204565E-01+
*       -2.500000000E-01               0
GRID*              13666               0-5.678419440E-014.7837131313E-01+
*       -2.500000000E-01               0
GRID*              13667               0-2.536581519E-014.9017807141E-01+
*       -2.500000000E-01               0
GRID*              13668               0-3.376658838E-013.5747128765E-01+
*       -2.500000000E-01               0
GRID*              13669               0-4.154695252E-012.2472884532E-01+
*       -2.500000000E-01               0
GRID*              13670               0-5.769705775E-01-2.468243803E-02+
*       -2.500000000E-01               0
GRID*              13671               0-6.373606626E-011.0637322864E-01+
*       -2.500000000E-01               0
GRID*              13672               0-7.040311888E-012.3489025706E-01+
*       -2.500000000E-01               0
GRID*              13673               0-7.680030376E-013.6480676787E-01+
*       -2.500000000E-01               0
GRID*              13674               0-8.379133091E-014.9485159640E-01+
*       -2.500000000E-01               0
GRID*              13675               0-8.539682796E-016.2000295191E-01+
*       -2.500000000E-01               0
GRID*              13676               0-9.423727018E-015.6784880820E-01+
*       -2.500000000E-01               0
GRID*              13677               0-9.722842019E-014.5783918611E-01+
*       -2.500000000E-01               0
GRID*              13678               0-9.932843630E-013.2895524926E-01+
*       -2.500000000E-01               0
GRID*              13679               0-1.007932783E+001.9059301502E-01+
*       -2.500000000E-01               0
GRID*              13680               0-1.030818659E+006.0065862830E-02+
*       -2.500000000E-01               0
GRID*              13681               0-1.064482410E+00-6.309605328E-02+
*       -2.500000000E-01               0
GRID*              13682               0-1.100690365E+00-1.994303835E-01+
*       -2.500000000E-01               0
GRID*              13683               0-1.120658459E+00-3.443621859E-01+
*       -2.500000000E-01               0
GRID*              13684               0-1.123289762E+002.8328916076E-01+
*       -2.500000000E-01               0
GRID*              13685               0-1.067954083E+005.5564510869E-01+
*       -2.500000000E-01               0
GRID*              13686               0-1.108336899E+004.2374209758E-01+
*       -2.500000000E-01               0
GRID*              13687               0-1.134115430E+001.4494865087E-01+
*       -2.500000000E-01               0
GRID*              13688               0-1.144080039E+003.0519985425E-02+
*       -2.500000000E-01               0
GRID*              13689               0-9.752485720E-01-3.090485290E-01+
*       -2.500000000E-01               0
GRID*              13690               0-8.654273710E-01-4.274242785E-01+
*       -2.500000000E-01               0
GRID*              13691               0-1.012956706E+00-4.489807616E-01+
*       -2.500000000E-01               0
GRID*              13692               0-9.245943548E-01-5.590212040E-01+
*       -2.500000000E-01               0
GRID*              13693               0-7.984837591E-01-2.640350101E-01+
*       -2.500000000E-01               0
GRID*              13694               0-6.719874000E-01-1.396412121E-01+
*       -2.500000000E-01               0
GRID*              13695               0-8.625836965E-012.4301621935E-01+
*       -2.500000000E-01               0
GRID*              13696               0-8.874796840E-013.7895113330E-01+
*       -2.500000000E-01               0
GRID*              13697               0-9.059841958E-019.7077818047E-02+
*       -2.500000000E-01               0
GRID*              13698               0-9.323172099E-01-2.484052369E-02+
*       -2.500000000E-01               0
GRID*              13699               0-9.490842310E-01-1.582958903E-01+
*       -2.500000000E-01               0
GRID*              13700               0-7.754831978E-011.1379925053E-01+
*       -2.500000000E-01               0
GRID*              13701               0-8.295376107E-011.6429290537E-02+
*       -2.500000000E-01               0
GRID*              13702               0-7.183102449E-01-3.656427653E-03+
*       -2.500000000E-01               0
GRID*              13703               0-8.171107471E-01-9.387802489E-02+
*       -2.500000000E-01               0
GRID*              13704               0-1.058147509E+00-9.216550854E-01+
*       -2.500000000E-01               0
GRID*              13705               0-1.140515279E+00-9.000936133E-01+
*       -2.500000000E-01               0
GRID*              13706               08.8250294159E-01-9.070689131E-01+
*       -2.500000000E-01               0
GRID*              13707               01.0581994965E+00-9.216385609E-01+
*       -2.500000000E-01               0
GRID*              13708               01.1405415505E+00-9.000699547E-01+
*       -2.500000000E-01               0
GRID*              13709               0-2.793982531E-01-4.852157390E-02+
*       -2.500000000E-01               0
GRID*              13710               0-2.112035532E-01-1.863929758E-01+
*       -2.500000000E-01               0
GRID*              13711               0-1.412894484E-01-3.244623371E-01+
*       -2.500000000E-01               0
GRID*              13712               0-6.975566986E-02-4.621183365E-01+
*       -2.500000000E-01               0
GRID*              13713               02.8036390036E-03-5.988605674E-01+
*       -2.500000000E-01               0
GRID*              13714               07.5597761900E-02-7.343824266E-01+
*       -2.500000000E-01               0
GRID*              13715               01.4823424797E-01-8.681595827E-01+
*       -2.500000000E-01               0
GRID*              13716               0-6.263883931E-01-5.627658537E-01+
*       -2.500000000E-01               0
GRID*              13717               0-5.604550020E-01-7.230183430E-01+
*       -2.500000000E-01               0
GRID*              13718               0-4.542035708E-01-8.651003596E-01+
*       -2.500000000E-01               0
GRID*              13719               0-6.016365678E-01-8.770001665E-01+
*       -2.500000000E-01               0
GRID*              13720               0-6.829141779E-01-7.854442364E-01+
*       -2.500000000E-01               0
GRID*              13721               0-7.153304213E-01-6.729558397E-01+
*       -2.500000000E-01               0
GRID*              13722               0-7.331474211E-01-8.846119238E-01+
*       -2.500000000E-01               0
GRID*              13723               0-7.964917395E-01-7.672585499E-01+
*       -2.500000000E-01               0
GRID*              13724               0-8.478544481E-01-8.798554089E-01+
*       -2.500000000E-01               0
GRID*              13725               0-2.938221817E-01-3.149751733E-01+
*       -2.500000000E-01               0
GRID*              13726               0-4.495544370E-01-3.035929256E-01+
*       -2.500000000E-01               0
GRID*              13727               0-3.630860523E-01-1.756842211E-01+
*       -2.500000000E-01               0
GRID*              13728               0-3.781628675E-01-4.450616572E-01+
*       -2.500000000E-01               0
GRID*              13729               0-4.646602006E-01-5.786520059E-01+
*       -2.500000000E-01               0
GRID*              13730               0-5.385879682E-01-4.336588813E-01+
*       -2.500000000E-01               0
GRID*              13731               0-1.484584291E-01-5.929504014E-01+
*       -2.500000000E-01               0
GRID*              13732               0-3.036250107E-01-5.867300607E-01+
*       -2.500000000E-01               0
GRID*              13733               0-2.224625733E-01-4.543754995E-01+
*       -2.500000000E-01               0
GRID*              13734               0-3.841787001E-01-7.239955759E-01+
*       -2.500000000E-01               0
GRID*              13735               0-3.001061768E-01-8.635332567E-01+
*       -2.500000000E-01               0
GRID*              13736               0-1.488078184E-01-8.644602529E-01+
*       -2.500000000E-01               0
GRID*              13737               02.9219381397E-04-8.662429827E-01+
*       -2.500000000E-01               0
GRID*              13738               0-7.402104623E-02-7.306669563E-01+
*       -2.500000000E-01               0
GRID*              13739               0-2.264182371E-01-7.271783377E-01+
*       -2.500000000E-01               0
GRID*              13740               03.3110490378E-011.6466074338E-01+
*       -2.500000000E-01               0
GRID*              13741               01.8220126563E-011.8159740026E-01+
*       -2.500000000E-01               0
GRID*              13742               03.3251497064E-021.9581091582E-01+
*       -2.500000000E-01               0
GRID*              13743               0-1.161342851E-012.0772332433E-01+
*       -2.500000000E-01               0
GRID*              13744               02.0015304356E-014.5115017239E-01+
*       -2.500000000E-01               0
GRID*              13745               04.9523064752E-024.6442425749E-01+
*       -2.500000000E-01               0
GRID*              13746               02.6642636415E-013.0739850887E-01+
*       -2.500000000E-01               0
GRID*              13747               01.1635588827E-013.2270917797E-01+
*       -2.500000000E-01               0
GRID*              13748               0-3.362085075E-023.3589053241E-01+
*       -2.500000000E-01               0
GRID*              13749               01.5134180204E-01-6.055772052E-01+
*       -2.500000000E-01               0
GRID*              13750               02.9800943296E-01-6.128065068E-01+
*       -2.500000000E-01               0
GRID*              13751               04.4251839869E-01-6.208865118E-01+
*       -2.500000000E-01               0
GRID*              13752               05.8360491143E-01-6.295198925E-01+
*       -2.500000000E-01               0
GRID*              13753               07.1709002431E-01-6.373156366E-01+
*       -2.500000000E-01               0
GRID*              13754               05.8991308488E-01-8.740090444E-01+
*       -2.500000000E-01               0
GRID*              13755               06.5858341060E-01-7.513304319E-01+
*       -2.500000000E-01               0
GRID*              13756               07.4927190715E-01-8.740961408E-01+
*       -2.500000000E-01               0
GRID*              13757               07.9611838826E-01-7.480804849E-01+
*       -2.500000000E-01               0
GRID*              13758               08.5061174411E-01-8.350438908E-01+
*       -2.500000000E-01               0
GRID*              13759               02.9533968091E-01-8.703506036E-01+
*       -2.500000000E-01               0
GRID*              13760               04.4203150918E-01-8.725468429E-01+
*       -2.500000000E-01               0
GRID*              13761               05.1445092494E-01-7.485520001E-01+
*       -2.500000000E-01               0
GRID*              13762               03.6934662345E-01-7.439929494E-01+
*       -2.500000000E-01               0
GRID*              13763               02.2303462434E-01-7.392731419E-01+
*       -2.500000000E-01               0
GRID*              13764               03.9602471553E-012.2224600708E-02+
*       -2.500000000E-01               0
GRID*              13765               02.4856584131E-014.0232904407E-02+
*       -2.500000000E-01               0
GRID*              13766               01.0035529924E-015.5456502634E-02+
*       -2.500000000E-01               0
GRID*              13767               0-4.843604534E-026.8244583038E-02+
*       -2.500000000E-01               0
GRID*              13768               0-1.976740992E-017.9073559412E-02+
*       -2.500000000E-01               0
GRID*              13769               07.9749992488E-02-4.709357644E-01+
*       -2.500000000E-01               0
GRID*              13770               02.2720123829E-01-4.804418524E-01+
*       -2.500000000E-01               0
GRID*              13771               03.7241767914E-01-4.912706214E-01+
*       -2.500000000E-01               0
GRID*              13772               05.1443440180E-01-5.040721688E-01+
*       -2.500000000E-01               0
GRID*              13773               06.5081912490E-01-5.192450708E-01+
*       -2.500000000E-01               0
GRID*              13774               05.8746382079E-01-3.916114518E-01+
*       -2.500000000E-01               0
GRID*              13775               05.2428169324E-01-2.572078469E-01+
*       -2.500000000E-01               0
GRID*              13776               04.6050257443E-01-1.188037904E-01+
*       -2.500000000E-01               0
GRID*              13777               04.4734790999E-01-3.733397015E-01+
*       -2.500000000E-01               0
GRID*              13778               03.8101282769E-01-2.380889839E-01+
*       -2.500000000E-01               0
GRID*              13779               03.1487444026E-01-1.000375506E-01+
*       -2.500000000E-01               0
GRID*              13780               03.0354080034E-01-3.584705058E-01+
*       -2.500000000E-01               0
GRID*              13781               02.3543245180E-01-2.224096246E-01+
*       -2.500000000E-01               0
GRID*              13782               01.6780337444E-01-8.429322810E-02+
*       -2.500000000E-01               0
GRID*              13783               01.9531766944E-02-7.077402531E-02+
*       -2.500000000E-01               0
GRID*              13784               0-6.091285057E-02-1.971667913E-01+
*       -2.500000000E-01               0
GRID*              13785               0-1.296536308E-01-5.931131224E-02+
*       -2.500000000E-01               0
GRID*              13786               08.8922147833E-03-3.347818666E-01+
*       -2.500000000E-01               0
GRID*              13787               08.8097885623E-02-2.092247521E-01+
*       -2.500000000E-01               0
GRID*              13788               01.5724557102E-01-3.461618503E-01+
*       -2.500000000E-01               0
GRID*              13789               01.1844389895E+00-7.018347477E-01+
*       -2.500000000E-01               0
GRID*              13790               0-1.184431241E+007.0181018346E-01+
*       -2.500000000E-01               0
GRID*              13791               0-1.184442511E+008.1738590087E-01+
*       -2.500000000E-01               0
GRID*              13792               01.1844502930E+00-8.173612537E-01+
*       -2.500000000E-01               0
GRID*              13793               01.1999734824E+00-6.458331823E-01+
*       -2.500000000E-01               0
GRID*              13794               01.1999734824E+00-5.689101054E-01+
*       -2.500000000E-01               0
GRID*              13795               01.1344124719E+00-6.553602377E-01+
*       -2.500000000E-01               0
GRID*              13796               01.1116890723E+00-6.241010112E-01+
*       -2.500000000E-01               0
GRID*              13797               05.5365161306E-011.3352435664E-01+
*       -2.500000000E-01               0
GRID*              13798               05.8508284237E-016.1691761496E-02+
*       -2.500000000E-01               0
GRID*              13799               05.1100076620E-017.2856750233E-02+
*       -2.500000000E-01               0
GRID*              13800               05.2345017844E-012.0600902473E-01+
*       -2.500000000E-01               0
GRID*              13801               05.9753225461E-011.9484403599E-01+
*       -2.500000000E-01               0
GRID*              13802               08.7533877854E-016.4711030801E-01+
*       -2.500000000E-01               0
GRID*              13803               09.0027426311E-016.0842865077E-01+
*       -2.500000000E-01               0
GRID*              13804               08.4906663046E-016.0667992552E-01+
*       -2.500000000E-01               0
GRID*              13805               08.5263434064E-016.7833712149E-01+
*       -2.500000000E-01               0
GRID*              13806               09.4092366653E-016.0077127952E-01+
*       -2.500000000E-01               0
GRID*              13807               09.7768694083E-015.8884177356E-01+
*       -2.500000000E-01               0
GRID*              13808               09.1465151845E-015.6034089703E-01+
*       -2.500000000E-01               0
GRID*              13809               09.2213094787E-015.1017035875E-01+
*       -2.500000000E-01               0
GRID*              13810               08.8148154445E-015.1782773001E-01+
*       -2.500000000E-01               0
GRID*              13811               06.4125843361E-012.5622819249E-01+
*       -2.500000000E-01               0
GRID*              13812               06.7145986823E-011.8374352439E-01+
*       -2.500000000E-01               0
GRID*              13813               06.1357032777E-013.2941187504E-01+
*       -2.500000000E-01               0
GRID*              13814               06.8749794138E-013.1831136344E-01+
*       -2.500000000E-01               0
GRID*              13815               07.3175544601E-013.7852457025E-01+
*       -2.500000000E-01               0
GRID*              13816               07.5944355185E-013.0534088770E-01+
*       -2.500000000E-01               0
GRID*              13817               07.1230262901E-014.5550770467E-01+
*       -2.500000000E-01               0
GRID*              13818               07.8424823948E-014.4253722893E-01+
*       -2.500000000E-01               0
GRID*              13819               08.2687819818E-014.9358877754E-01+
*       -2.500000000E-01               0
GRID*              13820               08.4633101518E-014.1660564313E-01+
*       -2.500000000E-01               0
GRID*              13821               08.1939876875E-015.4375931581E-01+
*       -2.500000000E-01               0
GRID*              13822               07.9446328418E-015.8244097305E-01+
*       -2.500000000E-01               0
GRID*              13823               01.2134381417E+007.1269528785E-01+
*       -2.500000000E-01               0
GRID*              13824               01.2134381417E+007.8961836478E-01+
*       -2.500000000E-01               0
GRID*              13825               01.2000648576E+00-5.015621669E-01+
*       -2.500000000E-01               0
GRID*              13826               01.1500383400E+00-5.320107337E-01+
*       -2.500000000E-01               0
GRID*              13827               01.2070087968E+006.7228809341E-01+
*       -2.500000000E-01               0
GRID*              13828               01.1704469385E+006.9267568895E-01+
*       -2.500000000E-01               0
GRID*              13829               01.2000648576E+00-4.246390899E-01+
*       -2.500000000E-01               0
GRID*              13830               01.1461001176E+00-3.907498669E-01+
*       -2.500000000E-01               0
GRID*              13831               01.1960352600E+00-3.507261616E-01+
*       -2.500000000E-01               0
GRID*              13832               01.1960352600E+00-2.738030847E-01+
*       -2.500000000E-01               0
GRID*              13833               01.1377875442E+00-2.381693425E-01+
*       -2.500000000E-01               0
GRID*              13834               01.1917522841E+00-1.951354885E-01+
*       -2.500000000E-01               0
GRID*              13835               01.1917522841E+00-1.182124116E-01+
*       -2.500000000E-01               0
GRID*              13836               01.1345927724E+00-8.047140719E-02+
*       -2.500000000E-01               0
GRID*              13837               01.1928404883E+00-3.918207249E-02+
*       -2.500000000E-01               0
GRID*              13838               01.1928404883E+003.7741004432E-02+
*       -2.500000000E-01               0
GRID*              13839               01.1365120106E+007.3607215460E-02+
*       -2.500000000E-01               0
GRID*              13840               01.1936715223E+001.1278928795E-01+
*       -2.500000000E-01               0
GRID*              13841               01.1936715223E+001.8971236487E-01+
*       -2.500000000E-01               0
GRID*              13842               01.1361112883E+002.2269167739E-01+
*       -2.500000000E-01               0
GRID*              13843               01.1924397660E+002.6374854328E-01+
*       -2.500000000E-01               0
GRID*              13844               01.1924397660E+003.4067162021E-01+
*       -2.500000000E-01               0
GRID*              13845               01.1272201952E+003.7320375807E-01+
*       -2.500000000E-01               0
GRID*              13846               01.1847804292E+004.1714752248E-01+
*       -2.500000000E-01               0
GRID*              13847               01.2070087968E+005.9536501648E-01+
*       -2.500000000E-01               0
GRID*              13848               01.1889694469E+005.5462428917E-01+
*       -2.500000000E-01               0
GRID*              13849               01.1459782437E+006.1152776720E-01+
*       -2.500000000E-01               0
GRID*              13850               01.1847804292E+004.9407059940E-01+
*       -2.500000000E-01               0
GRID*              13851               01.1237498761E+005.1023335011E-01+
*       -2.500000000E-01               0
GRID*              13852               08.7956429877E-01-6.448625180E-01+
*       -2.500000000E-01               0
GRID*              13853               08.6195915295E-01-6.027202010E-01+
*       -2.500000000E-01               0
GRID*              13854               09.0888215877E-01-6.067596749E-01+
*       -2.500000000E-01               0
GRID*              13855               08.5687813489E-01-6.761025412E-01+
*       -2.500000000E-01               0
GRID*              13856               07.8458805816E-01-4.300157669E-01+
*       -2.500000000E-01               0
GRID*              13857               08.1254892977E-01-4.913455263E-01+
*       -2.500000000E-01               0
GRID*              13858               07.4984852715E-01-4.760031726E-01+
*       -2.500000000E-01               0
GRID*              13859               07.6068383344E-01-3.629387409E-01+
*       -2.500000000E-01               0
GRID*              13860               08.2338423607E-01-3.782810945E-01+
*       -2.500000000E-01               0
GRID*              13861               08.3454320585E-01-5.509751450E-01+
*       -2.500000000E-01               0
GRID*              13862               08.0522534585E-01-5.890779881E-01+
*       -2.500000000E-01               0
GRID*              13863               08.6928273687E-01-5.049877392E-01+
*       -2.500000000E-01               0
GRID*              13864               07.3192613175E-01-2.961809364E-01+
*       -2.500000000E-01               0
GRID*              13865               07.0545990595E-01-2.248142102E-01+
*       -2.500000000E-01               0
GRID*              13866               07.7301378554E-01-2.398373423E-01+
*       -2.500000000E-01               0
GRID*              13867               06.9312995385E-01-3.479156088E-01+
*       -2.500000000E-01               0
GRID*              13868               06.1533487465E-01-1.091751886E-02+
*       -2.500000000E-01               0
GRID*              13869               06.4632624784E-01-8.218508221E-02+
*       -2.500000000E-01               0
GRID*              13870               05.7342336871E-01-7.024340826E-02+
*       -2.500000000E-01               0
GRID*              13871               06.5798572150E-014.9750087545E-02+
*       -2.500000000E-01               0
GRID*              13872               06.7548115082E-01-1.549907938E-01+
*       -2.500000000E-01               0
GRID*              13873               06.3439349703E-01-2.113343880E-01+
*       -2.500000000E-01               0
GRID*              13874               07.1739265676E-01-9.566490442E-02+
*       -2.500000000E-01               0
GRID*              13875               08.3108583064E-012.9608598749E-01+
*       -2.500000000E-01               0
GRID*              13876               07.8682832602E-012.3587278068E-01+
*       -2.500000000E-01               0
GRID*              13877               01.0718388797E+002.5748749179E-01+
*       -2.500000000E-01               0
GRID*              13878               01.0730706360E+001.8345131338E-01+
*       -2.500000000E-01               0
GRID*              13879               01.1478884237E+007.2225710796E-01+
*       -2.500000000E-01               0
GRID*              13880               01.1478771424E+007.6086053708E-01+
*       -2.500000000E-01               0
GRID*              13881               08.9526388873E-012.8789682968E-01+
*       -2.500000000E-01               0
GRID*              13882               09.7042770002E-012.8371145334E-01+
*       -2.500000000E-01               0
GRID*              13883               09.3363441610E-012.2243250413E-01+
*       -2.500000000E-01               0
GRID*              13884               08.6787911456E-013.5736493670E-01+
*       -2.500000000E-01               0
GRID*              13885               09.1050907326E-014.0841648531E-01+
*       -2.500000000E-01               0
GRID*              13886               01.0233911414E+002.8679005055E-01+
*       -2.500000000E-01               0
GRID*              13887               01.0864317937E+003.2603041456E-01+
*       -2.500000000E-01               0
GRID*              13888               09.8502061401E-013.5225437610E-01+
*       -2.500000000E-01               0
GRID*              13889               09.4242675589E-014.6136090317E-01+
*       -2.500000000E-01               0
GRID*              13890               09.7559672989E-015.0387407019E-01+
*       -2.500000000E-01               0
GRID*              13891               09.6397485528E-014.0212019675E-01+
*       -2.500000000E-01               0
GRID*              13892               01.0169382966E+004.0519879396E-01+
*       -2.500000000E-01               0
GRID*              13893               01.0787724569E+004.0250631683E-01+
*       -2.500000000E-01               0
GRID*              13894               01.0577266981E+004.5237213747E-01+
*       -2.500000000E-01               0
GRID*              13895               01.1414590788E+006.8184991351E-01+
*       -2.500000000E-01               0
GRID*              13896               01.1187539532E+006.5057739896E-01+
*       -2.500000000E-01               0
GRID*              13897               01.0201022280E+005.0348710036E-01+
*       -2.500000000E-01               0
GRID*              13898               09.9980641999E-015.5229655594E-01+
*       -2.500000000E-01               0
GRID*              13899               01.0819363882E+005.0079462322E-01+
*       -2.500000000E-01               0
GRID*              13900               01.0861254060E+005.6134831300E-01+
*       -2.500000000E-01               0
GRID*              13901               01.0221924389E+005.8845480373E-01+
*       -2.500000000E-01               0
GRID*              13902               01.0589011155E+006.0039794476E-01+
*       -2.500000000E-01               0
GRID*              13903               01.1007146033E+006.0983667165E-01+
*       -2.500000000E-01               0
GRID*              13904               07.4437414917E-011.7335530611E-01+
*       -2.500000000E-01               0
GRID*              13905               08.1601642796E-011.6410040590E-01+
*       -2.500000000E-01               0
GRID*              13906               07.0064797017E-011.1197114962E-01+
*       -2.500000000E-01               0
GRID*              13907               07.3090000244E-013.9361869263E-02+
*       -2.500000000E-01               0
GRID*              13908               07.6138547780E-01-3.505293995E-02+
*       -2.500000000E-01               0
GRID*              13909               07.9054038078E-01-1.078586516E-01+
*       -2.500000000E-01               0
GRID*              13910               08.0404772647E-012.7168122118E-02+
*       -2.500000000E-01               0
GRID*              13911               08.8805323634E-011.5502744991E-01+
*       -2.500000000E-01               0
GRID*              13912               09.6321704763E-011.5084207357E-01+
*       -2.500000000E-01               0
GRID*              13913               08.4559905949E-019.2509975343E-02+
*       -2.500000000E-01               0
GRID*              13914               08.7608453484E-011.8095166126E-02+
*       -2.500000000E-01               0
GRID*              13915               01.0659156705E+00-3.686939666E-02+
*       -2.500000000E-01               0
GRID*              13916               01.0648274663E+00-1.158997358E-01+
*       -2.500000000E-01               0
GRID*              13917               01.0245789289E+001.4724814449E-01+
*       -2.500000000E-01               0
GRID*              13918               09.7899774917E-017.9843090278E-02+
*       -2.500000000E-01               0
GRID*              13919               01.0888513376E+001.1245233009E-01+
*       -2.500000000E-01               0
GRID*              13920               01.0880203036E+003.7404046574E-02+
*       -2.500000000E-01               0
GRID*              13921               09.5689311613E-015.5696470398E-03+
*       -2.500000000E-01               0
GRID*              13922               09.1534178311E-01-5.977220618E-02+
*       -2.500000000E-01               0
GRID*              13923               01.0182549974E+001.9757179676E-03+
*       -2.500000000E-01               0
GRID*              13924               08.1699924292E-01-1.849739608E-01+
*       -2.500000000E-01               0
GRID*              13925               08.4346546872E-01-2.563406870E-01+
*       -2.500000000E-01               0
GRID*              13926               08.6099206396E-01-1.243619963E-01+
*       -2.500000000E-01               0
GRID*              13927               09.4180064525E-01-1.368875154E-01+
*       -2.500000000E-01               0
GRID*              13928               01.0779127140E+00-2.059938629E-01+
*       -2.500000000E-01               0
GRID*              13929               01.0821956898E+00-2.846614590E-01+
*       -2.500000000E-01               0
GRID*              13930               01.0092356120E+00-1.623918523E-01+
*       -2.500000000E-01               0
GRID*              13931               09.5488589287E-01-2.269816425E-01+
*       -2.500000000E-01               0
GRID*              13932               01.0934978877E+00-3.599628697E-01+
*       -2.500000000E-01               0
GRID*              13933               01.0336230575E+00-3.277873901E-01+
*       -2.500000000E-01               0
GRID*              13934               01.0975274853E+00-4.338757980E-01+
*       -2.500000000E-01               0
GRID*              13935               01.1066577299E+00-5.696066337E-01+
*       -2.500000000E-01               0
GRID*              13936               01.0683998374E+00-5.943489727E-01+
*       -2.500000000E-01               0
GRID*              13937               01.1067491051E+00-5.022586952E-01+
*       -2.500000000E-01               0
GRID*              13938               01.0541468752E+00-4.714716980E-01+
*       -2.500000000E-01               0
GRID*              13939               09.7492817833E-01-3.017010573E-01+
*       -2.500000000E-01               0
GRID*              13940               09.0749321156E-01-2.761967204E-01+
*       -2.500000000E-01               0
GRID*              13941               09.8623037616E-01-3.770024680E-01+
*       -2.500000000E-01               0
GRID*              13942               01.0038306859E+00-4.456301018E-01+
*       -2.500000000E-01               0
GRID*              13943               09.4513580673E-01-4.195437690E-01+
*       -2.500000000E-01               0
GRID*              13944               08.6350775418E-01-3.310601018E-01+
*       -2.500000000E-01               0
GRID*              13945               08.8741197890E-01-3.981371279E-01+
*       -2.500000000E-01               0
GRID*              13946               09.0501228862E-01-4.667647616E-01+
*       -2.500000000E-01               0
GRID*              13947               09.2700656470E-01-5.263943803E-01+
*       -2.500000000E-01               0
GRID*              13948               01.0130523057E+00-5.140129990E-01+
*       -2.500000000E-01               0
GRID*              13949               01.0316842475E+00-5.824272976E-01+
*       -2.500000000E-01               0
GRID*              13950               09.8136805822E-01-5.565857014E-01+
*       -2.500000000E-01               0
GRID*              13951               09.4563850647E-01-5.948086789E-01+
*       -2.500000000E-01               0
GRID*              13952               01.0657964651E+008.8640557715E-01+
*       -2.500000000E-01               0
GRID*              13953               01.0290808637E+008.9832724684E-01+
*       -2.500000000E-01               0
GRID*              13954               01.1217297115E+009.5004508592E-01+
*       -2.500000000E-01               0
GRID*              13955               01.0993399870E+009.1087233276E-01+
*       -2.500000000E-01               0
GRID*              13956               01.0805514520E+009.6082724684E-01+
*       -2.500000000E-01               0
GRID*              13957               01.1952591233E+009.5004508592E-01+
*       -2.500000000E-01               0
GRID*              13958               01.1952591233E+008.7312200900E-01+
*       -2.500000000E-01               0
GRID*              13959               01.1069747246E+008.7562341624E-01+
*       -2.500000000E-01               0
GRID*              13960               01.1296981240E+008.4436418130E-01+
*       -2.500000000E-01               0
GRID*              13961               06.3200291959E-014.6776499065E-01+
*       -2.500000000E-01               0
GRID*              13962               06.8449571306E-015.3177764932E-01+
*       -2.500000000E-01               0
GRID*              13963               05.8361017025E-014.0353969930E-01+
*       -2.500000000E-01               0
GRID*              13964               05.3737066248E-013.4145652834E-01+
*       -2.500000000E-01               0
GRID*              13965               05.5580325431E-014.7980964395E-01+
*       -2.500000000E-01               0
GRID*              13966               04.7557664603E-014.9148783891E-01+
*       -2.500000000E-01               0
GRID*              13967               05.2396939537E-015.5571313026E-01+
*       -2.500000000E-01               0
GRID*              13968               04.9193326965E-012.7828727094E-01+
*       -2.500000000E-01               0
GRID*              13969               04.4805262810E-012.1696759159E-01+
*       -2.500000000E-01               0
GRID*              13970               03.9803110638E-015.0134472195E-01+
*       -2.500000000E-01               0
GRID*              13971               03.1868977798E-015.0860705724E-01+
*       -2.500000000E-01               0
GRID*              13972               03.6440145868E-015.7465366050E-01+
*       -2.500000000E-01               0
GRID*              13973               04.2986496532E-014.2544123565E-01+
*       -2.500000000E-01               0
GRID*              13974               04.6197311214E-013.5241509520E-01+
*       -2.500000000E-01               0
GRID*              13975               03.8442757249E-013.6227197825E-01+
*       -2.500000000E-01               0
GRID*              13976               07.6872864439E-019.3916894748E-01+
*       -2.500000000E-01               0
GRID*              13977               06.9519923263E-019.3916894748E-01+
*       -2.500000000E-01               0
GRID*              13978               08.1618578392E-018.1207773009E-01+
*       -2.500000000E-01               0
GRID*              13979               07.5952340349E-018.1945826393E-01+
*       -2.500000000E-01               0
GRID*              13980               07.8529613979E-018.7095736112E-01+
*       -2.500000000E-01               0
GRID*              13981               08.6153673324E-018.2609739595E-01+
*       -2.500000000E-01               0
GRID*              13982               08.8422291533E-018.5733741412E-01+
*       -2.500000000E-01               0
GRID*              13983               08.3577529150E-017.3594564656E-01+
*       -2.500000000E-01               0
GRID*              13984               08.0727209675E-017.0297010782E-01+
*       -2.500000000E-01               0
GRID*              13985               08.3576399694E-017.7459829876E-01+
*       -2.500000000E-01               0
GRID*              13986               08.5891128002E-019.5770619676E-01+
*       -2.500000000E-01               0
GRID*              13987               09.3244069178E-019.5770619676E-01+
*       -2.500000000E-01               0
GRID*              13988               08.2539102481E-019.3178841364E-01+
*       -2.500000000E-01               0
GRID*              13989               08.7547877542E-018.8949461040E-01+
*       -2.500000000E-01               0
GRID*              13990               09.1774317054E-018.8325519723E-01+
*       -2.500000000E-01               0
GRID*              13991               01.0070220402E+009.6082724684E-01+
*       -2.500000000E-01               0
GRID*              13992               09.5449951531E-018.9520619676E-01+
*       -2.500000000E-01               0
GRID*              13993               03.2826456071E-016.5043257061E-01+
*       -2.500000000E-01               0
GRID*              13994               04.0760588912E-016.4317023533E-01+
*       -2.500000000E-01               0
GRID*              13995               02.4988603590E-016.5389014253E-01+
*       -2.500000000E-01               0
GRID*              13996               02.9309046633E-017.2240671736E-01+
*       -2.500000000E-01               0
GRID*              13997               02.5434273477E-017.9396266017E-01+
*       -2.500000000E-01               0
GRID*              13998               03.3272125957E-017.9050508824E-01+
*       -2.500000000E-01               0
GRID*              13999               02.1878244702E-018.6359751224E-01+
*       -2.500000000E-01               0
GRID*              14000               01.7915165378E-017.9549914135E-01+
*       -2.500000000E-01               0
GRID*              14001               01.8208980066E-019.3256699671E-01+
*       -2.500000000E-01               0
GRID*              14002               01.0856038890E-019.3256699671E-01+
*       -2.500000000E-01               0
GRID*              14003               02.5728088165E-019.3103051553E-01+
*       -2.500000000E-01               0
GRID*              14004               03.3081029341E-019.3103051553E-01+
*       -2.500000000E-01               0
GRID*              14005               04.0794041208E-019.3106390313E-01+
*       -2.500000000E-01               0
GRID*              14006               03.7110364667E-018.6209441865E-01+
*       -2.500000000E-01               0
GRID*              14007               04.9602724674E-016.4101868121E-01+
*       -2.500000000E-01               0
GRID*              14008               05.7625385502E-016.2934048625E-01+
*       -2.500000000E-01               0
GRID*              14009               04.5989034877E-017.1679759131E-01+
*       -2.500000000E-01               0
GRID*              14010               04.0985137824E-017.9053847585E-01+
*       -2.500000000E-01               0
GRID*              14011               04.9827273586E-017.8838692173E-01+
*       -2.500000000E-01               0
GRID*              14012               04.8146982384E-019.3106390313E-01+
*       -2.500000000E-01               0
GRID*              14013               05.5568100327E-019.3659430742E-01+
*       -2.500000000E-01               0
GRID*              14014               05.2244494476E-018.6765821054E-01+
*       -2.500000000E-01               0
GRID*              14015               06.2921041504E-019.3659430742E-01+
*       -2.500000000E-01               0
GRID*              14016               06.6264494178E-018.7576325489E-01+
*       -2.500000000E-01               0
GRID*              14017               05.7248391529E-017.9391732601E-01+
*       -2.500000000E-01               0
GRID*              14018               06.5330372108E-016.0242762795E-01+
*       -2.500000000E-01               0
GRID*              14019               07.3360343050E-015.9017034197E-01+
*       -2.500000000E-01               0
GRID*              14020               06.1165465938E-017.4645398962E-01+
*       -2.500000000E-01               0
GRID*              14021               06.3582686828E-018.2572527843E-01+
*       -2.500000000E-01               0
GRID*              14022               06.2536157245E-016.8773317889E-01+
*       -2.500000000E-01               0
GRID*              14023               06.8870452544E-017.1954113131E-01+
*       -2.500000000E-01               0
GRID*              14024               07.6327129220E-016.5309095167E-01+
*       -2.500000000E-01               0
GRID*              14025               07.4641224306E-017.1069947674E-01+
*       -2.500000000E-01               0
GRID*              14026               07.0181568587E-018.2829991850E-01+
*       -2.500000000E-01               0
GRID*              14027               07.3270533000E-017.6942028747E-01+
*       -2.500000000E-01               0
GRID*              14028               0-1.065848962E+008.8636857859E-01+
*       -2.500000000E-01               0
GRID*              14029               0-1.029092621E+008.9831958335E-01+
*       -2.500000000E-01               0
GRID*              14030               0-1.121739863E+009.5003670944E-01+
*       -2.500000000E-01               0
GRID*              14031               0-1.080563209E+009.6081958335E-01+
*       -2.500000000E-01               0
GRID*              14032               0-1.099361896E+009.1085629279E-01+
*       -2.500000000E-01               0
GRID*              14033               0-1.195269275E+009.5003670944E-01+
*       -2.500000000E-01               0
GRID*              14034               0-1.195269275E+008.7311363252E-01+
*       -2.500000000E-01               0
GRID*              14035               0-1.129711786E+008.4434568723E-01+
*       -2.500000000E-01               0
GRID*              14036               0-1.107025617E+008.7558570468E-01+
*       -2.500000000E-01               0
GRID*              14037               0-1.007033797E+009.6081958335E-01+
*       -2.500000000E-01               0
GRID*              14038               0-9.153097846E-019.5079767593E-01+
*       -2.500000000E-01               0
GRID*              14039               0-8.417803729E-019.5079767593E-01+
*       -2.500000000E-01               0
GRID*              14040               0-9.373686081E-018.8829767593E-01+
*       -2.500000000E-01               0
GRID*              14041               0-9.006530137E-018.7637599599E-01+
*       -2.500000000E-01               0
GRID*              14042               0-8.548337085E-017.5545366052E-01+
*       -2.500000000E-01               0
GRID*              14043               0-8.082330160E-017.4736287030E-01+
*       -2.500000000E-01               0
GRID*              14044               0-8.344987756E-017.0334051906E-01+
*       -2.500000000E-01               0
GRID*              14045               0-8.548449946E-017.9405709055E-01+
*       -2.500000000E-01               0
GRID*              14046               0-8.775683800E-018.2531632593E-01+
*       -2.500000000E-01               0
GRID*              14047               0-8.516525826E-018.5053568182E-01+
*       -2.500000000E-01               0
GRID*              14048               0-7.607264728E-017.2979690061E-01+
*       -2.500000000E-01               0
GRID*              14049               0-7.091499333E-017.2320445211E-01+
*       -2.500000000E-01               0
GRID*              14050               0-7.363215437E-016.8865728033E-01+
*       -2.500000000E-01               0
GRID*              14051               0-7.810614056E-017.8191004207E-01+
*       -2.500000000E-01               0
GRID*              14052               0-6.601192470E-017.2854947047E-01+
*       -2.500000000E-01               0
GRID*              14053               0-6.845241761E-017.6968909075E-01+
*       -2.500000000E-01               0
GRID*              14054               0-6.048685455E-017.2559133492E-01+
*       -2.500000000E-01               0
GRID*              14055               0-5.729440519E-017.7428549756E-01+
*       -2.500000000E-01               0
GRID*              14056               0-5.423191077E-017.2484272337E-01+
*       -2.500000000E-01               0
GRID*              14057               0-6.294943028E-016.7910669629E-01+
*       -2.500000000E-01               0
GRID*              14058               0-4.778159456E-019.4181887840E-01+
*       -2.500000000E-01               0
GRID*              14059               0-5.115274756E-018.8406690745E-01+
*       -2.500000000E-01               0
GRID*              14060               0-5.484174123E-019.4224802905E-01+
*       -2.500000000E-01               0
GRID*              14061               0-4.042865338E-019.4181887840E-01+
*       -2.500000000E-01               0
GRID*              14062               0-5.462617782E-018.2901647205E-01+
*       -2.500000000E-01               0
GRID*              14063               0-6.088112160E-018.2976508361E-01+
*       -2.500000000E-01               0
GRID*              14064               0-4.756603115E-018.2858732140E-01+
*       -2.500000000E-01               0
GRID*              14065               0-7.705813524E-019.3764635344E-01+
*       -2.500000000E-01               0
GRID*              14066               0-8.035381959E-018.8844402938E-01+
*       -2.500000000E-01               0
GRID*              14067               0-6.970519407E-019.3764635344E-01+
*       -2.500000000E-01               0
GRID*              14068               0-6.219468241E-019.4224802905E-01+
*       -2.500000000E-01               0
GRID*              14069               0-6.572340589E-018.7989438249E-01+
*       -2.500000000E-01               0
GRID*              14070               0-7.804535622E-018.3738435933E-01+
*       -2.500000000E-01               0
GRID*              14071               0-6.839163326E-018.2516340800E-01+
*       -2.500000000E-01               0
GRID*              14072               0-7.329470189E-018.1981838964E-01+
*       -2.500000000E-01               0
GRID*              14073               0-3.328229722E-019.3936819662E-01+
*       -2.500000000E-01               0
GRID*              14074               0-3.694624472E-018.8118707502E-01+
*       -2.500000000E-01               0
GRID*              14075               0-2.592935605E-019.3936819662E-01+
*       -2.500000000E-01               0
GRID*              14076               0-1.863226205E-019.3679956297E-01+
*       -2.500000000E-01               0
GRID*              14077               0-2.250279456E-018.7616775960E-01+
*       -2.500000000E-01               0
GRID*              14078               0-1.127932087E-019.3679956297E-01+
*       -2.500000000E-01               0
GRID*              14079               0-3.913020544E-029.3454137429E-01+
*       -2.500000000E-01               0
GRID*              14080               0-7.839400239E-028.7134093726E-01+
*       -2.500000000E-01               0
GRID*              14081               03.4399206324E-029.3454137429E-01+
*       -2.500000000E-01               0
GRID*              14082               06.9430183456E-028.6710837100E-01+
*       -2.500000000E-01               0
GRID*              14083               0-4.822461410E-017.1584661270E-01+
*       -2.500000000E-01               0
GRID*              14084               0-4.429909803E-017.6830849589E-01+
*       -2.500000000E-01               0
GRID*              14085               0-4.148425073E-017.1061822258E-01+
*       -2.500000000E-01               0
GRID*              14086               0-5.141706346E-016.6715245006E-01+
*       -2.500000000E-01               0
GRID*              14087               0-4.082566777E-018.2335893129E-01+
*       -2.500000000E-01               0
GRID*              14088               0-3.367931161E-018.2090824951E-01+
*       -2.500000000E-01               0
GRID*              14089               01.0380963322E-017.9929942559E-01+
*       -2.500000000E-01               0
GRID*              14090               02.9648450649E-028.0127380317E-01+
*       -2.500000000E-01               0
GRID*              14091               01.3936992097E-017.2966457352E-01+
*       -2.500000000E-01               0
GRID*              14092               01.7370314483E-016.5985149953E-01+
*       -2.500000000E-01               0
GRID*              14093               02.0887723920E-015.8787735278E-01+
*       -2.500000000E-01               0
GRID*              14094               09.8361124270E-026.6365178377E-01+
*       -2.500000000E-01               0
GRID*              14095               0-2.651636618E-018.1495885855E-01+
*       -2.500000000E-01               0
GRID*              14096               0-1.921927219E-018.1239022490E-01+
*       -2.500000000E-01               0
GRID*              14097               0-3.457289746E-016.9781057816E-01+
*       -2.500000000E-01               0
GRID*              14098               0-3.849841352E-016.4534869497E-01+
*       -2.500000000E-01               0
GRID*              14099               0-3.039578923E-017.5713071482E-01+
*       -2.500000000E-01               0
GRID*              14100               0-2.740995203E-016.9186118721E-01+
*       -2.500000000E-01               0
GRID*              14101               0-1.185154126E-018.0756695837E-01+
*       -2.500000000E-01               0
GRID*              14102               0-1.586511288E-017.4635805733E-01+
*       -2.500000000E-01               0
GRID*              14103               0-4.485240932E-028.0530876968E-01+
*       -2.500000000E-01               0
GRID*              14104               0-1.047295956E-027.3749982427E-01+
*       -2.500000000E-01               0
GRID*              14105               02.3417433389E-026.6914538883E-01+
*       -2.500000000E-01               0
GRID*              14106               0-5.108342658E-026.7318035534E-01+
*       -2.500000000E-01               0
GRID*              14107               05.7750657244E-025.9933231484E-01+
*       -2.500000000E-01               0
GRID*              14108               0-1.257775570E-016.7914682628E-01+
*       -2.500000000E-01               0
GRID*              14109               0-9.188716410E-026.1079239084E-01+
*       -2.500000000E-01               0
GRID*              14110               0-1.994548663E-016.8397009282E-01+
*       -2.500000000E-01               0
GRID*              14111               0-2.412259486E-016.2464995617E-01+
*       -2.500000000E-01               0
GRID*              14112               0-1.199685430E+006.6207200779E-01+
*       -2.500000000E-01               0
GRID*              14113               0-1.199685430E+005.8514893086E-01+
*       -2.500000000E-01               0
GRID*              14114               0-1.134116671E+006.7157449894E-01+
*       -2.500000000E-01               0
GRID*              14115               0-1.111412234E+006.4034769378E-01+
*       -2.500000000E-01               0
GRID*              14116               0-1.212843739E+00-7.111430711E-01+
*       -2.500000000E-01               0
GRID*              14117               0-1.212843739E+00-7.880661480E-01+
*       -2.500000000E-01               0
GRID*              14118               0-1.194536772E+00-5.118876763E-01+
*       -2.500000000E-01               0
GRID*              14119               0-1.194536772E+00-4.349645993E-01+
*       -2.500000000E-01               0
GRID*              14120               0-1.201011364E+00-6.587268343E-01+
*       -2.500000000E-01               0
GRID*              14121               0-1.163855102E+00-6.775622131E-01+
*       -2.500000000E-01               0
GRID*              14122               0-1.201011364E+00-5.818037574E-01+
*       -2.500000000E-01               0
GRID*              14123               0-1.145548136E+00-5.552298952E-01+
*       -2.500000000E-01               0
GRID*              14124               0-1.062418182E+00-6.073510137E-01+
*       -2.500000000E-01               0
GRID*              14125               0-1.025661841E+00-5.954000140E-01+
*       -2.500000000E-01               0
GRID*              14126               0-1.147286253E+00-7.206802320E-01+
*       -2.500000000E-01               0
GRID*              14127               0-1.147274976E+00-7.593328725E-01+
*       -2.500000000E-01               0
GRID*              14128               0-1.101673205E+00-5.954730022E-01+
*       -2.500000000E-01               0
GRID*              14129               0-1.095198614E+00-5.255569210E-01+
*       -2.500000000E-01               0
GRID*              14130               0-1.112767704E+00-6.370239879E-01+
*       -2.500000000E-01               0
GRID*              14131               0-1.135453877E+00-6.682639953E-01+
*       -2.500000000E-01               0
GRID*              14132               0-7.163913636E-016.3779991365E-01+
*       -2.500000000E-01               0
GRID*              14133               0-7.679679030E-016.4439236214E-01+
*       -2.500000000E-01               0
GRID*              14134               0-6.589711492E-016.3238361818E-01+
*       -2.500000000E-01               0
GRID*              14135               0-6.037204478E-016.2942548263E-01+
*       -2.500000000E-01               0
GRID*              14136               0-6.906175086E-015.8811869999E-01+
*       -2.500000000E-01               0
GRID*              14137               0-6.644136834E-015.3096575222E-01+
*       -2.500000000E-01               0
GRID*              14138               0-7.218338978E-015.3638204769E-01+
*       -2.500000000E-01               0
GRID*              14139               0-6.317360083E-014.7880020653E-01+
*       -2.500000000E-01               0
GRID*              14140               0-5.985322137E-014.1804476063E-01+
*       -2.500000000E-01               0
GRID*              14141               0-6.624262780E-014.1847365403E-01+
*       -2.500000000E-01               0
GRID*              14142               0-6.005196191E-015.3053685883E-01+
*       -2.500000000E-01               0
GRID*              14143               0-5.529699389E-016.2922530319E-01+
*       -2.500000000E-01               0
GRID*              14144               0-4.928969722E-016.2022919252E-01+
*       -2.500000000E-01               0
GRID*              14145               0-5.824467854E-015.8250222509E-01+
*       -2.500000000E-01               0
GRID*              14146               0-5.497691102E-015.3033667939E-01+
*       -2.500000000E-01               0
GRID*              14147               0-5.587993138E-013.5843103307E-01+
*       -2.500000000E-01               0
GRID*              14148               0-5.241868720E-012.9422766461E-01+
*       -2.500000000E-01               0
GRID*              14149               0-5.946100417E-012.9351483968E-01+
*       -2.500000000E-01               0
GRID*              14150               0-4.371839529E-015.8335337118E-01+
*       -2.500000000E-01               0
GRID*              14151               0-3.680704202E-015.7054572676E-01+
*       -2.500000000E-01               0
GRID*              14152               0-5.281090440E-014.1875758557E-01+
*       -2.500000000E-01               0
GRID*              14153               0-4.759832572E-015.4542622431E-01+
*       -2.500000000E-01               0
GRID*              14154               0-4.940560909E-014.9346085805E-01+
*       -2.500000000E-01               0
GRID*              14155               0-4.543231910E-014.3384713048E-01+
*       -2.500000000E-01               0
GRID*              14156               0-2.847643772E-015.6135956098E-01+
*       -2.500000000E-01               0
GRID*              14157               0-3.369641949E-014.9936423718E-01+
*       -2.500000000E-01               0
GRID*              14158               0-2.101197232E-015.5346846659E-01+
*       -2.500000000E-01               0
GRID*              14159               0-1.336201489E-015.4692767857E-01+
*       -2.500000000E-01               0
GRID*              14160               0-5.892601847E-025.4096120762E-01+
*       -2.500000000E-01               0
GRID*              14161               0-1.771585776E-014.8363728338E-01+
*       -2.500000000E-01               0
GRID*              14162               0-3.789680608E-014.3301084530E-01+
*       -2.500000000E-01               0
GRID*              14163               0-4.130210139E-013.5830757283E-01+
*       -2.500000000E-01               0
GRID*              14164               0-2.956620178E-014.2382467953E-01+
*       -2.500000000E-01               0
GRID*              14165               0-2.189115805E-014.1915262987E-01+
*       -2.500000000E-01               0
GRID*              14166               0-1.424120062E-014.1261184184E-01+
*       -2.500000000E-01               0
GRID*              14167               0-2.609154465E-013.5279923799E-01+
*       -2.500000000E-01               0
GRID*              14168               0-4.519228347E-012.9193635166E-01+
*       -2.500000000E-01               0
GRID*              14169               0-3.765677045E-012.9110006648E-01+
*       -2.500000000E-01               0
GRID*              14170               0-4.877335626E-012.2702015827E-01+
*       -2.500000000E-01               0
GRID*              14171               0-4.543574707E-011.6075533304E-01+
*       -2.500000000E-01               0
GRID*              14172               0-5.266215080E-011.6304664598E-01+
*       -2.500000000E-01               0
GRID*              14173               0-4.197975537E-019.2580318245E-02+
*       -2.500000000E-01               0
GRID*              14174               0-3.874598538E-012.4919798668E-02+
*       -2.500000000E-01               0
GRID*              14175               0-4.609077162E-012.9121301173E-02+
*       -2.500000000E-01               0
GRID*              14176               0-3.809096082E-011.5655383053E-01+
*       -2.500000000E-01               0
GRID*              14177               0-3.406959024E-012.2126750119E-01+
*       -2.500000000E-01               0
GRID*              14178               0-3.061359854E-011.5309248640E-01+
*       -2.500000000E-01               0
GRID*              14179               0-3.017940817E-012.8763872235E-01+
*       -2.500000000E-01               0
GRID*              14180               0-2.250436444E-012.8296667269E-01+
*       -2.500000000E-01               0
GRID*              14181               0-5.027702969E-01-3.161082822E-02+
*       -2.500000000E-01               0
GRID*              14182               0-4.722315227E-01-1.007880468E-01+
*       -2.500000000E-01               0
GRID*              14183               0-5.464318033E-01-9.385965661E-02+
*       -2.500000000E-01               0
GRID*              14184               0-6.320143944E-012.3210086414E-01+
*       -2.500000000E-01               0
GRID*              14185               0-5.986791313E-011.6784234993E-01+
*       -2.500000000E-01               0
GRID*              14186               0-6.706959257E-011.7063174285E-01+
*       -2.500000000E-01               0
GRID*              14187               0-6.666268362E-012.9630423260E-01+
*       -2.500000000E-01               0
GRID*              14188               0-5.351079968E-013.6049691361E-02+
*       -2.500000000E-01               0
GRID*              14189               0-5.653030393E-011.0157752469E-01+
*       -2.500000000E-01               0
GRID*              14190               0-6.071656201E-014.0845395304E-02+
*       -2.500000000E-01               0
GRID*              14191               0-8.209331813E-016.5762634037E-01+
*       -2.500000000E-01               0
GRID*              14192               0-8.675338738E-016.6571713060E-01+
*       -2.500000000E-01               0
GRID*              14193               0-8.010030013E-016.0676897368E-01+
*       -2.500000000E-01               0
GRID*              14194               0-7.929755160E-015.4419329593E-01+
*       -2.500000000E-01               0
GRID*              14195               0-8.459407943E-015.5742727416E-01+
*       -2.500000000E-01               0
GRID*              14196               0-6.986127605E-013.6126248800E-01+
*       -2.500000000E-01               0
GRID*              14197               0-7.318165551E-014.2201793390E-01+
*       -2.500000000E-01               0
GRID*              14198               0-7.360171132E-012.9984851246E-01+
*       -2.500000000E-01               0
GRID*              14199               0-7.667716909E-014.8704034816E-01+
*       -2.500000000E-01               0
GRID*              14200               0-8.029581733E-014.2982918214E-01+
*       -2.500000000E-01               0
GRID*              14201               0-1.186644881E+003.3395227269E-01+
*       -2.500000000E-01               0
GRID*              14202               0-1.186644881E+002.5702919577E-01+
*       -2.500000000E-01               0
GRID*              14203               0-1.005163392E+005.6174695844E-01+
*       -2.500000000E-01               0
GRID*              14204               0-9.573284518E-015.1284399715E-01+
*       -2.500000000E-01               0
GRID*              14205               0-1.020119142E+005.0674214740E-01+
*       -2.500000000E-01               0
GRID*              14206               0-9.711498911E-015.9642441476E-01+
*       -2.500000000E-01               0
GRID*              14207               0-9.344411955E-016.0836753897E-01+
*       -2.500000000E-01               0
GRID*              14208               0-1.070703845E+006.0225208650E-01+
*       -2.500000000E-01               0
GRID*              14209               0-1.108662472E+005.9374071598E-01+
*       -2.500000000E-01               0
GRID*              14210               0-1.033940582E+005.9032256501E-01+
*       -2.500000000E-01               0
GRID*              14211               0-1.050810631E+003.7634867342E-01+
*       -2.500000000E-01               0
GRID*              14212               0-1.058287062E+003.0612220501E-01+
*       -2.500000000E-01               0
GRID*              14213               0-1.115813330E+003.5351562917E-01+
*       -2.500000000E-01               0
GRID*              14214               0-1.040310551E+004.4079064184E-01+
*       -2.500000000E-01               0
GRID*              14215               0-1.088145491E+004.8969360313E-01+
*       -2.500000000E-01               0
GRID*              14216               0-9.827842825E-013.9339721768E-01+
*       -2.500000000E-01               0
GRID*              14217               0-1.158977041E+005.4705332358E-01+
*       -2.500000000E-01               0
GRID*              14218               0-1.179168450E+004.8110181802E-01+
*       -2.500000000E-01               0
GRID*              14219               0-1.179168450E+004.0417874110E-01+
*       -2.500000000E-01               0
GRID*              14220               0-1.065611272E+002.3694108789E-01+
*       -2.500000000E-01               0
GRID*              14221               0-1.000608573E+002.5977413214E-01+
*       -2.500000000E-01               0
GRID*              14222               0-1.071024107E+001.6777083294E-01+
*       -2.500000000E-01               0
GRID*              14223               0-1.019375721E+001.2532943892E-01+
*       -2.500000000E-01               0
GRID*              14224               0-1.082467044E+001.0250725685E-01+
*       -2.500000000E-01               0
GRID*              14225               0-1.128702596E+002.1411890581E-01+
*       -2.500000000E-01               0
GRID*              14226               0-1.192057715E+001.8785894082E-01+
*       -2.500000000E-01               0
GRID*              14227               0-1.192057715E+001.1093586389E-01+
*       -2.500000000E-01               0
GRID*              14228               0-1.185329230E+00-3.644887852E-01+
*       -2.500000000E-01               0
GRID*              14229               0-1.129866002E+00-4.148380000E-01+
*       -2.500000000E-01               0
GRID*              14230               0-1.185329230E+00-2.875657083E-01+
*       -2.500000000E-01               0
GRID*              14231               0-1.175345182E+00-2.150998072E-01+
*       -2.500000000E-01               0
GRID*              14232               0-1.175345182E+00-1.381767302E-01+
*       -2.500000000E-01               0
GRID*              14233               0-1.110674412E+00-2.718962847E-01+
*       -2.500000000E-01               0
GRID*              14234               0-1.139097734E+008.7734318146E-02+
*       -2.500000000E-01               0
GRID*              14235               0-1.197040019E+005.3721531174E-02+
*       -2.500000000E-01               0
GRID*              14236               0-1.087449349E+004.5292924128E-02+
*       -2.500000000E-01               0
GRID*              14237               0-1.047650534E+00-1.515095227E-03+
*       -2.500000000E-01               0
GRID*              14238               0-1.104281224E+00-1.628803393E-02+
*       -2.500000000E-01               0
GRID*              14239               0-1.197040019E+00-2.320154575E-02+
*       -2.500000000E-01               0
GRID*              14240               0-1.157241205E+00-7.000956510E-02+
*       -2.500000000E-01               0
GRID*              14241               0-1.082586388E+00-1.312632184E-01+
*       -2.500000000E-01               0
GRID*              14242               0-1.076015125E+00-4.671472878E-01+
*       -2.500000000E-01               0
GRID*              14243               0-1.032140194E+00-5.073903948E-01+
*       -2.500000000E-01               0
GRID*              14244               0-1.066807583E+00-3.966714737E-01+
*       -2.500000000E-01               0
GRID*              14245               0-1.047953516E+00-3.267053574E-01+
*       -2.500000000E-01               0
GRID*              14246               0-1.037969468E+00-2.542394562E-01+
*       -2.500000000E-01               0
GRID*              14247               0-9.941026390E-01-3.790146453E-01+
*       -2.500000000E-01               0
GRID*              14248               0-9.391920385E-01-4.382025200E-01+
*       -2.500000000E-01               0
GRID*              14249               0-9.203379715E-01-3.682364037E-01+
*       -2.500000000E-01               0
GRID*              14250               0-8.512726324E-01-5.544380125E-01+
*       -2.500000000E-01               0
GRID*              14251               0-8.950108629E-01-4.932227413E-01+
*       -2.500000000E-01               0
GRID*              14252               0-8.216891405E-01-4.886395497E-01+
*       -2.500000000E-01               0
GRID*              14253               0-8.073357548E-01-6.004495245E-01+
*       -2.500000000E-01               0
GRID*              14254               0-8.806574773E-01-6.050327160E-01+
*       -2.500000000E-01               0
GRID*              14255               0-8.816446947E-01-6.499437843E-01+
*       -2.500000000E-01               0
GRID*              14256               0-8.589213197E-01-6.812030230E-01+
*       -2.500000000E-01               0
GRID*              14257               0-9.255815723E-01-6.039322723E-01+
*       -2.500000000E-01               0
GRID*              14258               0-9.687755304E-01-5.040009828E-01+
*       -2.500000000E-01               0
GRID*              14259               0-9.622971774E-01-5.920106020E-01+
*       -2.500000000E-01               0
GRID*              14260               0-9.879590188E-01-5.624106160E-01+
*       -2.500000000E-01               0
GRID*              14261               0-8.319555651E-01-3.457296443E-01+
*       -2.500000000E-01               0
GRID*              14262               0-8.868661656E-01-2.865417695E-01+
*       -2.500000000E-01               0
GRID*              14263               0-7.836013438E-01-4.251853223E-01+
*       -2.500000000E-01               0
GRID*              14264               0-7.398631133E-01-4.864005935E-01+
*       -2.500000000E-01               0
GRID*              14265               0-7.501295379E-01-3.434906881E-01+
*       -2.500000000E-01               0
GRID*              14266               0-7.046177447E-01-2.766373913E-01+
*       -2.500000000E-01               0
GRID*              14267               0-6.562635234E-01-3.560930693E-01+
*       -2.500000000E-01               0
GRID*              14268               0-6.413695651E-01-2.144404923E-01+
*       -2.500000000E-01               0
GRID*              14269               0-7.352355796E-01-2.018381111E-01+
*       -2.500000000E-01               0
GRID*              14270               0-5.939402146E-01-1.513390437E-01+
*       -2.500000000E-01               0
GRID*              14271               0-6.244789888E-01-8.216182509E-02+
*       -2.500000000E-01               0
GRID*              14272               0-5.633223797E-01-2.261383238E-01+
*       -2.500000000E-01               0
GRID*              14273               0-9.279340298E-012.8598573430E-01+
*       -2.500000000E-01               0
GRID*              14274               0-9.352582400E-012.1680461718E-01+
*       -2.500000000E-01               0
GRID*              14275               0-8.902389844E-016.3444461082E-01+
*       -2.500000000E-01               0
GRID*              14276               0-8.981704907E-015.9392588006E-01+
*       -2.500000000E-01               0
GRID*              14277               0-8.901430054E-015.3135020230E-01+
*       -2.500000000E-01               0
GRID*              14278               0-9.050987555E-014.7634539126E-01+
*       -2.500000000E-01               0
GRID*              14279               0-8.152933670E-013.0391149361E-01+
*       -2.500000000E-01               0
GRID*              14280               0-7.833074427E-012.3895323820E-01+
*       -2.500000000E-01               0
GRID*              14281               0-8.750316902E-013.1098367632E-01+
*       -2.500000000E-01               0
GRID*              14282               0-8.277413608E-013.7187895058E-01+
*       -2.500000000E-01               0
GRID*              14283               0-9.403820235E-013.5395319128E-01+
*       -2.500000000E-01               0
GRID*              14284               0-9.298819429E-014.1839515970E-01+
*       -2.500000000E-01               0
GRID*              14285               0-8.626964965E-014.3690136485E-01+
*       -2.500000000E-01               0
GRID*              14286               0-9.569584896E-011.4383541653E-01+
*       -2.500000000E-01               0
GRID*              14287               0-8.842839462E-011.7004701870E-01+
*       -2.500000000E-01               0
GRID*              14288               0-9.684014272E-017.8571840439E-02+
*       -2.500000000E-01               0
GRID*              14289               0-9.191507029E-013.6118647176E-02+
*       -2.500000000E-01               0
GRID*              14290               0-9.815679342E-011.7612669568E-02+
*       -2.500000000E-01               0
GRID*              14291               0-1.024887298E+00-1.788631369E-01+
*       -2.500000000E-01               0
GRID*              14292               0-9.621664015E-01-2.336722097E-01+
*       -2.500000000E-01               0
GRID*              14293               0-1.006783321E+00-1.106959718E-01+
*       -2.500000000E-01               0
GRID*              14294               0-9.983998101E-01-4.396828849E-02+
*       -2.500000000E-01               0
GRID*              14295               0-9.407007205E-01-9.156820702E-02+
*       -2.500000000E-01               0
GRID*              14296               0-8.190334471E-011.7840773494E-01+
*       -2.500000000E-01               0
GRID*              14297               0-8.407336968E-011.0543853429E-01+
*       -2.500000000E-01               0
GRID*              14298               0-7.397571933E-011.7434475379E-01+
*       -2.500000000E-01               0
GRID*              14299               0-7.064219302E-011.1008623958E-01+
*       -2.500000000E-01               0
GRID*              14300               0-6.951488225E-01-7.164881990E-02+
*       -2.500000000E-01               0
GRID*              14301               0-6.476404112E-01-1.416943284E-02+
*       -2.500000000E-01               0
GRID*              14302               0-8.233241789E-01-3.872436718E-02+
*       -2.500000000E-01               0
GRID*              14303               0-7.739239278E-016.3864314418E-03+
*       -2.500000000E-01               0
GRID*              14304               0-7.677104960E-01-4.876722627E-02+
*       -2.500000000E-01               0
GRID*              14305               0-6.778354537E-015.1358400491E-02+
*       -2.500000000E-01               0
GRID*              14306               0-7.468967213E-015.5071411438E-02+
*       -2.500000000E-01               0
GRID*              14307               0-8.025104042E-016.5114270533E-02+
*       -2.500000000E-01               0
GRID*              14308               0-8.677609033E-015.6753554292E-02+
*       -2.500000000E-01               0
GRID*              14309               0-8.809274103E-01-4.205616579E-03+
*       -2.500000000E-01               0
GRID*              14310               0-8.077972531E-01-1.789565175E-01+
*       -2.500000000E-01               0
GRID*              14311               0-7.445490736E-01-1.167596185E-01+
*       -2.500000000E-01               0
GRID*              14312               0-8.737839951E-01-2.111654502E-01+
*       -2.500000000E-01               0
GRID*              14313               0-8.830974891E-01-1.260869576E-01+
*       -2.500000000E-01               0
GRID*              14314               0-8.747139785E-01-5.935927429E-02+
*       -2.500000000E-01               0
GRID*              14315               0-1.065800559E+00-8.863980056E-01+
*       -2.500000000E-01               0
GRID*              14316               0-1.029037295E+00-8.983275321E-01+
*       -2.500000000E-01               0
GRID*              14317               0-1.121728228E+00-9.500468066E-01+
*       -2.500000000E-01               0
GRID*              14318               0-1.099331394E+00-9.108743494E-01+
*       -2.500000000E-01               0
GRID*              14319               0-1.080544343E+00-9.608275427E-01+
*       -2.500000000E-01               0
GRID*              14320               0-1.195257640E+00-9.500468066E-01+
*       -2.500000000E-01               0
GRID*              14321               0-1.195257640E+00-8.731237297E-01+
*       -2.500000000E-01               0
GRID*              14322               0-1.106984444E+00-8.756172695E-01+
*       -2.500000000E-01               0
GRID*              14323               0-1.129688877E+00-8.443904542E-01+
*       -2.500000000E-01               0
GRID*              14324               01.0658449161E+00-8.863761343E-01+
*       -2.500000000E-01               0
GRID*              14325               01.0291362281E+00-8.983192698E-01+
*       -2.500000000E-01               0
GRID*              14326               01.1217413635E+00-9.500349773E-01+
*       -2.500000000E-01               0
GRID*              14327               01.0805703365E+00-9.608192805E-01+
*       -2.500000000E-01               0
GRID*              14328               01.0993705235E+00-9.108542578E-01+
*       -2.500000000E-01               0
GRID*              14329               01.1952707752E+00-9.500349773E-01+
*       -2.500000000E-01               0
GRID*              14330               01.1952707752E+00-8.731119004E-01+
*       -2.500000000E-01               0
GRID*              14331               01.1297210682E+00-8.443193079E-01+
*       -2.500000000E-01               0
GRID*              14332               01.1070159432E+00-8.755918311E-01+
*       -2.500000000E-01               0
GRID*              14333               01.0070409247E+00-9.608192805E-01+
*       -2.500000000E-01               0
GRID*              14334               09.1919264727E-01-9.535344565E-01+
*       -2.500000000E-01               0
GRID*              14335               08.4566323550E-01-9.535344565E-01+
*       -2.500000000E-01               0
GRID*              14336               09.4128795069E-01-8.910344459E-01+
*       -2.500000000E-01               0
GRID*              14337               09.0452467926E-01-8.791049364E-01+
*       -2.500000000E-01               0
GRID*              14338               0-4.844547266E-01-9.325501798E-01+
*       -2.500000000E-01               0
GRID*              14339               0-4.109253148E-01-9.325501798E-01+
*       -2.500000000E-01               0
GRID*              14340               0-5.279200693E-01-8.710502631E-01+
*       -2.500000000E-01               0
GRID*              14341               0-5.581712251E-01-9.385000833E-01+
*       -2.500000000E-01               0
GRID*              14342               0-7.021696515E-01-5.563103373E-01+
*       -2.500000000E-01               0
GRID*              14343               0-6.640818549E-01-4.928561099E-01+
*       -2.500000000E-01               0
GRID*              14344               0-5.810457849E-01-8.000092548E-01+
*       -2.500000000E-01               0
GRID*              14345               0-5.073292864E-01-7.940593513E-01+
*       -2.500000000E-01               0
GRID*              14346               0-6.216845899E-01-7.542312897E-01+
*       -2.500000000E-01               0
GRID*              14347               0-6.422753728E-01-8.312222015E-01+
*       -2.500000000E-01               0
GRID*              14348               0-6.708594072E-01-6.178608467E-01+
*       -2.500000000E-01               0
GRID*              14349               0-7.466406656E-01-6.114053303E-01+
*       -2.500000000E-01               0
GRID*              14350               0-6.378927116E-01-6.979870914E-01+
*       -2.500000000E-01               0
GRID*              14351               0-6.991222996E-01-7.292000381E-01+
*       -2.500000000E-01               0
GRID*              14352               0-5.934216976E-01-6.428920984E-01+
*       -2.500000000E-01               0
GRID*              14353               0-6.317006368E-01-9.385000833E-01+
*       -2.500000000E-01               0
GRID*              14354               0-6.974560635E-01-9.423059619E-01+
*       -2.500000000E-01               0
GRID*              14355               0-7.709854753E-01-9.423059619E-01+
*       -2.500000000E-01               0
GRID*              14356               0-6.673919944E-01-8.808060452E-01+
*       -2.500000000E-01               0
GRID*              14357               0-7.080307995E-01-8.350280801E-01+
*       -2.500000000E-01               0
GRID*              14358               0-7.760255105E-01-6.620000339E-01+
*       -2.500000000E-01               0
GRID*              14359               0-7.559110804E-01-7.201071948E-01+
*       -2.500000000E-01               0
GRID*              14360               0-8.166061696E-01-7.091513890E-01+
*       -2.500000000E-01               0
GRID*              14361               0-7.397029587E-01-7.763513932E-01+
*       -2.500000000E-01               0
GRID*              14362               0-7.648195803E-01-8.259352369E-01+
*       -2.500000000E-01               0
GRID*              14363               0-8.644769584E-01-8.342120434E-01+
*       -2.500000000E-01               0
GRID*              14364               0-8.871820794E-01-8.654845599E-01+
*       -2.500000000E-01               0
GRID*              14365               0-8.221730938E-01-8.235569794E-01+
*       -2.500000000E-01               0
GRID*              14366               0-7.905009346E-01-8.822336663E-01+
*       -2.500000000E-01               0
GRID*              14367               0-8.388068896E-01-7.393101839E-01+
*       -2.500000000E-01               0
GRID*              14368               0-8.387956041E-01-7.779136140E-01+
*       -2.500000000E-01               0
GRID*              14369               0-8.283389887E-01-9.399277044E-01+
*       -2.500000000E-01               0
GRID*              14370               0-9.018684005E-01-9.399277044E-01+
*       -2.500000000E-01               0
GRID*              14371               0-1.007014931E+00-9.608275427E-01+
*       -2.500000000E-01               0
GRID*              14372               0-4.827237331E-01-2.333149004E-01+
*       -2.500000000E-01               0
GRID*              14373               0-5.301530836E-01-2.964163490E-01+
*       -2.500000000E-01               0
GRID*              14374               0-4.063202446E-01-2.396385734E-01+
*       -2.500000000E-01               0
GRID*              14375               0-3.284541170E-01-2.453296972E-01+
*       -2.500000000E-01               0
GRID*              14376               0-3.716883094E-01-3.092840495E-01+
*       -2.500000000E-01               0
GRID*              14377               0-4.394895407E-01-1.693605482E-01+
*       -2.500000000E-01               0
GRID*              14378               0-3.958280343E-01-1.071117198E-01+
*       -2.500000000E-01               0
GRID*              14379               0-2.525128675E-01-2.506840746E-01+
*       -2.500000000E-01               0
GRID*              14380               0-1.762465008E-01-2.554276565E-01+
*       -2.500000000E-01               0
GRID*              14381               0-2.175558151E-01-3.197187552E-01+
*       -2.500000000E-01               0
GRID*              14382               0-3.539841347E-01-4.353039615E-02+
*       -2.500000000E-01               0
GRID*              14383               0-3.212421527E-01-1.121028975E-01+
*       -2.500000000E-01               0
GRID*              14384               0-3.128739722E-011.9928620923E-02+
*       -2.500000000E-01               0
GRID*              14385               0-2.871448028E-01-1.810385985E-01+
*       -2.500000000E-01               0
GRID*              14386               0-2.453009031E-01-1.174572748E-01+
*       -2.500000000E-01               0
GRID*              14387               0-5.746698492E-01-3.614493269E-01+
*       -2.500000000E-01               0
GRID*              14388               0-4.940712026E-01-3.686259035E-01+
*       -2.500000000E-01               0
GRID*              14389               0-6.201816424E-01-4.283026237E-01+
*       -2.500000000E-01               0
GRID*              14390               0-5.824881806E-01-4.982123675E-01+
*       -2.500000000E-01               0
GRID*              14391               0-4.138586522E-01-3.743272914E-01+
*       -2.500000000E-01               0
GRID*              14392               0-3.359925246E-01-3.800184152E-01+
*       -2.500000000E-01               0
GRID*              14393               0-5.455242968E-01-5.707089298E-01+
*       -2.500000000E-01               0
GRID*              14394               0-5.125576013E-01-6.508351745E-01+
*       -2.500000000E-01               0
GRID*              14395               0-5.016240844E-01-5.061554436E-01+
*       -2.500000000E-01               0
GRID*              14396               0-4.583754178E-01-4.393602692E-01+
*       -2.500000000E-01               0
GRID*              14397               0-4.214115340E-01-5.118568316E-01+
*       -2.500000000E-01               0
GRID*              14398               0-1.818760109E-01-3.894189183E-01+
*       -2.500000000E-01               0
GRID*              14399               0-1.055225591E-01-3.932903368E-01+
*       -2.500000000E-01               0
GRID*              14400               0-1.461091216E-01-4.582469180E-01+
*       -2.500000000E-01               0
GRID*              14401               0-2.581423775E-01-3.846753364E-01+
*       -2.500000000E-01               0
GRID*              14402               0-3.003127204E-01-4.497185783E-01+
*       -2.500000000E-01               0
GRID*              14403               0-1.091070495E-01-5.275343690E-01+
*       -2.500000000E-01               0
GRID*              14404               0-3.347601543E-02-5.304894520E-01+
*       -2.500000000E-01               0
GRID*              14405               0-7.282739505E-02-5.959054844E-01+
*       -2.500000000E-01               0
GRID*              14406               0-3.408939391E-01-5.158958589E-01+
*       -2.500000000E-01               0
GRID*              14407               0-3.841426057E-01-5.826910333E-01+
*       -2.500000000E-01               0
GRID*              14408               0-2.630437920E-01-5.205527801E-01+
*       -2.500000000E-01               0
GRID*              14409               0-1.854605012E-01-5.236629505E-01+
*       -2.500000000E-01               0
GRID*              14410               0-2.260417199E-01-5.898402311E-01+
*       -2.500000000E-01               0
GRID*              14411               0-3.338766178E-01-9.317666284E-01+
*       -2.500000000E-01               0
GRID*              14412               0-2.603472061E-01-9.317666284E-01+
*       -2.500000000E-01               0
GRID*              14413               0-3.771548738E-01-8.643168082E-01+
*       -2.500000000E-01               0
GRID*              14414               0-4.723168511E-01-7.235069595E-01+
*       -2.500000000E-01               0
GRID*              14415               0-4.244194504E-01-6.513237909E-01+
*       -2.500000000E-01               0
GRID*              14416               0-4.191911355E-01-7.945479678E-01+
*       -2.500000000E-01               0
GRID*              14417               0-3.421424385E-01-7.937644163E-01+
*       -2.500000000E-01               0
GRID*              14418               01.1088182986E-01-9.340797914E-01+
*       -2.500000000E-01               0
GRID*              14419               03.6910802789E-02-9.331214914E-01+
*       -2.500000000E-01               0
GRID*              14420               07.4263220890E-02-8.672012827E-01+
*       -2.500000000E-01               0
GRID*              14421               01.8441124163E-01-9.340797914E-01+
*       -2.500000000E-01               0
GRID*              14422               0-1.846980268E-01-9.322301265E-01+
*       -2.500000000E-01               0
GRID*              14423               0-1.111686151E-01-9.322301265E-01+
*       -2.500000000E-01               0
GRID*              14424               0-2.244569976E-01-8.639967548E-01+
*       -2.500000000E-01               0
GRID*              14425               0-3.661860898E-02-9.331214914E-01+
*       -2.500000000E-01               0
GRID*              14426               0-7.425781228E-02-8.653516178E-01+
*       -2.500000000E-01               0
GRID*              14427               0-3.560870361E-02-6.647637618E-01+
*       -2.500000000E-01               0
GRID*              14428               0-1.112397377E-01-6.618086789E-01+
*       -2.500000000E-01               0
GRID*              14429               03.9200700452E-02-6.666214970E-01+
*       -2.500000000E-01               0
GRID*              14430               07.8835783643E-04-7.325246914E-01+
*       -2.500000000E-01               0
GRID*              14431               03.7944977857E-02-8.003127047E-01+
*       -2.500000000E-01               0
GRID*              14432               01.1191600493E-01-8.012710047E-01+
*       -2.500000000E-01               0
GRID*              14433               0-3.686442621E-02-7.984549695E-01+
*       -2.500000000E-01               0
GRID*              14434               0-3.439018554E-01-6.553628183E-01+
*       -2.500000000E-01               0
GRID*              14435               0-2.650216239E-01-6.569541992E-01+
*       -2.500000000E-01               0
GRID*              14436               0-3.052984686E-01-7.255869568E-01+
*       -2.500000000E-01               0
GRID*              14437               0-1.874383331E-01-6.600643696E-01+
*       -2.500000000E-01               0
GRID*              14438               0-1.502196416E-01-7.289226470E-01+
*       -2.500000000E-01               0
GRID*              14439               0-2.632622070E-01-7.953557972E-01+
*       -2.500000000E-01               0
GRID*              14440               0-1.876130277E-01-7.958192953E-01+
*       -2.500000000E-01               0
GRID*              14441               0-1.114144323E-01-7.975636046E-01+
*       -2.500000000E-01               0
GRID*              14442               02.4260658692E-015.1653308409E-01+
*       -2.500000000E-01               0
GRID*              14443               01.6642369584E-015.2249444109E-01+
*       -2.500000000E-01               0
GRID*              14444               02.7623623462E-014.4322414554E-01+
*       -2.500000000E-01               0
GRID*              14445               01.6165015557E-025.3462508869E-01+
*       -2.500000000E-01               0
GRID*              14446               0-2.556796928E-024.7076037642E-01+
*       -2.500000000E-01               0
GRID*              14447               09.1108706439E-025.2913148363E-01+
*       -2.500000000E-01               0
GRID*              14448               01.2483805416E-014.5778721494E-01+
*       -2.500000000E-01               0
GRID*              14449               03.0937289492E-013.7134831378E-01+
*       -2.500000000E-01               0
GRID*              14450               02.3328970386E-013.7927434063E-01+
*       -2.500000000E-01               0
GRID*              14451               03.4148104173E-012.9832217333E-01+
*       -2.500000000E-01               0
GRID*              14452               03.7382031154E-012.2695329059E-01+
*       -2.500000000E-01               0
GRID*              14453               04.0533722033E-011.5467504438E-01+
*       -2.500000000E-01               0
GRID*              14454               02.9876563397E-012.3602962612E-01+
*       -2.500000000E-01               0
GRID*              14455               01.5825446591E-013.8692967518E-01+
*       -2.500000000E-01               0
GRID*              14456               08.2939476509E-023.9356671773E-01+
*       -2.500000000E-01               0
GRID*              14457               01.9139112621E-013.1505384342E-01+
*       -2.500000000E-01               0
GRID*              14458               02.2431381489E-012.4449795456E-01+
*       -2.500000000E-01               0
GRID*              14459               02.5665308471E-011.7312907182E-01+
*       -2.500000000E-01               0
GRID*              14460               01.4927857695E-012.5215328911E-01+
*       -2.500000000E-01               0
GRID*              14461               0-6.713992703E-024.0649351388E-01+
*       -2.500000000E-01               0
GRID*              14462               0-1.088929300E-013.4200886037E-01+
*       -2.500000000E-01               0
GRID*              14463               07.9511070010E-034.0015739495E-01+
*       -2.500000000E-01               0
GRID*              14464               04.1367518758E-023.2929985519E-01+
*       -2.500000000E-01               0
GRID*              14465               0-1.501496471E-012.7792525633E-01+
*       -2.500000000E-01               0
GRID*              14466               0-1.910282824E-012.1276474070E-01+
*       -2.500000000E-01               0
GRID*              14467               0-7.487756793E-022.7180692837E-01+
*       -2.500000000E-01               0
GRID*              14468               0-1.846768427E-042.6585072412E-01+
*       -2.500000000E-01               0
GRID*              14469               0-4.144139402E-022.0176712008E-01+
*       -2.500000000E-01               0
GRID*              14470               07.4803692665E-022.5926004690E-01+
*       -2.500000000E-01               0
GRID*              14471               01.0772638135E-011.8870415804E-01+
*       -2.500000000E-01               0
GRID*              14472               06.2583889538E-01-9.370045222E-01+
*       -2.500000000E-01               0
GRID*              14473               05.5230948362E-01-9.370045222E-01+
*       -2.500000000E-01               0
GRID*              14474               06.6959249602E-01-8.740525926E-01+
*       -2.500000000E-01               0
GRID*              14475               06.2424824774E-01-8.126697381E-01+
*       -2.500000000E-01               0
GRID*              14476               07.0392765887E-01-8.127132864E-01+
*       -2.500000000E-01               0
GRID*              14477               07.0551830652E-01-9.370480704E-01+
*       -2.500000000E-01               0
GRID*              14478               07.7904771828E-01-9.370480704E-01+
*       -2.500000000E-01               0
GRID*              14479               07.2735089943E-01-7.497054584E-01+
*       -2.500000000E-01               0
GRID*              14480               06.8783671745E-01-6.943230343E-01+
*       -2.500000000E-01               0
GRID*              14481               07.5660420629E-01-6.926980607E-01+
*       -2.500000000E-01               0
GRID*              14482               07.7269514771E-01-8.110883128E-01+
*       -2.500000000E-01               0
GRID*              14483               07.9994182563E-01-8.545700158E-01+
*       -2.500000000E-01               0
GRID*              14484               08.2336506619E-01-7.915621878E-01+
*       -2.500000000E-01               0
GRID*              14485               08.1588742437E-01-8.905825269E-01+
*       -2.500000000E-01               0
GRID*              14486               08.6655734285E-01-8.710564019E-01+
*       -2.500000000E-01               0
GRID*              14487               08.1437984061E-01-6.944517645E-01+
*       -2.500000000E-01               0
GRID*              14488               07.7486565863E-01-6.390693403E-01+
*       -2.500000000E-01               0
GRID*              14489               08.3861668255E-01-7.297312616E-01+
*       -2.500000000E-01               0
GRID*              14490               08.8857908052E-01-8.430924253E-01+
*       -2.500000000E-01               0
GRID*              14491               08.6587462432E-01-8.118656168E-01+
*       -2.500000000E-01               0
GRID*              14492               08.3862794639E-01-7.683839138E-01+
*       -2.500000000E-01               0
GRID*              14493               04.7836869577E-01-9.362734214E-01+
*       -2.500000000E-01               0
GRID*              14494               05.1597229703E-01-8.732779436E-01+
*       -2.500000000E-01               0
GRID*              14495               04.0483928400E-01-9.362734214E-01+
*       -2.500000000E-01               0
GRID*              14496               02.5796395810E-01-9.351753018E-01+
*       -2.500000000E-01               0
GRID*              14497               02.2178696444E-01-8.692550932E-01+
*       -2.500000000E-01               0
GRID*              14498               03.3149336987E-01-9.351753018E-01+
*       -2.500000000E-01               0
GRID*              14499               03.6868559505E-01-8.714487233E-01+
*       -2.500000000E-01               0
GRID*              14500               06.2109416101E-01-6.904251622E-01+
*       -2.500000000E-01               0
GRID*              14501               06.5034746787E-01-6.334177646E-01+
*       -2.500000000E-01               0
GRID*              14502               05.5218200491E-01-8.112805223E-01+
*       -2.500000000E-01               0
GRID*              14503               04.7824121706E-01-8.105494215E-01+
*       -2.500000000E-01               0
GRID*              14504               05.8651716777E-01-7.499412160E-01+
*       -2.500000000E-01               0
GRID*              14505               05.4902791819E-01-6.890359463E-01+
*       -2.500000000E-01               0
GRID*              14506               04.0568906632E-01-8.082698962E-01+
*       -2.500000000E-01               0
GRID*              14507               03.3234315218E-01-8.071717765E-01+
*       -2.500000000E-01               0
GRID*              14508               04.4189877420E-01-7.462724748E-01+
*       -2.500000000E-01               0
GRID*              14509               04.7848466182E-01-6.847192560E-01+
*       -2.500000000E-01               0
GRID*              14510               05.1306165506E-01-6.252032021E-01+
*       -2.500000000E-01               0
GRID*              14511               04.0593251107E-01-6.824397306E-01+
*       -2.500000000E-01               0
GRID*              14512               02.5918715263E-01-8.048118728E-01+
*       -2.500000000E-01               0
GRID*              14513               02.9619062390E-01-7.416330457E-01+
*       -2.500000000E-01               0
GRID*              14514               01.8563443615E-01-8.037163623E-01+
*       -2.500000000E-01               0
GRID*              14515               01.4931619312E-01-7.368277842E-01+
*       -2.500000000E-01               0
GRID*              14516               03.3367802820E-01-6.783997281E-01+
*       -2.500000000E-01               0
GRID*              14517               03.7026391582E-01-6.168465093E-01+
*       -2.500000000E-01               0
GRID*              14518               02.6052202865E-01-6.760398243E-01+
*       -2.500000000E-01               0
GRID*              14519               01.8718821319E-01-6.724251735E-01+
*       -2.500000000E-01               0
GRID*              14520               02.2467561750E-01-6.091918560E-01+
*       -2.500000000E-01               0
GRID*              14521               01.1346978197E-01-6.699798159E-01+
*       -2.500000000E-01               0
GRID*              14522               07.7072720522E-02-6.022188863E-01+
*       -2.500000000E-01               0
GRID*              14523               0-2.317981894E-011.4843985824E-01+
*       -2.500000000E-01               0
GRID*              14524               0-2.720118953E-018.3726187576E-02+
*       -2.500000000E-01               0
GRID*              14525               0-1.569041922E-011.4339844187E-01+
*       -2.500000000E-01               0
GRID*              14526               0-8.228516523E-021.3798395369E-01+
*       -2.500000000E-01               0
GRID*              14527               0-7.592274139E-031.3202774943E-01+
*       -2.500000000E-01               0
GRID*              14528               0-1.230550723E-017.3659071225E-02+
*       -2.500000000E-01               0
GRID*              14529               06.6803398150E-021.2563370923E-01+
*       -2.500000000E-01               0
GRID*              14530               02.5959626947E-026.1850542836E-02+
*       -2.500000000E-01               0
GRID*              14531               01.4127828243E-011.1852695144E-01+
*       -2.500000000E-01               0
GRID*              14532               02.1538355347E-011.1091515233E-01+
*       -2.500000000E-01               0
GRID*              14533               01.7446057027E-014.7844703520E-02+
*       -2.500000000E-01               0
GRID*              14534               04.3779712620E-018.3456973041E-02+
*       -2.500000000E-01               0
GRID*              14535               03.6356480965E-019.3442672042E-02+
*       -2.500000000E-01               0
GRID*              14536               04.6922835552E-011.1624377899E-02+
*       -2.500000000E-01               0
GRID*              14537               02.8983537254E-011.0244682389E-01+
*       -2.500000000E-01               0
GRID*              14538               03.2229527842E-013.1228752557E-02+
*       -2.500000000E-01               0
GRID*              14539               07.4744971153E-01-5.873242843E-01+
*       -2.500000000E-01               0
GRID*              14540               05.4901965661E-01-5.667960307E-01+
*       -2.500000000E-01               0
GRID*              14541               04.7847640024E-01-5.624793403E-01+
*       -2.500000000E-01               0
GRID*              14542               05.8262676335E-01-5.116586198E-01+
*       -2.500000000E-01               0
GRID*              14543               06.1721201816E-01-5.743824817E-01+
*       -2.500000000E-01               0
GRID*              14544               06.8395457461E-01-5.782803537E-01+
*       -2.500000000E-01               0
GRID*              14545               07.1431426183E-01-5.282890014E-01+
*       -2.500000000E-01               0
GRID*              14546               04.0746803891E-01-5.560785666E-01+
*       -2.500000000E-01               0
GRID*              14547               04.4342604047E-01-4.976713951E-01+
*       -2.500000000E-01               0
GRID*              14548               03.3521355605E-01-5.520385641E-01+
*       -2.500000000E-01               0
GRID*              14549               02.6260533562E-01-5.466241796E-01+
*       -2.500000000E-01               0
GRID*              14550               02.9980945871E-01-4.858562369E-01+
*       -2.500000000E-01               0
GRID*              14551               01.8927152016E-01-5.430095288E-01+
*       -2.500000000E-01               0
GRID*              14552               04.1276815746E-02-5.348981659E-01+
*       -2.500000000E-01               0
GRID*              14553               04.9971613130E-03-4.665270505E-01+
*       -2.500000000E-01               0
GRID*              14554               01.1554589726E-01-5.382564848E-01+
*       -2.500000000E-01               0
GRID*              14555               01.5347561539E-01-4.756888084E-01+
*       -2.500000000E-01               0
GRID*              14556               06.8635339022E-01-4.669592420E-01+
*       -2.500000000E-01               0
GRID*              14557               06.5467573816E-01-4.031424325E-01+
*       -2.500000000E-01               0
GRID*              14558               06.2591803647E-01-3.363846281E-01+
*       -2.500000000E-01               0
GRID*              14559               06.1914147284E-01-4.554282613E-01+
*       -2.500000000E-01               0
GRID*              14560               05.9432697270E-01-2.691828256E-01+
*       -2.500000000E-01               0
GRID*              14561               05.6434821757E-01-1.993594092E-01+
*       -2.500000000E-01               0
GRID*              14562               05.5587275702E-01-3.244096493E-01+
*       -2.500000000E-01               0
GRID*              14563               05.0146728497E-01-5.888981766E-02+
*       -2.500000000E-01               0
GRID*              14564               04.2826364498E-01-4.828959485E-02+
*       -2.500000000E-01               0
GRID*              14565               05.3245865817E-01-1.301573810E-01+
*       -2.500000000E-01               0
GRID*              14566               04.9239213384E-01-1.880058186E-01+
*       -2.500000000E-01               0
GRID*              14567               05.5094911130E-01-4.478418103E-01+
*       -2.500000000E-01               0
GRID*              14568               04.8089115590E-01-4.387059352E-01+
*       -2.500000000E-01               0
GRID*              14569               05.1740586539E-01-3.824755767E-01+
*       -2.500000000E-01               0
GRID*              14570               03.5544957789E-01-3.890647494E-02+
*       -2.500000000E-01               0
GRID*              14571               02.8172014079E-01-2.990232309E-02+
*       -2.500000000E-01               0
GRID*              14572               03.8768850734E-01-1.094206705E-01+
*       -2.500000000E-01               0
GRID*              14573               04.2075770106E-01-1.784463872E-01+
*       -2.500000000E-01               0
GRID*              14574               03.4794363397E-01-1.690632672E-01+
*       -2.500000000E-01               0
GRID*              14575               04.8581480162E-01-3.152737742E-01+
*       -2.500000000E-01               0
GRID*              14576               04.5264726047E-01-2.476484154E-01+
*       -2.500000000E-01               0
GRID*              14577               04.1418036884E-01-3.057143427E-01+
*       -2.500000000E-01               0
GRID*              14578               04.0988279457E-01-4.323051614E-01+
*       -2.500000000E-01               0
GRID*              14579               03.3797923974E-01-4.248705636E-01+
*       -2.500000000E-01               0
GRID*              14580               03.7544435517E-01-3.659051037E-01+
*       -2.500000000E-01               0
GRID*              14581               02.0818460788E-01-2.203016185E-02+
*       -2.500000000E-01               0
GRID*              14582               01.3407933684E-01-1.441836274E-02+
*       -2.500000000E-01               0
GRID*              14583               02.4133890735E-01-9.216538935E-02+
*       -2.500000000E-01               0
GRID*              14584               02.7515344603E-01-1.612235876E-01+
*       -2.500000000E-01               0
GRID*              14585               02.0161791312E-01-1.533514263E-01+
*       -2.500000000E-01               0
GRID*              14586               03.4227681401E-01-2.982797449E-01+
*       -2.500000000E-01               0
GRID*              14587               03.0822263975E-01-2.302493042E-01+
*       -2.500000000E-01               0
GRID*              14588               02.6948662607E-01-2.904400652E-01+
*       -2.500000000E-01               0
GRID*              14589               0-1.445213920E-02-1.264721137E-03+
*       -2.500000000E-01               0
GRID*              14590               05.9943533089E-02-7.658761339E-03+
*       -2.500000000E-01               0
GRID*              14591               0-8.904483808E-024.4666354001E-03+
*       -2.500000000E-01               0
GRID*              14592               0-1.636638650E-019.8811235872E-03+
*       -2.500000000E-01               0
GRID*              14593               0-5.506093194E-02-6.504266877E-02+
*       -2.500000000E-01               0
GRID*              14594               0-2.069054181E-02-1.339704083E-01+
*       -2.500000000E-01               0
GRID*              14595               0-9.528324069E-02-1.282390518E-01+
*       -2.500000000E-01               0
GRID*              14596               0-2.385361762E-011.5275992759E-02+
*       -2.500000000E-01               0
GRID*              14597               0-1.360582019E-01-1.917798835E-01+
*       -2.500000000E-01               0
GRID*              14598               0-1.704285920E-01-1.228521440E-01+
*       -2.500000000E-01               0
GRID*              14599               0-1.011011495E-01-2.608145642E-01+
*       -2.500000000E-01               0
GRID*              14600               0-2.045259419E-01-5.391644307E-02+
*       -2.500000000E-01               0
GRID*              14601               0-3.043172754E-02-3.984501016E-01+
*       -2.500000000E-01               0
GRID*              14602               04.4321103635E-02-4.028588155E-01+
*       -2.500000000E-01               0
GRID*              14603               0-6.619861680E-02-3.296221018E-01+
*       -2.500000000E-01               0
GRID*              14604               0-2.601031789E-02-2.659743289E-01+
*       -2.500000000E-01               0
GRID*              14605               01.3592517527E-02-2.031957717E-01+
*       -2.500000000E-01               0
GRID*              14606               04.8495050203E-02-2.720033094E-01+
*       -2.500000000E-01               0
GRID*              14607               05.3814826283E-02-1.399993887E-01+
*       -2.500000000E-01               0
GRID*              14608               09.3667570692E-02-7.753362671E-02+
*       -2.500000000E-01               0
GRID*              14609               01.2795063003E-01-1.467589901E-01+
*       -2.500000000E-01               0
GRID*              14610               01.1849778175E-01-4.085488074E-01+
*       -2.500000000E-01               0
GRID*              14611               01.9222340465E-01-4.133018514E-01+
*       -2.500000000E-01               0
GRID*              14612               08.3068892901E-02-3.404718585E-01+
*       -2.500000000E-01               0
GRID*              14613               01.2267172832E-01-2.776933012E-01+
*       -2.500000000E-01               0
GRID*              14614               01.6176516871E-01-2.158171883E-01+
*       -2.500000000E-01               0
GRID*              14615               01.9633901141E-01-2.842857374E-01+
*       -2.500000000E-01               0
GRID*              14616               02.6537101931E-01-4.194561791E-01+
*       -2.500000000E-01               0
GRID*              14617               02.3039318568E-01-3.523161781E-01+
*       -2.500000000E-01               0
GRID*              14618               01.1516584843E+00-7.065982754E-01+
*       -2.500000000E-01               0
GRID*              14619               01.1516697878E+00-7.452017045E-01+
*       -2.500000000E-01               0
GRID*              14620               01.1671929772E+00-6.505967100E-01+
*       -2.500000000E-01               0
GRID*              14621               01.2172194948E+00-6.970712200E-01+
*       -2.500000000E-01               0
GRID*              14622               01.2172194948E+00-7.739942969E-01+
*       -2.500000000E-01               0
GRID*              14623               0-1.151646861E+007.0656142904E-01+
*       -2.500000000E-01               0
GRID*              14624               0-1.151658131E+007.4521406953E-01+
*       -2.500000000E-01               0
GRID*              14625               0-1.166901050E+006.6682325336E-01+
*       -2.500000000E-01               0
GRID*              14626               0-1.217215620E+006.9705893789E-01+
*       -2.500000000E-01               0
GRID*              14627               0-1.217215620E+007.7398201481E-01+
*       -2.500000000E-01               0
GRID*              14628               0-9.923286118E-01-8.863843970E-01+
*       -2.500000000E-01               0
GRID*              14629               0-9.664612291E-019.1161725929E-01+
*       -2.500000000E-01               0
GRID*              14630               09.8358037903E-019.1853344359E-01+
*       -2.500000000E-01               0
GRID*              14631               09.7035121903E-01-9.143537370E-01+
*       -2.500000000E-01               0
GRID*              14632               0-1.158101379E+00-8.150360315E-01+
*       -2.500000000E-01               0
GRID*              14633               01.1586972649E+008.1658652762E-01+
*       -2.500000000E-01               0
GRID*              14634               0-1.162490531E+008.5872965988E-01+
*       -2.500000000E-01               0
GRID*              14635               0-1.217221255E+008.3176987351E-01+
*       -2.500000000E-01               0
GRID*              14636               0-1.151663766E+008.0300192823E-01+
*       -2.500000000E-01               0
GRID*              14637               0-1.184436876E+007.5959804217E-01+
*       -2.500000000E-01               0
GRID*              14638               01.1624959217E+00-8.587156042E-01+
*       -2.500000000E-01               0
GRID*              14639               01.2172251465E+00-8.317575499E-01+
*       -2.500000000E-01               0
GRID*              14640               01.1516754395E+00-8.029649574E-01+
*       -2.500000000E-01               0
GRID*              14641               01.1844446413E+00-7.595980007E-01+
*       -2.500000000E-01               0
GRID*              14642               0-9.530009787E-01-9.007552471E-01+
*       -2.500000000E-01               0
GRID*              14643               03.7464045131E-011.5357801613E-01+
*       0.0000000000E+00               0
GRID*              14644               02.4954916227E-017.6601715474E-02+
*       0.0000000000E+00               0
GRID*              14645               01.2474158300E-01-1.679197671E-04+
*       0.0000000000E+00               0
GRID*              14646               01.1000076082E-04-7.683150127E-02+
*       0.0000000000E+00               0
GRID*              14647               0-1.243765082E-01-1.533377501E-01+
*       0.0000000000E+00               0
GRID*              14648               0-2.490336127E-01-2.298658662E-01+
*       0.0000000000E+00               0
GRID*              14649               0-3.742329926E-01-3.068508303E-01+
*       0.0000000000E+00               0
GRID*              14650               03.7479324114E-01-3.075293181E-01+
*       0.0000000000E+00               0
GRID*              14651               02.5020068997E-01-3.835825037E-01+
*       0.0000000000E+00               0
GRID*              14652               01.2714488345E-01-4.583477373E-01+
*       0.0000000000E+00               0
GRID*              14653               06.0009650637E-03-5.326454375E-01+
*       0.0000000000E+00               0
GRID*              14654               0-1.167666012E-01-6.091240344E-01+
*       0.0000000000E+00               0
GRID*              14655               0-2.473684370E-01-6.901231022E-01+
*       0.0000000000E+00               0
GRID*              14656               0-3.802907027E-01-7.657430047E-01+
*       0.0000000000E+00               0
GRID*              14657               02.5192099421E-01-5.339875429E-01+
*       0.0000000000E+00               0
GRID*              14658               03.7568576106E-01-6.119237681E-01+
*       0.0000000000E+00               0
GRID*              14659               03.7543703455E-01-4.600257576E-01+
*       0.0000000000E+00               0
GRID*              14660               01.3148503909E-01-6.078074150E-01+
*       0.0000000000E+00               0
GRID*              14661               02.5281741213E-01-6.830788313E-01+
*       0.0000000000E+00               0
GRID*              14662               03.7378920540E-01-7.606713217E-01+
*       0.0000000000E+00               0
GRID*              14663               0-9.485686149E-02-9.043236006E-01+
*       0.0000000000E+00               0
GRID*              14664               0-1.117621122E-01-7.620231766E-01+
*       0.0000000000E+00               0
GRID*              14665               0-2.578440476E-01-8.595240704E-01+
*       0.0000000000E+00               0
GRID*              14666               0-3.995905719E-01-8.938053044E-01+
*       0.0000000000E+00               0
GRID*              14667               01.2038065633E-02-6.823818203E-01+
*       0.0000000000E+00               0
GRID*              14668               02.4762317968E-02-8.290255813E-01+
*       0.0000000000E+00               0
GRID*              14669               01.3486668306E-01-7.522248080E-01+
*       0.0000000000E+00               0
GRID*              14670               03.6697479118E-01-9.010054997E-01+
*       0.0000000000E+00               0
GRID*              14671               02.4753661957E-01-8.277733653E-01+
*       0.0000000000E+00               0
GRID*              14672               01.3849697257E-01-8.809924356E-01+
*       0.0000000000E+00               0
GRID*              14673               0-3.748309742E-01-6.135693726E-01+
*       0.0000000000E+00               0
GRID*              14674               0-3.739577412E-01-4.599954923E-01+
*       0.0000000000E+00               0
GRID*              14675               03.7473858905E-01-1.478142364E-04+
*       0.0000000000E+00               0
GRID*              14676               03.7479001075E-01-1.538869950E-01+
*       0.0000000000E+00               0
GRID*              14677               02.4969555409E-01-7.705575446E-02+
*       0.0000000000E+00               0
GRID*              14678               02.4989744500E-01-2.305440526E-01+
*       0.0000000000E+00               0
GRID*              14679               01.2496744967E-01-1.537132695E-01+
*       0.0000000000E+00               0
GRID*              14680               01.2570922750E-01-3.065441475E-01+
*       0.0000000000E+00               0
GRID*              14681               07.4550946852E-04-2.298623306E-01+
*       0.0000000000E+00               0
GRID*              14682               02.5278029351E-03-3.818017617E-01+
*       0.0000000000E+00               0
GRID*              14683               0-1.209706880E-01-4.577211784E-01+
*       0.0000000000E+00               0
GRID*              14684               0-2.470783742E-01-5.355647412E-01+
*       0.0000000000E+00               0
GRID*              14685               0-2.481223034E-01-3.826801191E-01+
*       0.0000000000E+00               0
GRID*              14686               0-1.231526850E-01-3.058649563E-01+
*       0.0000000000E+00               0
GRID*              14687               03.7436922847E-016.1296380475E-01+
*       0.0000000000E+00               0
GRID*              14688               02.4721200621E-015.3464781353E-01+
*       0.0000000000E+00               0
GRID*              14689               01.2196310846E-014.5776342298E-01+
*       0.0000000000E+00               0
GRID*              14690               0-1.609045681E-033.8239376534E-01+
*       0.0000000000E+00               0
GRID*              14691               0-1.253373803E-013.0674353628E-01+
*       0.0000000000E+00               0
GRID*              14692               0-2.498438066E-012.3045211700E-01+
*       0.0000000000E+00               0
GRID*              14693               0-3.748004145E-011.5380992488E-01+
*       0.0000000000E+00               0
GRID*              14694               0-3.745499778E-01-1.534716099E-01+
*       0.0000000000E+00               0
GRID*              14695               0-3.747256823E-011.3047318044E-04+
*       0.0000000000E+00               0
GRID*              14696               03.7410796192E-014.6011937814E-01+
*       0.0000000000E+00               0
GRID*              14697               03.7437974617E-013.0693760899E-01+
*       0.0000000000E+00               0
GRID*              14698               0-2.494743922E-01-7.655514565E-02+
*       0.0000000000E+00               0
GRID*              14699               0-2.497121842E-017.6961368514E-02+
*       0.0000000000E+00               0
GRID*              14700               0-1.246905634E-011.4987863908E-04+
*       0.0000000000E+00               0
GRID*              14701               0-1.249823646E-011.5357667874E-01+
*       0.0000000000E+00               0
GRID*              14702               0-8.294843030E-057.6741382572E-02+
*       0.0000000000E+00               0
GRID*              14703               0-5.998967475E-042.2990296026E-01+
*       0.0000000000E+00               0
GRID*              14704               01.2360231973E-013.0599334374E-01+
*       0.0000000000E+00               0
GRID*              14705               02.4840267867E-013.8257865800E-01+
*       0.0000000000E+00               0
GRID*              14706               02.4916717046E-012.2983633875E-01+
*       0.0000000000E+00               0
GRID*              14707               01.2437580643E-011.5313889135E-01+
*       0.0000000000E+00               0
GRID*              14708               0-1.272852184E-014.5797154962E-01+
*       0.0000000000E+00               0
GRID*              14709               0-2.519526208E-015.3376446732E-01+
*       0.0000000000E+00               0
GRID*              14710               0-3.757199413E-016.1178972962E-01+
*       0.0000000000E+00               0
GRID*              14711               0-2.507576361E-013.8270904363E-01+
*       0.0000000000E+00               0
GRID*              14712               0-3.750881495E-013.0703292668E-01+
*       0.0000000000E+00               0
GRID*              14713               0-3.755950672E-014.5973373961E-01+
*       0.0000000000E+00               0
GRID*              14714               03.8030626555E-017.6533524414E-01+
*       0.0000000000E+00               0
GRID*              14715               02.4812560588E-016.8972897758E-01+
*       0.0000000000E+00               0
GRID*              14716               01.1805053480E-016.1010116019E-01+
*       0.0000000000E+00               0
GRID*              14717               0-5.816919940E-035.3327125955E-01+
*       0.0000000000E+00               0
GRID*              14718               0-1.314526769E-016.0781095147E-01+
*       0.0000000000E+00               0
GRID*              14719               0-2.528222818E-016.8298560074E-01+
*       0.0000000000E+00               0
GRID*              14720               0-3.737984049E-017.6061427301E-01+
*       0.0000000000E+00               0
GRID*              14721               09.5115269356E-029.0446457885E-01+
*       0.0000000000E+00               0
GRID*              14722               01.1227447959E-017.6215311896E-01+
*       0.0000000000E+00               0
GRID*              14723               02.5798682926E-018.5937302521E-01+
*       0.0000000000E+00               0
GRID*              14724               03.9960336343E-018.9370554505E-01+
*       0.0000000000E+00               0
GRID*              14725               0-1.166344209E-026.8268734306E-01+
*       0.0000000000E+00               0
GRID*              14726               0-2.456280856E-028.2910347473E-01+
*       0.0000000000E+00               0
GRID*              14727               0-1.347649620E-017.5227133087E-01+
*       0.0000000000E+00               0
GRID*              14728               0-3.669790387E-019.0097792480E-01+
*       0.0000000000E+00               0
GRID*              14729               0-2.475167718E-018.2775454608E-01+
*       0.0000000000E+00               0
GRID*              14730               0-1.384364243E-018.8102048893E-01+
*       0.0000000000E+00               0
GRID*              14731               04.3739662057E-01-3.460723514E-01+
*       0.0000000000E+00               0
GRID*              14732               04.3739662057E-01-2.691492744E-01+
*       0.0000000000E+00               0
GRID*              14733               04.3784288053E-01-5.751926533E-01+
*       0.0000000000E+00               0
GRID*              14734               04.3784288053E-01-6.521157302E-01+
*       0.0000000000E+00               0
GRID*              14735               04.3771851727E-01-4.992436480E-01+
*       0.0000000000E+00               0
GRID*              14736               03.7556139780E-01-5.359747628E-01+
*       0.0000000000E+00               0
GRID*              14737               04.3771851727E-01-4.223205711E-01+
*       0.0000000000E+00               0
GRID*              14738               03.7511513784E-01-3.837775379E-01+
*       0.0000000000E+00               0
GRID*              14739               02.5106084209E-01-4.587850233E-01+
*       0.0000000000E+00               0
GRID*              14740               01.8867278671E-01-4.209651205E-01+
*       0.0000000000E+00               0
GRID*              14741               01.8953293883E-01-4.961676401E-01+
*       0.0000000000E+00               0
GRID*              14742               03.1281886226E-01-4.218041306E-01+
*       0.0000000000E+00               0
GRID*              14743               03.1249696556E-01-3.455559109E-01+
*       0.0000000000E+00               0
GRID*              14744               03.1367901438E-01-4.970066503E-01+
*       0.0000000000E+00               0
GRID*              14745               03.1380337764E-01-5.729556555E-01+
*       0.0000000000E+00               0
GRID*              14746               01.2931496127E-01-5.330775762E-01+
*       0.0000000000E+00               0
GRID*              14747               06.6572924259E-02-4.954965874E-01+
*       0.0000000000E+00               0
GRID*              14748               06.8743002077E-02-5.702264263E-01+
*       0.0000000000E+00               0
GRID*              14749               01.9170301665E-01-5.708974790E-01+
*       0.0000000000E+00               0
GRID*              14750               01.9215122561E-01-6.454431232E-01+
*       0.0000000000E+00               0
GRID*              14751               02.5236920317E-01-6.085331871E-01+
*       0.0000000000E+00               0
GRID*              14752               04.3689460270E-01-7.264895070E-01+
*       0.0000000000E+00               0
GRID*              14753               04.3689460270E-01-8.034125839E-01+
*       0.0000000000E+00               0
GRID*              14754               03.7473748323E-01-6.862975449E-01+
*       0.0000000000E+00               0
GRID*              14755               03.1425158659E-01-6.475012997E-01+
*       0.0000000000E+00               0
GRID*              14756               03.1330330876E-01-7.218750765E-01+
*       0.0000000000E+00               0
GRID*              14757               0-2.526062423E-01-7.748235863E-01+
*       0.0000000000E+00               0
GRID*              14758               0-3.138295698E-01-7.279330535E-01+
*       0.0000000000E+00               0
GRID*              14759               0-3.190673751E-01-8.126335376E-01+
*       0.0000000000E+00               0
GRID*              14760               0-1.795652746E-01-7.260731394E-01+
*       0.0000000000E+00               0
GRID*              14761               0-1.142643567E-01-6.855736055E-01+
*       0.0000000000E+00               0
GRID*              14762               0-1.820675191E-01-6.496235683E-01+
*       0.0000000000E+00               0
GRID*              14763               0-1.848030799E-01-8.107736235E-01+
*       0.0000000000E+00               0
GRID*              14764               0-1.763504545E-01-8.819238355E-01+
*       0.0000000000E+00               0
GRID*              14765               0-1.033094869E-01-8.331733886E-01+
*       0.0000000000E+00               0
GRID*              14766               0-1.545712879E-01-9.521618003E-01+
*       0.0000000000E+00               0
GRID*              14767               0-8.314271646E-02-9.521618003E-01+
*       0.0000000000E+00               0
GRID*              14768               0-2.360648809E-01-9.297620352E-01+
*       0.0000000000E+00               0
GRID*              14769               0-3.074934524E-01-9.297620352E-01+
*       0.0000000000E+00               0
GRID*              14770               0-3.287173097E-01-8.766646874E-01+
*       0.0000000000E+00               0
GRID*              14771               0-3.783667145E-01-9.469026522E-01+
*       0.0000000000E+00               0
GRID*              14772               0-3.899406373E-01-8.297741545E-01+
*       0.0000000000E+00               0
GRID*              14773               0-4.497952860E-01-8.699795753E-01+
*       0.0000000000E+00               0
GRID*              14774               0-4.401453514E-01-8.059484254E-01+
*       0.0000000000E+00               0
GRID*              14775               0-4.497952860E-01-9.469026522E-01+
*       0.0000000000E+00               0
GRID*              14776               09.0195153482E-03-6.075136289E-01+
*       0.0000000000E+00               0
GRID*              14777               07.1761552362E-02-6.450946176E-01+
*       0.0000000000E+00               0
GRID*              14778               0-5.236426780E-02-6.457529273E-01+
*       0.0000000000E+00               0
GRID*              14779               0-4.986202329E-02-7.222024985E-01+
*       0.0000000000E+00               0
GRID*              14780               0-5.538281808E-02-5.708847360E-01+
*       0.0000000000E+00               0
GRID*              14781               01.3317586108E-01-6.800161115E-01+
*       0.0000000000E+00               0
GRID*              14782               01.9384204759E-01-7.176518197E-01+
*       0.0000000000E+00               0
GRID*              14783               07.3452374347E-02-7.173033141E-01+
*       0.0000000000E+00               0
GRID*              14784               0-4.349989712E-02-7.955243790E-01+
*       0.0000000000E+00               0
GRID*              14785               0-3.504727176E-02-8.666745909E-01+
*       0.0000000000E+00               0
GRID*              14786               01.8400191800E-02-7.557037008E-01+
*       0.0000000000E+00               0
GRID*              14787               07.9814500515E-02-7.906251947E-01+
*       0.0000000000E+00               0
GRID*              14788               04.3348739559E-01-8.735796729E-01+
*       0.0000000000E+00               0
GRID*              14789               03.7038199829E-01-8.308384107E-01+
*       0.0000000000E+00               0
GRID*              14790               04.3348739559E-01-9.505027498E-01+
*       0.0000000000E+00               0
GRID*              14791               03.6205882416E-01-9.505027498E-01+
*       0.0000000000E+00               0
GRID*              14792               02.5017701585E-01-7.554260983E-01+
*       0.0000000000E+00               0
GRID*              14793               01.9120165132E-01-7.899990867E-01+
*       0.0000000000E+00               0
GRID*              14794               03.1066291249E-01-7.942223435E-01+
*       0.0000000000E+00               0
GRID*              14795               03.0725570538E-01-8.643894325E-01+
*       0.0000000000E+00               0
GRID*              14796               02.9063025273E-01-9.505027498E-01+
*       0.0000000000E+00               0
GRID*              14797               02.3091116693E-01-9.138866827E-01+
*       0.0000000000E+00               0
GRID*              14798               0-1.171414503E-02-9.521618003E-01+
*       0.0000000000E+00               0
GRID*              14799               04.8095444698E-02-9.145127906E-01+
*       0.0000000000E+00               0
GRID*              14800               01.9301679607E-01-8.543829005E-01+
*       0.0000000000E+00               0
GRID*              14801               01.7639134343E-01-9.404962178E-01+
*       0.0000000000E+00               0
GRID*              14802               01.0496277200E-01-9.404962178E-01+
*       0.0000000000E+00               0
GRID*              14803               01.3668182782E-01-8.166086218E-01+
*       0.0000000000E+00               0
GRID*              14804               08.1629645271E-02-8.550090085E-01+
*       0.0000000000E+00               0
GRID*              14805               0-4.369788706E-01-4.223054384E-01+
*       0.0000000000E+00               0
GRID*              14806               0-3.740953669E-01-3.834231613E-01+
*       0.0000000000E+00               0
GRID*              14807               0-4.371164963E-01-3.457331075E-01+
*       0.0000000000E+00               0
GRID*              14808               0-4.369788706E-01-4.992285154E-01+
*       0.0000000000E+00               0
GRID*              14809               0-4.374154871E-01-5.760154555E-01+
*       0.0000000000E+00               0
GRID*              14810               0-3.743943577E-01-5.367824324E-01+
*       0.0000000000E+00               0
GRID*              14811               0-4.401453514E-01-7.290253485E-01+
*       0.0000000000E+00               0
GRID*              14812               0-4.374154871E-01-6.529385325E-01+
*       0.0000000000E+00               0
GRID*              14813               0-3.775608384E-01-6.896561887E-01+
*       0.0000000000E+00               0
GRID*              14814               04.3739500538E-01-1.923281129E-01+
*       0.0000000000E+00               0
GRID*              14815               03.7479162595E-01-2.307081565E-01+
*       0.0000000000E+00               0
GRID*              14816               04.3739500538E-01-1.154050359E-01+
*       0.0000000000E+00               0
GRID*              14817               04.3736929452E-01-3.853544558E-02+
*       0.0000000000E+00               0
GRID*              14818               03.7476429990E-01-7.701740460E-02+
*       0.0000000000E+00               0
GRID*              14819               04.3732022565E-011.1525054653E-01+
*       0.0000000000E+00               0
GRID*              14820               04.3732022565E-011.9217362345E-01+
*       0.0000000000E+00               0
GRID*              14821               04.3736929452E-013.8387631343E-02+
*       0.0000000000E+00               0
GRID*              14822               03.7468952018E-017.6715100947E-02+
*       0.0000000000E+00               0
GRID*              14823               03.1234534307E-01-2.690366853E-01+
*       0.0000000000E+00               0
GRID*              14824               02.5004906749E-01-3.070632781E-01+
*       0.0000000000E+00               0
GRID*              14825               03.1234372787E-01-1.922155238E-01+
*       0.0000000000E+00               0
GRID*              14826               03.1214387566E-013.8226950619E-02+
*       0.0000000000E+00               0
GRID*              14827               03.1209480679E-011.1508986580E-01+
*       0.0000000000E+00               0
GRID*              14828               02.4962235818E-01-2.270194953E-04+
*       0.0000000000E+00               0
GRID*              14829               03.1221707157E-01-3.860178435E-02+
*       0.0000000000E+00               0
GRID*              14830               03.1224278242E-01-1.154713747E-01+
*       0.0000000000E+00               0
GRID*              14831               02.4979649954E-01-1.537999035E-01+
*       0.0000000000E+00               0
GRID*              14832               01.8795495874E-01-3.450633256E-01+
*       0.0000000000E+00               0
GRID*              14833               01.2642705548E-01-3.824459424E-01+
*       0.0000000000E+00               0
GRID*              14834               01.8780333625E-01-2.685441000E-01+
*       0.0000000000E+00               0
GRID*              14835               01.8721856854E-01-3.861183712E-02+
*       0.0000000000E+00               0
GRID*              14836               01.8714537263E-013.8216897853E-02+
*       0.0000000000E+00               0
GRID*              14837               01.2485451633E-01-7.694059462E-02+
*       0.0000000000E+00               0
GRID*              14838               01.8733150188E-01-1.153845120E-01+
*       0.0000000000E+00               0
GRID*              14839               01.8743244733E-01-1.921286610E-01+
*       0.0000000000E+00               0
GRID*              14840               01.2533833859E-01-2.301287085E-01+
*       0.0000000000E+00               0
GRID*              14841               06.4836343195E-02-4.200747495E-01+
*       0.0000000000E+00               0
GRID*              14842               04.2643839994E-03-4.572235996E-01+
*       0.0000000000E+00               0
GRID*              14843               06.4118515218E-02-3.441729546E-01+
*       0.0000000000E+00               0
GRID*              14844               06.2538725215E-02-1.152723854E-01+
*       0.0000000000E+00               0
GRID*              14845               06.2425791878E-02-3.849971052E-02+
*       0.0000000000E+00               0
GRID*              14846               04.2775511467E-04-1.533469160E-01+
*       0.0000000000E+00               0
GRID*              14847               06.2856479569E-02-1.917878001E-01+
*       0.0000000000E+00               0
GRID*              14848               06.3227368485E-02-2.682032391E-01+
*       0.0000000000E+00               0
GRID*              14849               01.6366562018E-03-3.058320462E-01+
*       0.0000000000E+00               0
GRID*              14850               0-3.110997056E-01-6.518462374E-01+
*       0.0000000000E+00               0
GRID*              14851               0-2.472234056E-01-6.128439217E-01+
*       0.0000000000E+00               0
GRID*              14852               0-3.109546742E-01-5.745670569E-01+
*       0.0000000000E+00               0
GRID*              14853               0-5.748486147E-02-4.951833080E-01+
*       0.0000000000E+00               0
GRID*              14854               0-1.188686446E-01-5.334226064E-01+
*       0.0000000000E+00               0
GRID*              14855               0-5.922144253E-02-4.197614701E-01+
*       0.0000000000E+00               0
GRID*              14856               0-1.819224877E-01-5.723443878E-01+
*       0.0000000000E+00               0
GRID*              14857               0-1.840245311E-01-4.966429598E-01+
*       0.0000000000E+00               0
GRID*              14858               0-3.111776480E-01-3.447654747E-01+
*       0.0000000000E+00               0
GRID*              14859               0-2.485779580E-01-3.062729926E-01+
*       0.0000000000E+00               0
GRID*              14860               0-3.116333027E-01-2.683583482E-01+
*       0.0000000000E+00               0
GRID*              14861               0-3.110400223E-01-4.213378057E-01+
*       0.0000000000E+00               0
GRID*              14862               0-3.105180577E-01-4.977801167E-01+
*       0.0000000000E+00               0
GRID*              14863               0-2.476003388E-01-4.591224301E-01+
*       0.0000000000E+00               0
GRID*              14864               0-6.181549936E-02-1.916000404E-01+
*       0.0000000000E+00               0
GRID*              14865               0-1.237645966E-01-2.296013532E-01+
*       0.0000000000E+00               0
GRID*              14866               0-6.120358777E-02-2.678636435E-01+
*       0.0000000000E+00               0
GRID*              14867               0-6.213325371E-02-1.150846257E-01+
*       0.0000000000E+00               0
GRID*              14868               0-1.860931489E-01-2.678654112E-01+
*       0.0000000000E+00               0
GRID*              14869               0-1.856374942E-01-3.442725377E-01+
*       0.0000000000E+00               0
GRID*              14870               0-1.867050605E-01-1.916018081E-01+
*       0.0000000000E+00               0
GRID*              14871               0-6.031244104E-02-3.438333590E-01+
*       0.0000000000E+00               0
GRID*              14872               0-1.220616865E-01-3.817930674E-01+
*       0.0000000000E+00               0
GRID*              14873               0-1.845464957E-01-4.202006487E-01+
*       0.0000000000E+00               0
GRID*              14874               0-4.373628411E-013.8526775052E-02+
*       0.0000000000E+00               0
GRID*              14875               0-3.747630484E-017.6970199028E-02+
*       0.0000000000E+00               0
GRID*              14876               0-4.374002072E-011.1536650090E-01+
*       0.0000000000E+00               0
GRID*              14877               0-4.373628411E-01-3.839630187E-02+
*       0.0000000000E+00               0
GRID*              14878               0-4.372749889E-01-1.151973434E-01+
*       0.0000000000E+00               0
GRID*              14879               0-3.746378300E-01-7.667056834E-02+
*       0.0000000000E+00               0
GRID*              14880               0-4.371164963E-01-2.688100305E-01+
*       0.0000000000E+00               0
GRID*              14881               0-4.372749889E-01-1.921204203E-01+
*       0.0000000000E+00               0
GRID*              14882               0-3.743914852E-01-2.301612201E-01+
*       0.0000000000E+00               0
GRID*              14883               04.3718987309E-012.6885341988E-01+
*       0.0000000000E+00               0
GRID*              14884               03.7451009874E-012.3025781256E-01+
*       0.0000000000E+00               0
GRID*              14885               04.3718987309E-013.4577649680E-01+
*       0.0000000000E+00               0
GRID*              14886               04.3705398096E-014.2236738138E-01+
*       0.0000000000E+00               0
GRID*              14887               03.7424385405E-013.8352849357E-01+
*       0.0000000000E+00               0
GRID*              14888               04.3718461424E-015.7571267160E-01+
*       0.0000000000E+00               0
GRID*              14889               04.3718461424E-016.5263574853E-01+
*       0.0000000000E+00               0
GRID*              14890               04.3705398096E-014.9929045830E-01+
*       0.0000000000E+00               0
GRID*              14891               03.7423859520E-015.3654159145E-01+
*       0.0000000000E+00               0
GRID*              14892               0-3.122562994E-011.1538564669E-01+
*       0.0000000000E+00               0
GRID*              14893               0-2.497779954E-011.5370674276E-01+
*       0.0000000000E+00               0
GRID*              14894               0-3.123221106E-011.9213102094E-01+
*       0.0000000000E+00               0
GRID*              14895               0-3.122189333E-013.8545920847E-02+
*       0.0000000000E+00               0
GRID*              14896               0-3.117917952E-01-1.916687380E-01+
*       0.0000000000E+00               0
GRID*              14897               0-2.492540025E-01-1.532105059E-01+
*       0.0000000000E+00               0
GRID*              14898               0-3.120121850E-01-1.150133778E-01+
*       0.0000000000E+00               0
GRID*              14899               0-3.121000372E-01-3.821233623E-02+
*       0.0000000000E+00               0
GRID*              14900               0-2.495932882E-012.0311143424E-04+
*       0.0000000000E+00               0
GRID*              14901               0-1.874130856E-011.9201439787E-01+
*       0.0000000000E+00               0
GRID*              14902               0-1.251598725E-012.3016010751E-01+
*       0.0000000000E+00               0
GRID*              14903               0-1.875905935E-012.6859782664E-01+
*       0.0000000000E+00               0
GRID*              14904               0-1.873472744E-011.1526902363E-01+
*       0.0000000000E+00               0
GRID*              14905               0-1.869254502E-01-1.149464479E-01+
*       0.0000000000E+00               0
GRID*              14906               0-1.245335358E-01-7.659393575E-02+
*       0.0000000000E+00               0
GRID*              14907               0-1.870824778E-01-3.820263350E-02+
*       0.0000000000E+00               0
GRID*              14908               0-1.872013738E-013.8555623576E-02+
*       0.0000000000E+00               0
GRID*              14909               0-1.248364640E-017.6863278690E-02+
*       0.0000000000E+00               0
GRID*              14910               0-6.296863855E-022.6832324827E-01+
*       0.0000000000E+00               0
GRID*              14911               0-1.104471214E-033.0614836280E-01+
*       0.0000000000E+00               0
GRID*              14912               0-6.347321302E-023.4456865081E-01+
*       0.0000000000E+00               0
GRID*              14913               0-6.279113068E-021.9173981950E-01+
*       0.0000000000E+00               0
GRID*              14914               0-6.229028131E-02-3.834081131E-02+
*       0.0000000000E+00               0
GRID*              14915               01.3526165258E-05-4.505934741E-05+
*       0.0000000000E+00               0
GRID*              14916               0-6.238675590E-023.8445630606E-02+
*       0.0000000000E+00               0
GRID*              14917               0-6.253265653E-021.1515903066E-01+
*       0.0000000000E+00               0
GRID*              14918               0-3.414225889E-041.5332217142E-01+
*       0.0000000000E+00               0
GRID*              14919               03.1065998406E-014.9738359584E-01+
*       0.0000000000E+00               0
GRID*              14920               02.4780734244E-014.5861323576E-01+
*       0.0000000000E+00               0
GRID*              14921               03.1125532029E-014.2134901807E-01+
*       0.0000000000E+00               0
GRID*              14922               03.1079061734E-015.7380580914E-01+
*       0.0000000000E+00               0
GRID*              14923               06.0996637023E-023.4419355454E-01+
*       0.0000000000E+00               0
GRID*              14924               01.2278271409E-013.8187838336E-01+
*       0.0000000000E+00               0
GRID*              14925               06.0177031388E-024.2007859416E-01+
*       0.0000000000E+00               0
GRID*              14926               06.1501211490E-022.6794815200E-01+
*       0.0000000000E+00               0
GRID*              14927               01.8518289357E-014.2017104049E-01+
*       0.0000000000E+00               0
GRID*              14928               01.8458755733E-014.9620561826E-01+
*       0.0000000000E+00               0
GRID*              14929               01.8600249920E-013.4428600087E-01+
*       0.0000000000E+00               0
GRID*              14930               03.1190381088E-011.9170717744E-01+
*       0.0000000000E+00               0
GRID*              14931               02.4935816637E-011.5321902711E-01+
*       0.0000000000E+00               0
GRID*              14932               03.1177345832E-012.6838697387E-01+
*       0.0000000000E+00               0
GRID*              14933               03.1139121242E-013.4475813349E-01+
*       0.0000000000E+00               0
GRID*              14934               02.4878492456E-013.0620749837E-01+
*       0.0000000000E+00               0
GRID*              14935               06.2329317283E-023.8286731403E-02+
*       0.0000000000E+00               0
GRID*              14936               01.2455869471E-017.6485485789E-02+
*       0.0000000000E+00               0
GRID*              14937               06.2146429000E-021.1494013696E-01+
*       0.0000000000E+00               0
GRID*              14938               01.8696248435E-011.1487030341E-01+
*       0.0000000000E+00               0
GRID*              14939               01.8677148844E-011.9148761505E-01+
*       0.0000000000E+00               0
GRID*              14940               06.1887954842E-021.9152092580E-01+
*       0.0000000000E+00               0
GRID*              14941               01.2398906308E-012.2956611754E-01+
*       0.0000000000E+00               0
GRID*              14942               01.8638474509E-012.6791484124E-01+
*       0.0000000000E+00               0
GRID*              14943               0-4.374002072E-011.9228957782E-01+
*       0.0000000000E+00               0
GRID*              14944               0-4.378599707E-015.7512563404E-01+
*       0.0000000000E+00               0
GRID*              14945               0-4.378599707E-016.5204871096E-01+
*       0.0000000000E+00               0
GRID*              14946               0-1.263112994E-013.8235754295E-01+
*       0.0000000000E+00               0
GRID*              14947               0-6.444713207E-024.2018265748E-01+
*       0.0000000000E+00               0
GRID*              14948               0-1.890214273E-014.2034029663E-01+
*       0.0000000000E+00               0
GRID*              14949               0-1.896189196E-014.9586800847E-01+
*       0.0000000000E+00               0
GRID*              14950               0-2.513551284E-014.5823675547E-01+
*       0.0000000000E+00               0
GRID*              14951               0-1.880475082E-013.4472628996E-01+
*       0.0000000000E+00               0
GRID*              14952               0-2.503007214E-013.0658058031E-01+
*       0.0000000000E+00               0
GRID*              14953               0-3.749442820E-012.3042142578E-01+
*       0.0000000000E+00               0
GRID*              14954               0-4.375440747E-012.6890107872E-01+
*       0.0000000000E+00               0
GRID*              14955               0-3.124659781E-012.6874252184E-01+
*       0.0000000000E+00               0
GRID*              14956               0-3.129228928E-013.4487098515E-01+
*       0.0000000000E+00               0
GRID*              14957               0-4.375440747E-013.4582415565E-01+
*       0.0000000000E+00               0
GRID*              14958               0-3.756575043E-015.3576173461E-01+
*       0.0000000000E+00               0
GRID*              14959               0-3.137738440E-014.9674910347E-01+
*       0.0000000000E+00               0
GRID*              14960               0-3.138362811E-015.7277709847E-01+
*       0.0000000000E+00               0
GRID*              14961               0-4.377975336E-014.9909763904E-01+
*       0.0000000000E+00               0
GRID*              14962               0-4.377975336E-014.2217456211E-01+
*       0.0000000000E+00               0
GRID*              14963               0-3.753416083E-013.8338333315E-01+
*       0.0000000000E+00               0
GRID*              14964               0-3.131763516E-014.2122139162E-01+
*       0.0000000000E+00               0
GRID*              14965               0-3.712982811E-034.5783251245E-01+
*       0.0000000000E+00               0
GRID*              14966               0-6.655106919E-024.9562140459E-01+
*       0.0000000000E+00               0
GRID*              14967               05.8073094259E-024.9551734127E-01+
*       0.0000000000E+00               0
GRID*              14968               01.2000682163E-015.3393229159E-01+
*       0.0000000000E+00               0
GRID*              14969               05.6116807428E-025.7168620987E-01+
*       0.0000000000E+00               0
GRID*              14970               01.8263127050E-015.7237448686E-01+
*       0.0000000000E+00               0
GRID*              14971               02.4766880605E-016.1218839555E-01+
*       0.0000000000E+00               0
GRID*              14972               01.8308807034E-016.4991506888E-01+
*       0.0000000000E+00               0
GRID*              14973               04.4015313277E-017.2882146823E-01+
*       0.0000000000E+00               0
GRID*              14974               03.7733774701E-016.8914952445E-01+
*       0.0000000000E+00               0
GRID*              14975               04.4015313277E-018.0574454515E-01+
*       0.0000000000E+00               0
GRID*              14976               03.1124741718E-016.5134639116E-01+
*       0.0000000000E+00               0
GRID*              14977               03.1421593571E-017.2753211086E-01+
*       0.0000000000E+00               0
GRID*              14978               0-1.293689477E-015.3289125054E-01+
*       0.0000000000E+00               0
GRID*              14979               0-6.863479842E-025.7054110551E-01+
*       0.0000000000E+00               0
GRID*              14980               0-1.917026488E-015.7078770939E-01+
*       0.0000000000E+00               0
GRID*              14981               0-1.921374794E-016.4539827610E-01+
*       0.0000000000E+00               0
GRID*              14982               0-2.523874513E-016.0837503403E-01+
*       0.0000000000E+00               0
GRID*              14983               0-4.368992025E-017.2646098266E-01+
*       0.0000000000E+00               0
GRID*              14984               0-4.368992025E-018.0338405958E-01+
*       0.0000000000E+00               0
GRID*              14985               0-3.747591731E-016.8620200131E-01+
*       0.0000000000E+00               0
GRID*              14986               0-3.142711116E-016.4738766518E-01+
*       0.0000000000E+00               0
GRID*              14987               0-3.133103434E-017.2179993687E-01+
*       0.0000000000E+00               0
GRID*              14988               02.5305621757E-017.7455100139E-01+
*       0.0000000000E+00               0
GRID*              14989               03.1914654740E-018.1235413468E-01+
*       0.0000000000E+00               0
GRID*              14990               01.8020004273E-017.2594104827E-01+
*       0.0000000000E+00               0
GRID*              14991               01.1516250719E-016.8612713958E-01+
*       0.0000000000E+00               0
GRID*              14992               01.8513065442E-018.1076307209E-01+
*       0.0000000000E+00               0
GRID*              14993               01.7655104931E-018.8191880203E-01+
*       0.0000000000E+00               0
GRID*              14994               01.0369487447E-018.3330884890E-01+
*       0.0000000000E+00               0
GRID*              14995               01.5470049182E-019.5223228942E-01+
*       0.0000000000E+00               0
GRID*              14996               08.3271920392E-029.5223228942E-01+
*       0.0000000000E+00               0
GRID*              14997               02.3613627177E-019.2968651261E-01+
*       0.0000000000E+00               0
GRID*              14998               03.0756484320E-019.2968651261E-01+
*       0.0000000000E+00               0
GRID*              14999               03.2879509635E-018.7653928513E-01+
*       0.0000000000E+00               0
GRID*              15000               03.7837311029E-019.4685277252E-01+
*       0.0000000000E+00               0
GRID*              15001               03.8995481449E-018.2952039460E-01+
*       0.0000000000E+00               0
GRID*              15002               04.4980168172E-018.6992969560E-01+
*       0.0000000000E+00               0
GRID*              15003               04.4980168172E-019.4685277252E-01+
*       0.0000000000E+00               0
GRID*              15004               0-8.740181015E-036.0797930131E-01+
*       0.0000000000E+00               0
GRID*              15005               0-7.155805949E-026.4524914726E-01+
*       0.0000000000E+00               0
GRID*              15006               05.3193546353E-026.4639425163E-01+
*       0.0000000000E+00               0
GRID*              15007               05.0305518749E-027.2242023101E-01+
*       0.0000000000E+00               0
GRID*              15008               0-1.331088194E-016.8004114117E-01+
*       0.0000000000E+00               0
GRID*              15009               0-1.937936219E-017.1762846580E-01+
*       0.0000000000E+00               0
GRID*              15010               0-7.321420202E-027.1747933696E-01+
*       0.0000000000E+00               0
GRID*              15011               04.3855835513E-027.9562829685E-01+
*       0.0000000000E+00               0
GRID*              15012               03.5276230396E-028.6678402679E-01+
*       0.0000000000E+00               0
GRID*              15013               0-1.811312533E-027.5589540890E-01+
*       0.0000000000E+00               0
GRID*              15014               0-7.966388526E-027.9068740280E-01+
*       0.0000000000E+00               0
GRID*              15015               0-4.334895193E-018.7356588548E-01+
*       0.0000000000E+00               0
GRID*              15016               0-3.703887218E-018.3079609890E-01+
*       0.0000000000E+00               0
GRID*              15017               0-4.334895193E-019.5048896240E-01+
*       0.0000000000E+00               0
GRID*              15018               0-3.620609479E-019.5048896240E-01+
*       0.0000000000E+00               0
GRID*              15019               0-2.501695268E-017.5537007341E-01+
*       0.0000000000E+00               0
GRID*              15020               0-1.911408669E-017.9001293847E-01+
*       0.0000000000E+00               0
GRID*              15021               0-3.106575884E-017.9418440955E-01+
*       0.0000000000E+00               0
GRID*              15022               0-3.072479052E-018.6436623544E-01+
*       0.0000000000E+00               0
GRID*              15023               0-2.906323765E-019.5048896240E-01+
*       0.0000000000E+00               0
GRID*              15024               0-2.309012431E-019.1387727304E-01+
*       0.0000000000E+00               0
GRID*              15025               01.1843348964E-029.5223228942E-01+
*       0.0000000000E+00               0
GRID*              15026               0-4.799569000E-029.1455173737E-01+
*       0.0000000000E+00               0
GRID*              15027               0-1.929765981E-018.5438751751E-01+
*       0.0000000000E+00               0
GRID*              15028               0-1.763610693E-019.4051024447E-01+
*       0.0000000000E+00               0
GRID*              15029               0-1.049324979E-019.4051024447E-01+
*       0.0000000000E+00               0
GRID*              15030               0-1.366006932E-018.1664590990E-01+
*       0.0000000000E+00               0
GRID*              15031               0-8.149961645E-028.5506198183E-01+
*       0.0000000000E+00               0
GRID*              15032               06.2111848933E-011.0000000000E+00+
*       7.2807175153E-02               0
GRID*              15033               06.2469159994E-011.0000000000E+00+
*       3.7375806146E-01               0
GRID*              15034               06.2430260291E-011.0000000000E+00+
*       2.2454924833E-01               0
GRID*              15035               06.2494164216E-011.0000000000E+00+
*       5.2256573368E-01               0
GRID*              15036               06.2498859700E-011.0000000000E+00+
*       6.5858974724E-01               0
GRID*              15037               0-6.216066269E-011.0000000000E+00+
*       7.2229826396E-02               0
GRID*              15038               0-6.246915572E-011.0000000000E+00+
*       3.7375551315E-01               0
GRID*              15039               0-6.243971236E-011.0000000000E+00+
*       2.2445892592E-01               0
GRID*              15040               0-6.249416343E-011.0000000000E+00+
*       5.2256532309E-01               0
GRID*              15041               0-6.249885955E-011.0000000000E+00+
*       6.5858968254E-01               0
GRID*              15042               02.8985789629E-011.0000000000E+00+
*       -1.249504826E-01               0
GRID*              15043               04.3827557593E-011.0000000000E+00+
*       -1.190519380E-01               0
GRID*              15044               01.0127070676E+001.0000000000E+00+
*       -1.253738140E-01               0
GRID*              15045               01.1546244514E+001.0000000000E+00+
*       -1.253099601E-01               0
GRID*              15046               08.6517106701E-011.0000000000E+00+
*       -1.299415303E-01               0
GRID*              15047               06.0332965863E-011.0000000000E+00+
*       -9.997230976E-02               0
GRID*              15048               07.3881936770E-011.0000000000E+00+
*       -1.477849542E-01               0
GRID*              15049               0-2.898578507E-011.0000000000E+00+
*       -1.249504746E-01               0
GRID*              15050               01.4494709509E-011.0000000000E+00+
*       -1.249475887E-01               0
GRID*              15051               0-1.449470875E-011.0000000000E+00+
*       -1.249475871E-01               0
GRID*              15052               01.2740404114E-091.0000000000E+00+
*       -1.249358689E-01               0
GRID*              15053               0-4.385530647E-011.0000000000E+00+
*       -1.199478517E-01               0
GRID*              15054               0-1.012707011E+001.0000000000E+00+
*       -1.253737930E-01               0
GRID*              15055               0-1.154624442E+001.0000000000E+00+
*       -1.253099564E-01               0
GRID*              15056               0-8.641103283E-011.0000000000E+00+
*       -1.309937735E-01               0
GRID*              15057               0-7.387650271E-011.0000000000E+00+
*       -1.476895587E-01               0
GRID*              15058               0-6.033416022E-011.0000000000E+00+
*       -9.989550732E-02               0
GRID*              15059               05.6055924466E-011.0000000000E+00+
*       1.1140358758E-01               0
GRID*              15060               05.6055924466E-011.0000000000E+00+
*       3.6403587576E-02               0
GRID*              15061               05.6215130145E-011.0000000000E+00+
*       1.8727462417E-01               0
GRID*              15062               05.6215130145E-011.0000000000E+00+
*       2.6227462417E-01               0
GRID*              15063               06.2271054612E-011.0000000000E+00+
*       1.4867821174E-01               0
GRID*              15064               06.8715130145E-011.0000000000E+00+
*       1.8727462417E-01               0
GRID*              15065               06.8555924466E-011.0000000000E+00+
*       1.1140358758E-01               0
GRID*              15066               06.8715130145E-011.0000000000E+00+
*       2.6227462417E-01               0
GRID*              15067               05.6234579997E-011.0000000000E+00+
*       3.3687903073E-01               0
GRID*              15068               05.6234579997E-011.0000000000E+00+
*       4.1187903073E-01               0
GRID*              15069               06.2449710142E-011.0000000000E+00+
*       2.9915365489E-01               0
GRID*              15070               06.8734579997E-011.0000000000E+00+
*       3.3687903073E-01               0
GRID*              15071               06.8734579997E-011.0000000000E+00+
*       4.1187903073E-01               0
GRID*              15072               05.6247082108E-011.0000000000E+00+
*       4.8628286684E-01               0
GRID*              15073               05.6247082108E-011.0000000000E+00+
*       5.6128286684E-01               0
GRID*              15074               06.2481662105E-011.0000000000E+00+
*       4.4816189757E-01               0
GRID*              15075               06.8747082108E-011.0000000000E+00+
*       4.8628286684E-01               0
GRID*              15076               06.8747082108E-011.0000000000E+00+
*       5.6128286684E-01               0
GRID*              15077               05.6249429850E-011.0000000000E+00+
*       6.2929487362E-01               0
GRID*              15078               06.2496511958E-011.0000000000E+00+
*       5.9057774046E-01               0
GRID*              15079               05.6249429850E-011.0000000000E+00+
*       7.0429487362E-01               0
GRID*              15080               06.2499429850E-011.0000000000E+00+
*       7.0429487362E-01               0
GRID*              15081               06.8749429850E-011.0000000000E+00+
*       6.2929487362E-01               0
GRID*              15082               06.8749429850E-011.0000000000E+00+
*       7.0429487362E-01               0
GRID*              15083               0-6.871985618E-011.0000000000E+00+
*       1.8722946296E-01               0
GRID*              15084               0-6.871985618E-011.0000000000E+00+
*       2.6222946296E-01               0
GRID*              15085               0-6.858033135E-011.0000000000E+00+
*       1.1111491320E-01               0
GRID*              15086               0-6.858033135E-011.0000000000E+00+
*       3.6114913198E-02               0
GRID*              15087               0-6.230018753E-011.0000000000E+00+
*       1.4834437616E-01               0
GRID*              15088               0-5.621985618E-011.0000000000E+00+
*       1.8722946296E-01               0
GRID*              15089               0-5.608033135E-011.0000000000E+00+
*       1.1111491320E-01               0
GRID*              15090               0-5.621985618E-011.0000000000E+00+
*       2.6222946296E-01               0
GRID*              15091               0-6.873457786E-011.0000000000E+00+
*       3.3687775657E-01               0
GRID*              15092               0-6.873457786E-011.0000000000E+00+
*       4.1187775657E-01               0
GRID*              15093               0-6.245443404E-011.0000000000E+00+
*       2.9910721953E-01               0
GRID*              15094               0-5.623457786E-011.0000000000E+00+
*       3.3687775657E-01               0
GRID*              15095               0-5.623457786E-011.0000000000E+00+
*       4.1187775657E-01               0
GRID*              15096               0-6.874708171E-011.0000000000E+00+
*       4.8628266154E-01               0
GRID*              15097               0-6.874708171E-011.0000000000E+00+
*       5.6128266154E-01               0
GRID*              15098               0-6.248165957E-011.0000000000E+00+
*       4.4816041812E-01               0
GRID*              15099               0-5.624708171E-011.0000000000E+00+
*       4.8628266154E-01               0
GRID*              15100               0-5.624708171E-011.0000000000E+00+
*       5.6128266154E-01               0
GRID*              15101               0-6.874942977E-011.0000000000E+00+
*       6.2929484127E-01               0
GRID*              15102               0-6.249651149E-011.0000000000E+00+
*       5.9057750281E-01               0
GRID*              15103               0-6.874942977E-011.0000000000E+00+
*       7.0429484127E-01               0
GRID*              15104               0-6.249942977E-011.0000000000E+00+
*       7.0429484127E-01               0
GRID*              15105               0-5.624942977E-011.0000000000E+00+
*       6.2929484127E-01               0
GRID*              15106               0-5.624942977E-011.0000000000E+00+
*       7.0429484127E-01               0
GRID*              15107               03.2875247756E-011.0000000000E+00+
*       -1.874752413E-01               0
GRID*              15108               02.5522306579E-011.0000000000E+00+
*       -1.874752413E-01               0
GRID*              15109               04.0296131738E-011.0000000000E+00+
*       -1.845259690E-01               0
GRID*              15110               04.7649072914E-011.0000000000E+00+
*       -1.845259690E-01               0
GRID*              15111               03.6406673611E-011.0000000000E+00+
*       -1.220012103E-01               0
GRID*              15112               03.2350037672E-011.0000000000E+00+
*       -6.247524131E-02               0
GRID*              15113               03.9770921654E-011.0000000000E+00+
*       -5.952596899E-02               0
GRID*              15114               01.0578241220E+001.0000000000E+00+
*       -1.876869070E-01               0
GRID*              15115               09.8429471027E-011.0000000000E+00+
*       -1.876869070E-01               0
GRID*              15116               01.1189788924E+001.0000000000E+00+
*       -6.265498006E-02               0
GRID*              15117               01.0836657595E+001.0000000000E+00+
*       -1.253418870E-01               0
GRID*              15118               01.0480202005E+001.0000000000E+00+
*       -6.268690699E-02               0
GRID*              15119               01.2023122257E+001.0000000000E+00+
*       -6.265498006E-02               0
GRID*              15120               01.2023122257E+001.0000000000E+00+
*       -1.251549801E-01               0
GRID*              15121               01.1287828140E+001.0000000000E+00+
*       -1.876549801E-01               0
GRID*              15122               01.2023122257E+001.0000000000E+00+
*       -1.876549801E-01               0
GRID*              15123               09.6468686714E-011.0000000000E+00+
*       -6.268690699E-02               0
GRID*              15124               09.3893906730E-011.0000000000E+00+
*       -1.276576721E-01               0
GRID*              15125               08.9091886684E-011.0000000000E+00+
*       -6.497076513E-02               0
GRID*              15126               09.1052670997E-011.0000000000E+00+
*       -1.899707651E-01               0
GRID*              15127               08.3699729821E-011.0000000000E+00+
*       -1.899707651E-01               0
GRID*              15128               05.5901777049E-011.0000000000E+00+
*       -1.749861549E-01               0
GRID*              15129               05.2080261728E-011.0000000000E+00+
*       -1.095121239E-01               0
GRID*              15130               07.7382144856E-011.0000000000E+00+
*       -1.988924771E-01               0
GRID*              15131               08.0199521735E-011.0000000000E+00+
*       -1.388632423E-01               0
GRID*              15132               07.0029203679E-011.0000000000E+00+
*       -1.988924771E-01               0
GRID*              15133               06.3254718225E-011.0000000000E+00+
*       -1.749861549E-01               0
GRID*              15134               06.7107451316E-011.0000000000E+00+
*       -1.238786320E-01               0
GRID*              15135               04.6913778797E-011.0000000000E+00+
*       -5.952596899E-02               0
GRID*              15136               05.5166482931E-011.0000000000E+00+
*       -4.998615488E-02               0
GRID*              15137               08.0758553350E-011.0000000000E+00+
*       -6.497076513E-02               0
GRID*              15138               07.4440968385E-011.0000000000E+00+
*       -7.389247712E-02               0
GRID*              15139               06.1222407398E-011.0000000000E+00+
*       -1.358256730E-02               0
GRID*              15140               06.7666482931E-011.0000000000E+00+
*       -4.998615488E-02               0
GRID*              15141               06.8555924466E-011.0000000000E+00+
*       3.6403587576E-02               0
GRID*              15142               02.5207180529E-011.0000000000E+00+
*       -6.247524131E-02               0
GRID*              15143               02.1740249569E-011.0000000000E+00+
*       -1.249490357E-01               0
GRID*              15144               01.7961640469E-011.0000000000E+00+
*       -6.247379437E-02               0
GRID*              15145               01.8276766519E-011.0000000000E+00+
*       -1.874737944E-01               0
GRID*              15146               01.0923825343E-011.0000000000E+00+
*       -1.874737944E-01               0
GRID*              15147               0-1.827676614E-011.0000000000E+00+
*       -1.874737935E-01               0
GRID*              15148               0-1.092382496E-011.0000000000E+00+
*       -1.874737935E-01               0
GRID*              15149               0-2.552230430E-011.0000000000E+00+
*       -1.874752373E-01               0
GRID*              15150               0-2.174024691E-011.0000000000E+00+
*       -1.249490308E-01               0
GRID*              15151               0-2.520717825E-011.0000000000E+00+
*       -6.247523729E-02               0
GRID*              15152               0-3.235003539E-011.0000000000E+00+
*       -6.247523729E-02               0
GRID*              15153               0-1.796164009E-011.0000000000E+00+
*       -6.247379353E-02               0
GRID*              15154               0-3.676470525E-021.0000000000E+00+
*       -1.874679344E-01               0
GRID*              15155               0-7.247354309E-021.0000000000E+00+
*       -1.249417280E-01               0
GRID*              15156               03.6764706519E-021.0000000000E+00+
*       -1.874679344E-01               0
GRID*              15157               07.2473548181E-021.0000000000E+00+
*       -1.249417288E-01               0
GRID*              15158               0-1.081878294E-011.0000000000E+00+
*       -6.247379353E-02               0
GRID*              15159               0-3.571428508E-021.0000000000E+00+
*       -6.246793444E-02               0
GRID*              15160               03.5714286351E-021.0000000000E+00+
*       -6.246793444E-02               0
GRID*              15161               01.0818783326E-011.0000000000E+00+
*       -6.247379437E-02               0
GRID*              15162               0-3.287524548E-011.0000000000E+00+
*       -1.874752373E-01               0
GRID*              15163               0-4.031000617E-011.0000000000E+00+
*       -1.849739259E-01               0
GRID*              15164               0-4.766294735E-011.0000000000E+00+
*       -1.849739259E-01               0
GRID*              15165               0-3.642054577E-011.0000000000E+00+
*       -1.224491631E-01               0
GRID*              15166               0-3.978479609E-011.0000000000E+00+
*       -5.997392585E-02               0
GRID*              15167               0-1.057824094E+001.0000000000E+00+
*       -1.876868965E-01               0
GRID*              15168               0-9.842946821E-011.0000000000E+00+
*       -1.876868965E-01               0
GRID*              15169               0-1.118978888E+001.0000000000E+00+
*       -6.265497821E-02               0
GRID*              15170               0-1.048020172E+001.0000000000E+00+
*       -6.268689651E-02               0
GRID*              15171               0-1.083665727E+001.0000000000E+00+
*       -1.253418747E-01               0
GRID*              15172               0-1.202312221E+001.0000000000E+00+
*       -6.265497821E-02               0
GRID*              15173               0-1.202312221E+001.0000000000E+00+
*       -1.251549782E-01               0
GRID*              15174               0-1.128782809E+001.0000000000E+00+
*       -1.876549782E-01               0
GRID*              15175               0-1.202312221E+001.0000000000E+00+
*       -1.876549782E-01               0
GRID*              15176               0-9.099963406E-011.0000000000E+00+
*       -1.904968868E-01               0
GRID*              15177               0-8.364669289E-011.0000000000E+00+
*       -1.904968868E-01               0
GRID*              15178               0-9.384086698E-011.0000000000E+00+
*       -1.281837833E-01               0
GRID*              15179               0-9.646868389E-011.0000000000E+00+
*       -6.268689651E-02               0
GRID*              15180               0-8.903884975E-011.0000000000E+00+
*       -6.549688677E-02               0
GRID*              15181               0-5.590237423E-011.0000000000E+00+
*       -1.749477537E-01               0
GRID*              15182               0-5.209473335E-011.0000000000E+00+
*       -1.099216795E-01               0
GRID*              15183               0-7.737942782E-011.0000000000E+00+
*       -1.988447793E-01               0
GRID*              15184               0-7.002648665E-011.0000000000E+00+
*       -1.988447793E-01               0
GRID*              15185               0-8.014376777E-011.0000000000E+00+
*       -1.393416661E-01               0
GRID*              15186               0-6.325531541E-011.0000000000E+00+
*       -1.749477537E-01               0
GRID*              15187               0-6.710533147E-011.0000000000E+00+
*       -1.237925330E-01               0
GRID*              15188               0-4.692765323E-011.0000000000E+00+
*       -5.997392585E-02               0
GRID*              15189               0-5.516708011E-011.0000000000E+00+
*       -4.994775366E-02               0
GRID*              15190               0-8.070551642E-011.0000000000E+00+
*       -6.549688677E-02               0
GRID*              15191               0-7.443825135E-011.0000000000E+00+
*       -7.384477935E-02               0
GRID*              15192               0-6.124741146E-011.0000000000E+00+
*       -1.383284046E-02               0
GRID*              15193               0-5.608033135E-011.0000000000E+00+
*       3.6114913198E-02               0
GRID*              15194               0-6.766708011E-011.0000000000E+00+
*       -4.994775366E-02               0
GRID*              15195               05.0000000000E-011.6540197241E-02+
*       1.3703050293E-01               0
GRID*              15196               05.0000000000E-01-2.701726105E-02+
*       2.6441875682E-01               0
GRID*              15197               05.0000000000E-011.2680785800E-01+
*       1.2114640311E+00               0
GRID*              15198               05.0000000000E-012.1289085734E-01+
*       1.3077179410E+00               0
GRID*              15199               05.0000000000E-013.0740359776E-01+
*       1.4123747900E+00               0
GRID*              15200               05.0000000000E-014.0487426680E-01+
*       1.5174890799E+00               0
GRID*              15201               05.0000000000E-014.5042287128E-01+
*       5.6619341380E-01               0
GRID*              15202               05.0000000000E-015.4102991497E-01+
*       4.5884903787E-01               0
GRID*              15203               05.0000000000E-016.2290504710E-01+
*       3.4762081389E-01               0
GRID*              15204               05.0000000000E-016.9839167933E-01+
*       2.3732303285E-01               0
GRID*              15205               05.0000000000E-017.6767582278E-01+
*       1.1607938041E-01               0
GRID*              15206               05.0000000000E-012.1796616313E-01+
*       2.8926410763E-01               0
GRID*              15207               05.0000000000E-013.0094186039E-01+
*       1.5057639978E-01               0
GRID*              15208               05.0000000000E-011.5620692104E-01+
*       1.4161333333E-01               0
GRID*              15209               05.0000000000E-019.5982691472E-02+
*       2.6886668622E-01               0
GRID*              15210               05.0000000000E-014.9450076593E-01+
*       3.2832911791E-01               0
GRID*              15211               05.0000000000E-013.5529077878E-01+
*       3.0621881512E-01               0
GRID*              15212               05.0000000000E-014.0148416440E-01+
*       4.4473888833E-01               0
GRID*              15213               05.0000000000E-014.6803629309E-01+
*       1.6450692538E-01               0
GRID*              15214               05.0000000000E-016.2544825391E-01+
*       1.2668806683E-01               0
GRID*              15215               05.0000000000E-015.8345510690E-01+
*       2.4195035146E-01               0
GRID*              15216               05.0000000000E-018.4796925328E-01+
*       9.2971858704E-01               0
GRID*              15217               05.0000000000E-017.1205356700E-01+
*       9.4299297716E-01               0
GRID*              15218               05.0000000000E-015.7139685082E-01+
*       9.5066252048E-01               0
GRID*              15219               05.0000000000E-014.3711145738E-01+
*       9.6323504620E-01               0
GRID*              15220               05.0000000000E-018.0485217738E-01+
*       1.0597697434E+00               0
GRID*              15221               05.0000000000E-012.4259495537E-01+
*       1.1696605113E+00               0
GRID*              15222               05.0000000000E-013.7074672172E-01+
*       1.1002178596E+00               0
GRID*              15223               05.0000000000E-015.2400247616E-01+
*       1.0851387534E+00               0
GRID*              15224               05.0000000000E-016.6385299570E-01+
*       1.0709257318E+00               0
GRID*              15225               05.0000000000E-014.4435631287E-01+
*       1.3693883237E+00               0
GRID*              15226               05.0000000000E-014.8159699986E-01+
*       1.2253706592E+00               0
GRID*              15227               05.0000000000E-013.4296456403E-01+
*       1.2646211810E+00               0
GRID*              15228               05.0000000000E-017.5241044055E-01+
*       1.1860726982E+00               0
GRID*              15229               05.0000000000E-016.1883200429E-01+
*       1.1981375312E+00               0
GRID*              15230               05.0000000000E-017.0302733485E-01+
*       1.2898633415E+00               0
GRID*              15231               05.0000000000E-015.8571120748E-01+
*       1.3286220781E+00               0
GRID*              15232               05.0000000000E-015.4426038668E-01+
*       1.4644777924E+00               0
GRID*              15233               05.0000000000E-018.8387714976E-01+
*       5.2097473971E-01               0
GRID*              15234               05.0000000000E-017.6618754424E-01+
*       5.7076021791E-01               0
GRID*              15235               05.0000000000E-016.1326553519E-01+
*       6.1010015406E-01               0
GRID*              15236               05.0000000000E-014.8215357129E-01+
*       7.0048582255E-01               0
GRID*              15237               05.0000000000E-018.7856222558E-01+
*       6.5835409461E-01               0
GRID*              15238               05.0000000000E-014.7505292186E-01+
*       8.3653607791E-01               0
GRID*              15239               05.0000000000E-016.2389460221E-01+
*       7.9916317013E-01               0
GRID*              15240               05.0000000000E-017.5411268892E-01+
*       7.1249411311E-01               0
GRID*              15241               05.0000000000E-018.7167370117E-01+
*       7.9754577513E-01               0
GRID*              15242               05.0000000000E-017.6366949368E-01+
*       8.3687797699E-01               0
GRID*              15243               05.0000000000E-018.5486978747E-01+
*       2.3557871202E-01               0
GRID*              15244               05.0000000000E-018.9286251052E-01+
*       1.0024280314E-01               0
GRID*              15245               05.0000000000E-018.7932166878E-01+
*       3.8797059719E-01               0
GRID*              15246               05.0000000000E-017.5306608515E-01+
*       3.5664534153E-01               0
GRID*              15247               05.0000000000E-017.9224639995E-01+
*       4.6041782368E-01               0
GRID*              15248               05.0000000000E-016.8234120264E-01+
*       4.6630245148E-01               0
GRID*              15249               05.0000000000E-01-8.708753326E-01+
*       6.5853288264E-01               0
GRID*              15250               05.0000000000E-01-7.394645139E-01+
*       7.1667327848E-01               0
GRID*              15251               05.0000000000E-01-6.091178313E-01+
*       7.7499626772E-01               0
GRID*              15252               05.0000000000E-01-4.826479108E-01+
*       8.2814647459E-01               0
GRID*              15253               05.0000000000E-01-4.671417381E-01+
*       1.3861547789E-01               0
GRID*              15254               05.0000000000E-01-4.134388610E-01+
*       2.8605402274E-01               0
GRID*              15255               05.0000000000E-01-3.727451475E-01+
*       4.2712455606E-01               0
GRID*              15256               05.0000000000E-01-2.922473250E-01+
*       1.7063541932E-01               0
GRID*              15257               05.0000000000E-01-2.722703304E-01+
*       3.4128863799E-01               0
GRID*              15258               05.0000000000E-01-1.528139733E-01+
*       2.8470668354E-01               0
GRID*              15259               05.0000000000E-01-1.259315764E-01+
*       1.4339553116E-01               0
GRID*              15260               05.0000000000E-01-4.866207831E-01+
*       6.9574899185E-01               0
GRID*              15261               05.0000000000E-01-6.141970381E-01+
*       6.3070893884E-01               0
GRID*              15262               05.0000000000E-01-7.472735210E-01+
*       5.7015113085E-01               0
GRID*              15263               05.0000000000E-01-8.750638458E-01+
*       5.1090334088E-01               0
GRID*              15264               05.0000000000E-01-5.147185520E-01+
*       3.8739175569E-01               0
GRID*              15265               05.0000000000E-01-6.259616972E-01+
*       4.8241735206E-01               0
GRID*              15266               05.0000000000E-01-4.708481886E-01+
*       5.4452122278E-01               0
GRID*              15267               05.0000000000E-01-6.457364617E-01+
*       3.4240459720E-01               0
GRID*              15268               05.0000000000E-01-7.585517880E-01+
*       2.8561905024E-01               0
GRID*              15269               05.0000000000E-01-8.705013712E-01+
*       2.1075297574E-01               0
GRID*              15270               05.0000000000E-01-8.764174414E-01+
*       3.6374877674E-01               0
GRID*              15271               05.0000000000E-01-7.546534628E-01+
*       4.2564715715E-01               0
GRID*              15272               05.0000000000E-01-5.524790895E-01+
*       2.5189854014E-01               0
GRID*              15273               05.0000000000E-01-6.087197989E-01+
*       1.2770739659E-01               0
GRID*              15274               05.0000000000E-01-6.608919064E-01+
*       2.3042676884E-01               0
GRID*              15275               05.0000000000E-01-7.386321463E-01+
*       1.4355449246E-01               0
GRID*              15276               05.0000000000E-01-2.505565404E-01+
*       1.1646748154E+00               0
GRID*              15277               05.0000000000E-01-3.633133607E-01+
*       1.2304011175E+00               0
GRID*              15278               05.0000000000E-01-4.857589572E-01+
*       1.2990174401E+00               0
GRID*              15279               05.0000000000E-01-6.116723285E-01+
*       1.3670160538E+00               0
GRID*              15280               05.0000000000E-01-4.910868283E-01+
*       1.4528638473E+00               0
GRID*              15281               05.0000000000E-012.6643034903E-01+
*       1.5624878243E+00               0
GRID*              15282               05.0000000000E-011.7212614875E-01+
*       1.4464884821E+00               0
GRID*              15283               05.0000000000E-011.2469328616E-01+
*       1.5919611246E+00               0
GRID*              15284               05.0000000000E-01-3.602393381E-01+
*       1.5265970242E+00               0
GRID*              15285               05.0000000000E-01-3.645539621E-01+
*       1.3748067915E+00               0
GRID*              15286               05.0000000000E-01-2.498370925E-01+
*       1.3009650549E+00               0
GRID*              15287               05.0000000000E-01-1.285492329E-01+
*       1.2333334228E+00               0
GRID*              15288               05.0000000000E-017.4269950254E-03+
*       1.2308166147E+00               0
GRID*              15289               05.0000000000E-01-4.208143255E-02+
*       1.3506026026E+00               0
GRID*              15290               05.0000000000E-013.5601086999E-02+
*       1.4661450450E+00               0
GRID*              15291               05.0000000000E-018.5308932777E-02+
*       1.3348281743E+00               0
GRID*              15292               05.0000000000E-01-2.294152479E-02+
*       1.6028997391E+00               0
GRID*              15293               05.0000000000E-01-1.525205761E-01+
*       1.3593353134E+00               0
GRID*              15294               05.0000000000E-01-1.026997977E-01+
*       1.4677289764E+00               0
GRID*              15295               05.0000000000E-01-1.977635068E-01+
*       1.5961029261E+00               0
GRID*              15296               05.0000000000E-01-2.379875338E-01+
*       1.4361495936E+00               0
GRID*              15297               05.0000000000E-01-8.628544526E-01+
*       8.0487334372E-01               0
GRID*              15298               05.0000000000E-01-8.485497907E-01+
*       9.4429628214E-01               0
GRID*              15299               05.0000000000E-01-7.309201348E-01+
*       8.5952219658E-01               0
GRID*              15300               05.0000000000E-01-4.772377516E-01+
*       1.1471656453E+00               0
GRID*              15301               05.0000000000E-01-5.999755781E-01+
*       1.0654151861E+00               0
GRID*              15302               05.0000000000E-01-7.241442305E-01+
*       9.9659357821E-01               0
GRID*              15303               05.0000000000E-01-6.058742099E-01+
*       1.2141929364E+00               0
GRID*              15304               05.0000000000E-01-7.301938135E-01+
*       1.2739214668E+00               0
GRID*              15305               05.0000000000E-01-7.301006689E-01+
*       1.1317927585E+00               0
GRID*              15306               05.0000000000E-01-8.312492457E-01+
*       1.0587885162E+00               0
GRID*              15307               05.0000000000E-01-6.010328961E-01+
*       9.1706242162E-01               0
GRID*              15308               05.0000000000E-01-3.519639761E-01+
*       1.0857156220E+00               0
GRID*              15309               05.0000000000E-01-4.565693886E-01+
*       9.7903877200E-01               0
GRID*              15310               05.0000000000E-012.6585554558E-01+
*       7.5288199891E-02               0
GRID*              15311               05.0000000000E-013.4277862250E-01+
*       7.5288199891E-02               0
GRID*              15312               05.0000000000E-011.1656499898E-01+
*       7.0806666664E-02               0
GRID*              15313               05.0000000000E-014.6731637082E-02+
*       6.8515251465E-02               0
GRID*              15314               05.0000000000E-018.6373559141E-02+
*       1.3932191813E-01               0
GRID*              15315               05.0000000000E-011.9348807590E-01+
*       7.0806666664E-02               0
GRID*              15316               05.0000000000E-012.2857439072E-01+
*       1.4609486656E-01               0
GRID*              15317               05.0000000000E-011.8708654209E-01+
*       2.1543872048E-01               0
GRID*              15318               05.0000000000E-012.5945401176E-01+
*       2.1992025371E-01               0
GRID*              15319               05.0000000000E-011.3531138269E-02+
*       3.1914376932E-01               0
GRID*              15320               05.0000000000E-01-4.054840501E-02+
*       3.1914377013E-01               0
GRID*              15321               05.0000000000E-015.6261444357E-02+
*       2.0294859458E-01               0
GRID*              15322               05.0000000000E-01-5.238531907E-03+
*       2.0072462987E-01               0
GRID*              15323               05.0000000000E-013.4482715209E-02+
*       2.6664272152E-01               0
GRID*              15324               05.0000000000E-011.2609480626E-01+
*       2.0524000978E-01               0
GRID*              15325               05.0000000000E-011.5697442730E-01+
*       2.7906539693E-01               0
GRID*              15326               05.0000000000E-017.5031114532E-02+
*       3.2136773402E-01               0
GRID*              15327               05.0000000000E-011.2692007626E-01+
*       3.3660349485E-01               0
GRID*              15328               05.0000000000E-011.8791181209E-01+
*       3.4680220555E-01               0
GRID*              15329               05.0000000000E-014.7125703968E-01+
*       4.5179396310E-01               0
GRID*              15330               05.0000000000E-014.2595351784E-01+
*       5.0546615106E-01               0
GRID*              15331               05.0000000000E-014.9572639312E-01+
*       5.1252122583E-01               0
GRID*              15332               05.0000000000E-014.4799246516E-01+
*       3.8653400312E-01               0
GRID*              15333               05.0000000000E-014.2489577235E-01+
*       3.1727396652E-01               0
GRID*              15334               05.0000000000E-013.7838747159E-01+
*       3.7547885173E-01               0
GRID*              15335               05.0000000000E-015.1776534045E-01+
*       3.9358907789E-01               0
GRID*              15336               05.0000000000E-015.8196748103E-01+
*       4.0323492588E-01               0
GRID*              15337               05.0000000000E-015.5870290651E-01+
*       3.3797496590E-01               0
GRID*              15338               05.0000000000E-013.8504954171E-01+
*       5.5537498599E-01               0
GRID*              15339               05.0000000000E-014.0751441234E-01+
*       6.0456772936E-01               0
GRID*              15340               05.0000000000E-013.6058018827E-01+
*       4.9464772326E-01               0
GRID*              15341               05.0000000000E-012.3340621810E-01+
*       3.7604012118E-01               0
GRID*              15342               05.0000000000E-013.0206852593E-01+
*       3.8451747493E-01               0
GRID*              15343               05.0000000000E-012.8662847096E-01+
*       2.9774146138E-01               0
GRID*              15344               05.0000000000E-013.2516521873E-01+
*       4.5377751153E-01               0
GRID*              15345               05.0000000000E-014.2632583885E-01+
*       8.2253462691E-02               0
GRID*              15346               05.0000000000E-015.0324891578E-01+
*       8.2253462691E-02               0
GRID*              15347               05.0000000000E-013.8448907674E-01+
*       1.5754166258E-01               0
GRID*              15348               05.0000000000E-013.2811631958E-01+
*       2.2839760745E-01               0
GRID*              15349               05.0000000000E-014.1166353594E-01+
*       2.3536287025E-01               0
GRID*              15350               05.0000000000E-017.2999175754E-01+
*       5.8039690204E-02               0
GRID*              15351               05.0000000000E-018.0691483446E-01+
*       5.8039690204E-02               0
GRID*              15352               05.0000000000E-016.9656203834E-01+
*       1.2138372362E-01               0
GRID*              15353               05.0000000000E-016.6191996662E-01+
*       1.8200554984E-01               0
GRID*              15354               05.0000000000E-017.3303375105E-01+
*       1.7670120663E-01               0
GRID*              15355               05.0000000000E-016.5887797311E-01+
*       6.3344033413E-02               0
GRID*              15356               05.0000000000E-015.8195489619E-01+
*       6.3344033413E-02               0
GRID*              15357               05.0000000000E-016.0318007700E-01+
*       2.9478558268E-01               0
GRID*              15358               05.0000000000E-015.3897793641E-01+
*       2.8513973468E-01               0
GRID*              15359               05.0000000000E-016.4092339312E-01+
*       2.3963669215E-01               0
GRID*              15360               05.0000000000E-016.0445168040E-01+
*       1.8431920914E-01               0
GRID*              15361               05.0000000000E-016.6064836322E-01+
*       2.9247192337E-01               0
GRID*              15362               05.0000000000E-014.8126852951E-01+
*       2.4641802165E-01               0
GRID*              15363               05.0000000000E-015.2574570000E-01+
*       2.0322863842E-01               0
GRID*              15364               05.0000000000E-015.4674227350E-01+
*       1.4559749610E-01               0
GRID*              15365               05.0000000000E-018.8021224082E-01+
*       1.0522623801E+00               0
GRID*              15366               05.0000000000E-018.5291034413E-01+
*       1.1218266587E+00               0
GRID*              15367               05.0000000000E-018.2641071533E-01+
*       9.9474416522E-01               0
GRID*              15368               05.0000000000E-017.8001141014E-01+
*       9.3635578210E-01               0
GRID*              15369               05.0000000000E-017.5845287219E-01+
*       1.0013813603E+00               0
GRID*              15370               05.0000000000E-019.0177077877E-01+
*       9.8723680189E-01               0
GRID*              15371               05.0000000000E-019.1839989370E-01+
*       9.1438040112E-01               0
GRID*              15372               05.0000000000E-016.8795328135E-01+
*       1.0069593545E+00               0
GRID*              15373               05.0000000000E-017.3435258654E-01+
*       1.0653477376E+00               0
GRID*              15374               05.0000000000E-016.4172520891E-01+
*       9.4682774882E-01               0
GRID*              15375               05.0000000000E-016.1762492326E-01+
*       1.0107941261E+00               0
GRID*              15376               05.0000000000E-011.4233266223E-01+
*       1.1535618628E+00               0
GRID*              15377               05.0000000000E-019.0443704646E-02+
*       1.1687976357E+00               0
GRID*              15378               05.0000000000E-012.0022621091E-01+
*       1.1326601029E+00               0
GRID*              15379               05.0000000000E-011.8470140669E-01+
*       1.1905622712E+00               0
GRID*              15380               05.0000000000E-015.4769966349E-01+
*       1.0179006370E+00               0
GRID*              15381               05.0000000000E-015.9392773593E-01+
*       1.0780322426E+00               0
GRID*              15382               05.0000000000E-014.8055696677E-01+
*       1.0241868998E+00               0
GRID*              15383               05.0000000000E-014.0392908955E-01+
*       1.0317264529E+00               0
GRID*              15384               05.0000000000E-014.4737459894E-01+
*       1.0926783065E+00               0
GRID*              15385               05.0000000000E-015.0425415410E-01+
*       9.5694878334E-01               0
GRID*              15386               05.0000000000E-012.4572062228E-01+
*       1.1034221961E+00               0
GRID*              15387               05.0000000000E-013.0667083855E-01+
*       1.1349391854E+00               0
GRID*              15388               05.0000000000E-013.0979650546E-01+
*       1.0687008703E+00               0
GRID*              15389               05.0000000000E-013.4521146304E-01+
*       1.0278306485E+00               0
GRID*              15390               05.0000000000E-013.7839383086E-01+
*       9.5933924178E-01               0
GRID*              15391               05.0000000000E-013.7587995531E-01+
*       1.3908815569E+00               0
GRID*              15392               05.0000000000E-013.5613893228E-01+
*       1.4649319350E+00               0
GRID*              15393               05.0000000000E-014.2461528983E-01+
*       1.4434387018E+00               0
GRID*              15394               05.0000000000E-013.2518408089E-01+
*       1.3384979855E+00               0
GRID*              15395               05.0000000000E-012.7792771069E-01+
*       1.2861695610E+00               0
GRID*              15396               05.0000000000E-012.6014722755E-01+
*       1.3600463655E+00               0
GRID*              15397               05.0000000000E-013.9366043845E-01+
*       1.3170047524E+00               0
GRID*              15398               05.0000000000E-014.6297665637E-01+
*       1.2973794915E+00               0
GRID*              15399               05.0000000000E-014.1228078195E-01+
*       1.2449959201E+00               0
GRID*              15400               05.0000000000E-012.2774290636E-01+
*       1.2386892261E+00               0
GRID*              15401               05.0000000000E-011.6984935767E-01+
*       1.2595909861E+00               0
GRID*              15402               05.0000000000E-014.2617186079E-01+
*       1.1627942594E+00               0
GRID*              15403               05.0000000000E-013.5685564288E-01+
*       1.1824195203E+00               0
GRID*              15404               05.0000000000E-015.0279973801E-01+
*       1.1552547063E+00               0
GRID*              15405               05.0000000000E-012.9277975970E-01+
*       1.2171408461E+00               0
GRID*              15406               05.0000000000E-018.2668947572E-01+
*       1.1849781361E+00               0
GRID*              15407               05.0000000000E-017.8932461252E-01+
*       1.2496963818E+00               0
GRID*              15408               05.0000000000E-017.7863130897E-01+
*       1.1229212208E+00               0
GRID*              15409               05.0000000000E-017.0813171813E-01+
*       1.1284992150E+00               0
GRID*              15410               05.0000000000E-015.7141724022E-01+
*       1.1416381423E+00               0
GRID*              15411               05.0000000000E-015.5021450207E-01+
*       1.2117540952E+00               0
GRID*              15412               05.0000000000E-016.4134249999E-01+
*       1.1345316315E+00               0
GRID*              15413               05.0000000000E-016.8562122242E-01+
*       1.1921051147E+00               0
GRID*              15414               05.0000000000E-017.2771888770E-01+
*       1.2379680198E+00               0
GRID*              15415               05.0000000000E-016.6092966957E-01+
*       1.2440004363E+00               0
GRID*              15416               05.0000000000E-017.6463305967E-01+
*       1.3015917034E+00               0
GRID*              15417               05.0000000000E-017.1803952081E-01+
*       1.3600179578E+00               0
GRID*              15418               05.0000000000E-016.0227160588E-01+
*       1.2633798046E+00               0
GRID*              15419               05.0000000000E-016.4436927116E-01+
*       1.3092427098E+00               0
GRID*              15420               05.0000000000E-015.3365410367E-01+
*       1.2769963686E+00               0
GRID*              15421               05.0000000000E-015.1503376018E-01+
*       1.3490052009E+00               0
GRID*              15422               05.0000000000E-014.7456732674E-01+
*       1.4909834361E+00               0
GRID*              15423               05.0000000000E-014.9430834978E-01+
*       1.4169330581E+00               0
GRID*              15424               05.0000000000E-015.2213007218E-01+
*       1.5402513948E+00               0
GRID*              15425               05.0000000000E-015.8387493645E-01+
*       1.4981544347E+00               0
GRID*              15426               05.0000000000E-014.5243701224E-01+
*       1.5667570386E+00               0
GRID*              15427               05.0000000000E-015.6498579708E-01+
*       1.3965499352E+00               0
GRID*              15428               05.0000000000E-016.3865604672E-01+
*       1.4473251833E+00               0
GRID*              15429               05.0000000000E-016.5938145712E-01+
*       1.3793973261E+00               0
GRID*              15430               05.0000000000E-019.3928111279E-01+
*       6.2917704731E-01               0
GRID*              15431               05.0000000000E-019.3928111279E-01+
*       7.0417704731E-01               0
GRID*              15432               05.0000000000E-019.4193857488E-01+
*       5.6048736986E-01               0
GRID*              15433               05.0000000000E-019.4193857488E-01+
*       4.8548736986E-01               0
GRID*              15434               05.0000000000E-018.8121968767E-01+
*       5.8966441716E-01               0
GRID*              15435               05.0000000000E-018.2503234700E-01+
*       5.4586747881E-01               0
GRID*              15436               05.0000000000E-018.2237488491E-01+
*       6.1455715626E-01               0
GRID*              15437               05.0000000000E-014.0085870561E-01+
*       9.1014650073E-01               0
GRID*              15438               05.0000000000E-014.2752645855E-01+
*       7.9326803895E-01               0
GRID*              15439               05.0000000000E-014.7860324658E-01+
*       7.6851095023E-01               0
GRID*              15440               05.0000000000E-014.3107678326E-01+
*       7.2524291127E-01               0
GRID*              15441               05.0000000000E-014.1982943785E-01+
*       8.4679701658E-01               0
GRID*              15442               05.0000000000E-015.5302408675E-01+
*       7.4982449634E-01               0
GRID*              15443               05.0000000000E-016.1858006870E-01+
*       7.0463166209E-01               0
GRID*              15444               05.0000000000E-015.4770955324E-01+
*       6.5529298830E-01               0
GRID*              15445               05.0000000000E-015.4947376204E-01+
*       8.1784962402E-01               0
GRID*              15446               05.0000000000E-017.6015011658E-01+
*       6.4162716551E-01               0
GRID*              15447               05.0000000000E-018.1633745725E-01+
*       6.8542410386E-01               0
GRID*              15448               05.0000000000E-016.8368911206E-01+
*       6.6129713359E-01               0
GRID*              15449               05.0000000000E-016.8900364556E-01+
*       7.5582864162E-01               0
GRID*              15450               05.0000000000E-016.8972653972E-01+
*       5.9043018599E-01               0
GRID*              15451               05.0000000000E-014.5608218962E-01+
*       8.9988556205E-01               0
GRID*              15452               05.0000000000E-015.2322488634E-01+
*       8.9359929919E-01               0
GRID*              15453               05.0000000000E-015.9764572652E-01+
*       8.7491284530E-01               0
GRID*              15454               05.0000000000E-016.6797408460E-01+
*       8.7107807364E-01               0
GRID*              15455               05.0000000000E-019.3583685058E-01+
*       7.7377288756E-01               0
GRID*              15456               05.0000000000E-018.7511796337E-01+
*       7.2794993487E-01               0
GRID*              15457               05.0000000000E-019.3025211764E-01+
*       8.4829399516E-01               0
GRID*              15458               05.0000000000E-018.5982147723E-01+
*       8.6363218108E-01               0
GRID*              15459               05.0000000000E-018.1289319504E-01+
*       7.5501994412E-01               0
GRID*              15460               05.0000000000E-017.3786153034E-01+
*       8.8993547708E-01               0
GRID*              15461               05.0000000000E-016.9378204794E-01+
*       8.1802057356E-01               0
GRID*              15462               05.0000000000E-017.5889109130E-01+
*       7.7468604505E-01               0
GRID*              15463               05.0000000000E-018.0581937348E-01+
*       8.8329828201E-01               0
GRID*              15464               05.0000000000E-018.1767159742E-01+
*       8.1721187606E-01               0
GRID*              15465               05.0000000000E-018.1127280512E-01+
*       1.7582904621E-01               0
GRID*              15466               05.0000000000E-017.7663073340E-01+
*       2.3645087243E-01               0
GRID*              15467               05.0000000000E-018.6950817834E-01+
*       5.0121401568E-02               0
GRID*              15468               05.0000000000E-018.3026916665E-01+
*       1.0816109177E-01               0
GRID*              15469               05.0000000000E-019.4643125526E-01+
*       5.0121401568E-02               0
GRID*              15470               05.0000000000E-019.4643125526E-01+
*       1.2512140157E-01               0
GRID*              15471               05.0000000000E-018.7386614899E-01+
*       1.6791075758E-01               0
GRID*              15472               05.0000000000E-019.2743489373E-01+
*       1.9278935601E-01               0
GRID*              15473               05.0000000000E-019.2743489373E-01+
*       2.6778935601E-01               0
GRID*              15474               05.0000000000E-019.3966083439E-01+
*       4.1898529860E-01               0
GRID*              15475               05.0000000000E-018.8159940927E-01+
*       4.5447266845E-01               0
GRID*              15476               05.0000000000E-019.3966083439E-01+
*       3.4398529860E-01               0
GRID*              15477               05.0000000000E-018.6709572813E-01+
*       3.1177465460E-01               0
GRID*              15478               05.0000000000E-017.2572888224E-01+
*       2.9698418719E-01               0
GRID*              15479               05.0000000000E-016.8798556613E-01+
*       3.5213307771E-01               0
GRID*              15480               05.0000000000E-018.0396793631E-01+
*       2.9611202677E-01               0
GRID*              15481               05.0000000000E-018.1619387697E-01+
*       3.7230796936E-01               0
GRID*              15482               05.0000000000E-018.3578403437E-01+
*       4.2419421044E-01               0
GRID*              15483               05.0000000000E-017.7265624255E-01+
*       4.0853158261E-01               0
GRID*              15484               05.0000000000E-018.3806177486E-01+
*       4.9069628170E-01               0
GRID*              15485               05.0000000000E-017.7921697210E-01+
*       5.1558902080E-01               0
GRID*              15486               05.0000000000E-016.5262312487E-01+
*       4.0696163269E-01               0
GRID*              15487               05.0000000000E-016.1168555880E-01+
*       4.6257574468E-01               0
GRID*              15488               05.0000000000E-017.1770364389E-01+
*       4.1147389651E-01               0
GRID*              15489               05.0000000000E-017.3729380129E-01+
*       4.6336013758E-01               0
GRID*              15490               05.0000000000E-014.2337976234E-01+
*       6.7171393374E-01               0
GRID*              15491               05.0000000000E-017.2426437344E-01+
*       5.1853133469E-01               0
GRID*              15492               05.0000000000E-016.4780336892E-01+
*       5.3820130277E-01               0
GRID*              15493               05.0000000000E-014.6628822129E-01+
*       6.3333961817E-01               0
GRID*              15494               05.0000000000E-015.3184420324E-01+
*       5.8814678393E-01               0
GRID*              15495               05.0000000000E-015.7714772508E-01+
*       5.3447459597E-01               0
GRID*              15496               05.0000000000E-01-4.258785614E-01+
*       6.9307738945E-02               0
GRID*              15497               05.0000000000E-01-5.028016383E-01+
*       6.9307738945E-02               0
GRID*              15498               05.0000000000E-01-3.796945316E-01+
*       1.5462544860E-01               0
GRID*              15499               05.0000000000E-01-4.402902995E-01+
*       2.1233475031E-01               0
GRID*              15500               05.0000000000E-01-3.528430930E-01+
*       2.2834472103E-01               0
GRID*              15501               05.0000000000E-01-3.384313548E-01+
*       8.5317709658E-02               0
GRID*              15502               05.0000000000E-01-2.615082779E-01+
*       8.5317709658E-02               0
GRID*              15503               05.0000000000E-01-1.783504036E-01+
*       7.1697765580E-02               0
GRID*              15504               05.0000000000E-01-1.014273267E-01+
*       7.1697765580E-02               0
GRID*              15505               05.0000000000E-01-3.428545957E-01+
*       3.1367133036E-01               0
GRID*              15506               05.0000000000E-01-3.930920042E-01+
*       3.5658928940E-01               0
GRID*              15507               05.0000000000E-01-3.225077389E-01+
*       3.8420659703E-01               0
GRID*              15508               05.0000000000E-01-2.090894507E-01+
*       1.5701547524E-01               0
GRID*              15509               05.0000000000E-01-2.225306492E-01+
*       2.2767105143E-01               0
GRID*              15510               05.0000000000E-01-1.393727749E-01+
*       2.1405110735E-01               0
GRID*              15511               05.0000000000E-01-2.822588277E-01+
*       2.5596202865E-01               0
GRID*              15512               05.0000000000E-01-2.125421519E-01+
*       3.1299766076E-01               0
GRID*              15513               05.0000000000E-01-3.019143984E-02+
*       6.8515251465E-02               0
GRID*              15514               05.0000000000E-01-3.107957146E-01+
*       4.4497034916E-01               0
GRID*              15515               05.0000000000E-01-2.605583061E-01+
*       4.0205239012E-01               0
GRID*              15516               05.0000000000E-01-3.462106829E-01+
*       4.8584056196E-01               0
GRID*              15517               05.0000000000E-01-5.469568957E-02+
*       1.4021301704E-01               0
GRID*              15518               05.0000000000E-01-7.647441872E-02+
*       2.0390714399E-01               0
GRID*              15519               05.0000000000E-01-2.150639009E-01+
*       3.7281447311E-01               0
GRID*              15520               05.0000000000E-01-1.553357224E-01+
*       3.4452349589E-01               0
GRID*              15521               05.0000000000E-01-8.991561720E-02+
*       2.7456272018E-01               0
GRID*              15522               05.0000000000E-01-1.034467611E-01+
*       3.2928773349E-01               0
GRID*              15523               05.0000000000E-01-4.313239530E-01+
*       7.8907324304E-01               0
GRID*              15524               05.0000000000E-01-4.236269307E-01+
*       8.4260222043E-01               0
GRID*              15525               05.0000000000E-01-4.333103892E-01+
*       7.2287450167E-01               0
GRID*              15526               05.0000000000E-01-4.846343469E-01+
*       7.6194773322E-01               0
GRID*              15527               05.0000000000E-01-5.478693072E-01+
*       7.3537262979E-01               0
GRID*              15528               05.0000000000E-01-5.504089106E-01+
*       6.6322896534E-01               0
GRID*              15529               05.0000000000E-01-6.116574347E-01+
*       7.0285260328E-01               0
GRID*              15530               05.0000000000E-01-5.458828710E-01+
*       8.0157137116E-01               0
GRID*              15531               05.0000000000E-01-6.768307760E-01+
*       6.7369110866E-01               0
GRID*              15532               05.0000000000E-01-6.742911726E-01+
*       7.4583477310E-01               0
GRID*              15533               05.0000000000E-01-6.807352796E-01+
*       6.0043003484E-01               0
GRID*              15534               05.0000000000E-01-7.433690175E-01+
*       6.4341220466E-01               0
GRID*              15535               05.0000000000E-01-9.375319229E-01+
*       5.5545167044E-01               0
GRID*              15536               05.0000000000E-01-9.375319229E-01+
*       4.8045167044E-01               0
GRID*              15537               05.0000000000E-01-8.729695892E-01+
*       5.8471811176E-01               0
GRID*              15538               05.0000000000E-01-9.354376663E-01+
*       6.2926644132E-01               0
GRID*              15539               05.0000000000E-01-8.090744268E-01+
*       6.1434200675E-01               0
GRID*              15540               05.0000000000E-01-8.051699232E-01+
*       6.8760308056E-01               0
GRID*              15541               05.0000000000E-01-8.111686834E-01+
*       5.4052723587E-01               0
GRID*              15542               05.0000000000E-01-6.200793677E-01+
*       5.5656314545E-01               0
GRID*              15543               05.0000000000E-01-6.866176091E-01+
*       5.2628424146E-01               0
GRID*              15544               05.0000000000E-01-5.425226134E-01+
*       5.8761508081E-01               0
GRID*              15545               05.0000000000E-01-4.787344858E-01+
*       6.2013510732E-01               0
GRID*              15546               05.0000000000E-01-5.484049429E-01+
*       5.1346928742E-01               0
GRID*              15547               05.0000000000E-01-4.927833703E-01+
*       4.6595648923E-01               0
GRID*              15548               05.0000000000E-01-5.703401246E-01+
*       4.3490455387E-01               0
GRID*              15549               05.0000000000E-01-4.437318498E-01+
*       4.0725815588E-01               0
GRID*              15550               05.0000000000E-01-4.640787065E-01+
*       3.3672288921E-01               0
GRID*              15551               05.0000000000E-01-4.217966680E-01+
*       4.8582288942E-01               0
GRID*              15552               05.0000000000E-01-4.256133698E-01+
*       6.6934552390E-01               0
GRID*              15553               05.0000000000E-01-4.177270726E-01+
*       5.9373163936E-01               0
GRID*              15554               05.0000000000E-01-3.952622035E-01+
*       5.4453889532E-01               0
GRID*              15555               05.0000000000E-01-9.352506856E-01+
*       2.5537648787E-01               0
GRID*              15556               05.0000000000E-01-9.382087207E-01+
*       3.3187438837E-01               0
GRID*              15557               05.0000000000E-01-8.734594063E-01+
*       2.8725087624E-01               0
GRID*              15558               05.0000000000E-01-9.352506856E-01+
*       1.8037648787E-01               0
GRID*              15559               05.0000000000E-01-9.382087207E-01+
*       4.0687438837E-01               0
GRID*              15560               05.0000000000E-01-8.757406436E-01+
*       4.3732605881E-01               0
GRID*              15561               05.0000000000E-01-7.509634919E-01+
*       4.9789914400E-01               0
GRID*              15562               05.0000000000E-01-6.903075800E-01+
*       4.5403225460E-01               0
GRID*              15563               05.0000000000E-01-8.148586543E-01+
*       4.6827524902E-01               0
GRID*              15564               05.0000000000E-01-8.155354521E-01+
*       3.9469796694E-01               0
GRID*              15565               05.0000000000E-01-8.174846147E-01+
*       3.2468391349E-01               0
GRID*              15566               05.0000000000E-01-8.145265796E-01+
*       2.4818601299E-01               0
GRID*              15567               05.0000000000E-01-7.566026254E-01+
*       3.5563310369E-01               0
GRID*              15568               05.0000000000E-01-6.358490794E-01+
*       4.1241097463E-01               0
GRID*              15569               05.0000000000E-01-5.802275068E-01+
*       3.6489817644E-01               0
GRID*              15570               05.0000000000E-01-7.001949622E-01+
*       3.8402587717E-01               0
GRID*              15571               05.0000000000E-01-7.021441248E-01+
*       3.1401182372E-01               0
GRID*              15572               05.0000000000E-01-5.335988208E-01+
*       3.1964514791E-01               0
GRID*              15573               05.0000000000E-01-5.991077756E-01+
*       2.9715156867E-01               0
GRID*              15574               05.0000000000E-01-4.829589753E-01+
*       2.6897628144E-01               0
GRID*              15575               05.0000000000E-01-5.098104138E-01+
*       1.9525700902E-01               0
GRID*              15576               05.0000000000E-01-5.735906687E-01+
*       6.3853698295E-02               0
GRID*              15577               05.0000000000E-01-6.505137456E-01+
*       6.3853698295E-02               0
GRID*              15578               05.0000000000E-01-5.379307685E-01+
*       1.3316143724E-01               0
GRID*              15579               05.0000000000E-01-5.805994442E-01+
*       1.8980296837E-01               0
GRID*              15580               05.0000000000E-01-6.533141840E-01+
*       2.8641568302E-01               0
GRID*              15581               05.0000000000E-01-7.097218472E-01+
*       2.5802290954E-01               0
GRID*              15582               05.0000000000E-01-6.066854980E-01+
*       2.4116265449E-01               0
GRID*              15583               05.0000000000E-01-6.348058527E-01+
*       1.7906708271E-01               0
GRID*              15584               05.0000000000E-01-7.154699193E-01+
*       7.1777246228E-02               0
GRID*              15585               05.0000000000E-01-7.923929962E-01+
*       7.1777246228E-02               0
GRID*              15586               05.0000000000E-01-6.736759726E-01+
*       1.3563094452E-01               0
GRID*              15587               05.0000000000E-01-6.997620264E-01+
*       1.8699063065E-01               0
GRID*              15588               05.0000000000E-01-7.485919671E-01+
*       2.1458677135E-01               0
GRID*              15589               05.0000000000E-01-8.045667588E-01+
*       1.7715373410E-01               0
GRID*              15590               05.0000000000E-01-8.583276087E-01+
*       1.0537648787E-01               0
GRID*              15591               05.0000000000E-01-5.572881573E-01+
*       1.4923474621E+00               0
GRID*              15592               05.0000000000E-01-4.955432930E-01+
*       1.5344444223E+00               0
GRID*              15593               05.0000000000E-01-6.175809074E-01+
*       1.4494235654E+00               0
GRID*              15594               05.0000000000E-01-6.723620176E-01+
*       1.3985943140E+00               0
GRID*              15595               05.0000000000E-01-5.513795784E-01+
*       1.4099399505E+00               0
GRID*              15596               05.0000000000E-01-4.884228928E-01+
*       1.3759406437E+00               0
GRID*              15597               05.0000000000E-01-5.487156429E-01+
*       1.3330167470E+00               0
GRID*              15598               05.0000000000E-013.1588567621E-01+
*       1.6216807671E+00               0
GRID*              15599               05.0000000000E-012.4447562371E-01+
*       1.6437077868E+00               0
GRID*              15600               05.0000000000E-013.8510763510E-01+
*       1.5991813949E+00               0
GRID*              15601               05.0000000000E-013.3565230791E-01+
*       1.5399884521E+00               0
GRID*              15602               05.0000000000E-012.8691697339E-01+
*       1.4874313072E+00               0
GRID*              15603               05.0000000000E-011.7360709227E-01+
*       1.6584444370E+00               0
GRID*              15604               05.0000000000E-019.9711675700E-02+
*       1.6695822319E+00               0
GRID*              15605               05.0000000000E-011.9556181759E-01+
*       1.5772244745E+00               0
GRID*              15606               05.0000000000E-012.1927824889E-01+
*       1.5044881532E+00               0
GRID*              15607               05.0000000000E-011.4840971745E-01+
*       1.5192248034E+00               0
GRID*              15608               05.0000000000E-012.3976487325E-01+
*       1.4294316361E+00               0
GRID*              15609               05.0000000000E-011.9250850305E-01+
*       1.3771032116E+00               0
GRID*              15610               05.0000000000E-01-4.301195479E-01+
*       1.5713110107E+00               0
GRID*              15611               05.0000000000E-01-4.256630832E-01+
*       1.4897304358E+00               0
GRID*              15612               05.0000000000E-01-3.627901707E-01+
*       1.6037353671E+00               0
GRID*              15613               05.0000000000E-01-4.278203952E-01+
*       1.4138353194E+00               0
GRID*              15614               05.0000000000E-01-3.623966501E-01+
*       1.4507019079E+00               0
GRID*              15615               05.0000000000E-01-4.251564597E-01+
*       1.3369121158E+00               0
GRID*              15616               05.0000000000E-01-3.639336614E-01+
*       1.3026039545E+00               0
GRID*              15617               05.0000000000E-01-4.245361589E-01+
*       1.2647092788E+00               0
GRID*              15618               05.0000000000E-013.0753273156E-02+
*       1.1784739276E+00               0
GRID*              15619               05.0000000000E-016.7117426515E-02+
*       1.2211403229E+00               0
GRID*              15620               05.0000000000E-01-3.065752266E-01+
*       1.2656830862E+00               0
GRID*              15621               05.0000000000E-01-3.071955273E-01+
*       1.3378859232E+00               0
GRID*              15622               05.0000000000E-01-2.501968164E-01+
*       1.2328199351E+00               0
GRID*              15623               05.0000000000E-01-1.891931627E-01+
*       1.2671492389E+00               0
GRID*              15624               05.0000000000E-01-1.895528866E-01+
*       1.1990041191E+00               0
GRID*              15625               05.0000000000E-01-3.069349505E-01+
*       1.1975379664E+00               0
GRID*              15626               05.0000000000E-01-2.332627245E-02+
*       1.1784739284E+00               0
GRID*              15627               05.0000000000E-01-9.131438641E-02+
*       1.1797323324E+00               0
GRID*              15628               05.0000000000E-01-6.056111894E-02+
*       1.2320750188E+00               0
GRID*              15629               05.0000000000E-01-1.432033445E-01+
*       1.1644965610E+00               0
GRID*              15630               05.0000000000E-01-2.042069982E-01+
*       1.1301672573E+00               0
GRID*              15631               05.0000000000E-01-1.732721876E-02+
*       1.2907096087E+00               0
GRID*              15632               05.0000000000E-01-8.531533273E-02+
*       1.2919680127E+00               0
GRID*              15633               05.0000000000E-011.0605839539E-01+
*       1.2731461027E+00               0
GRID*              15634               05.0000000000E-014.6367963901E-02+
*       1.2828223945E+00               0
GRID*              15635               05.0000000000E-011.4909989506E-01+
*       1.3212730577E+00               0
GRID*              15636               05.0000000000E-011.2871754076E-01+
*       1.3906583282E+00               0
GRID*              15637               05.0000000000E-011.0386361788E-01+
*       1.4563167636E+00               0
GRID*              15638               05.0000000000E-018.0147186578E-02+
*       1.5290530848E+00               0
GRID*              15639               05.0000000000E-016.0455009888E-02+
*       1.4004866097E+00               0
GRID*              15640               05.0000000000E-012.1613750112E-02+
*       1.3427153885E+00               0
GRID*              15641               05.0000000000E-01-3.240172777E-03+
*       1.4083738238E+00               0
GRID*              15642               05.0000000000E-015.0875880682E-02+
*       1.5974304318E+00               0
GRID*              15643               05.0000000000E-016.3297811032E-03+
*       1.5345223920E+00               0
GRID*              15644               05.0000000000E-012.5894270226E-02+
*       1.6750515391E+00               0
GRID*              15645               05.0000000000E-01-4.883579502E-02+
*       1.6750515391E+00               0
GRID*              15646               05.0000000000E-01-3.354935534E-02+
*       1.4669370107E+00               0
GRID*              15647               05.0000000000E-01-6.282066123E-02+
*       1.5353143578E+00               0
GRID*              15648               05.0000000000E-01-7.239061511E-02+
*       1.4091657895E+00               0
GRID*              15649               05.0000000000E-01-1.405349045E-01+
*       1.2963343681E+00               0
GRID*              15650               05.0000000000E-01-2.011788343E-01+
*       1.3301501842E+00               0
GRID*              15651               05.0000000000E-01-9.730100431E-02+
*       1.3549689580E+00               0
GRID*              15652               05.0000000000E-01-1.276101869E-01+
*       1.4135321449E+00               0
GRID*              15653               05.0000000000E-01-1.103525158E-01+
*       1.5995013326E+00               0
GRID*              15654               05.0000000000E-01-1.502316522E-01+
*       1.5319159513E+00               0
GRID*              15655               05.0000000000E-01-1.362467860E-01+
*       1.6716531326E+00               0
GRID*              15656               05.0000000000E-01-2.101422026E-01+
*       1.6605153377E+00               0
GRID*              15657               05.0000000000E-01-2.439123131E-01+
*       1.3685573242E+00               0
GRID*              15658               05.0000000000E-01-1.952540549E-01+
*       1.3977424535E+00               0
GRID*              15659               05.0000000000E-01-3.012707480E-01+
*       1.4054781925E+00               0
GRID*              15660               05.0000000000E-01-2.991134360E-01+
*       1.4813733089E+00               0
GRID*              15661               05.0000000000E-01-1.703436657E-01+
*       1.4519392850E+00               0
GRID*              15662               05.0000000000E-01-2.178755203E-01+
*       1.5161262598E+00               0
GRID*              15663               05.0000000000E-01-2.815522551E-01+
*       1.6384883180E+00               0
GRID*              15664               05.0000000000E-01-2.790014224E-01+
*       1.5613499752E+00               0
GRID*              15665               05.0000000000E-01-9.314272263E-01+
*       7.7743667186E-01               0
GRID*              15666               05.0000000000E-01-9.258424933E-01+
*       8.5195777946E-01               0
GRID*              15667               05.0000000000E-01-9.354376663E-01+
*       7.0426644132E-01               0
GRID*              15668               05.0000000000E-01-8.668648926E-01+
*       7.3170311318E-01               0
GRID*              15669               05.0000000000E-01-8.011594832E-01+
*       7.6077331110E-01               0
GRID*              15670               05.0000000000E-01-9.186901624E-01+
*       9.2166924867E-01               0
GRID*              15671               05.0000000000E-01-8.557021216E-01+
*       8.7458481293E-01               0
GRID*              15672               05.0000000000E-01-9.020610475E-01+
*       9.9452564944E-01               0
GRID*              15673               05.0000000000E-01-7.968872937E-01+
*       8.3219777015E-01               0
GRID*              15674               05.0000000000E-01-7.897349628E-01+
*       9.0190923936E-01               0
GRID*              15675               05.0000000000E-01-7.351923243E-01+
*       7.8809773753E-01               0
GRID*              15676               05.0000000000E-01-6.700189830E-01+
*       8.1725923215E-01               0
GRID*              15677               05.0000000000E-01-4.814983544E-01+
*       1.2230915427E+00               0
GRID*              15678               05.0000000000E-01-4.202755561E-01+
*       1.1887833814E+00               0
GRID*              15679               05.0000000000E-01-5.458165835E-01+
*       1.2566051882E+00               0
GRID*              15680               05.0000000000E-01-6.087732692E-01+
*       1.2906044951E+00               0
GRID*              15681               05.0000000000E-01-5.415559807E-01+
*       1.1806792909E+00               0
GRID*              15682               05.0000000000E-01-5.386066648E-01+
*       1.1062904157E+00               0
GRID*              15683               05.0000000000E-01-6.029248940E-01+
*       1.1398040612E+00               0
GRID*              15684               05.0000000000E-01-6.709330710E-01+
*       1.3204687603E+00               0
GRID*              15685               05.0000000000E-01-6.680340117E-01+
*       1.2440572016E+00               0
GRID*              15686               05.0000000000E-01-7.316227601E-01+
*       1.3520470205E+00               0
GRID*              15687               05.0000000000E-01-7.782162990E-01+
*       1.2936207661E+00               0
GRID*              15688               05.0000000000E-01-6.650381235E-01+
*       1.0986039723E+00               0
GRID*              15689               05.0000000000E-01-6.620599043E-01+
*       1.0310043821E+00               0
GRID*              15690               05.0000000000E-01-7.271224497E-01+
*       1.0641931684E+00               0
GRID*              15691               05.0000000000E-01-6.679874394E-01+
*       1.1729928474E+00               0
GRID*              15692               05.0000000000E-01-7.301472412E-01+
*       1.2028571127E+00               0
GRID*              15693               05.0000000000E-01-7.776967381E-01+
*       1.0276910472E+00               0
GRID*              15694               05.0000000000E-01-7.806749573E-01+
*       1.0952906373E+00               0
GRID*              15695               05.0000000000E-01-8.398995182E-01+
*       1.0015423992E+00               0
GRID*              15696               05.0000000000E-01-8.934107750E-01+
*       1.0517717665E+00               0
GRID*              15697               05.0000000000E-01-7.863470106E-01+
*       9.7044493017E-01               0
GRID*              15698               05.0000000000E-01-8.661088783E-01+
*       1.1213360450E+00               0
GRID*              15699               05.0000000000E-01-8.155811622E-01+
*       1.2289025204E+00               0
GRID*              15700               05.0000000000E-01-8.155345899E-01+
*       1.1578381662E+00               0
GRID*              15701               05.0000000000E-01-6.050753637E-01+
*       8.4602934467E-01               0
GRID*              15702               05.0000000000E-01-5.418404035E-01+
*       8.7260444811E-01               0
GRID*              15703               05.0000000000E-01-6.659765155E-01+
*       8.8829230910E-01               0
GRID*              15704               05.0000000000E-01-7.275321827E-01+
*       9.2805788739E-01               0
GRID*              15705               05.0000000000E-01-6.625885633E-01+
*       9.5682799992E-01               0
GRID*              15706               05.0000000000E-01-3.576386684E-01+
*       1.1580583697E+00               0
GRID*              15707               05.0000000000E-01-4.146008638E-01+
*       1.1164406337E+00               0
GRID*              15708               05.0000000000E-01-3.012602582E-01+
*       1.1251952187E+00               0
GRID*              15709               05.0000000000E-01-2.497014105E-01+
*       1.1009293519E+00               0
GRID*              15710               05.0000000000E-01-3.004051283E-01+
*       1.0614497552E+00               0
GRID*              15711               05.0000000000E-01-4.669035701E-01+
*       1.0631022087E+00               0
GRID*              15712               05.0000000000E-01-4.042666823E-01+
*       1.0323771970E+00               0
GRID*              15713               05.0000000000E-01-5.282724834E-01+
*       1.0222269790E+00               0
GRID*              15714               05.0000000000E-01-6.005042371E-01+
*       9.9123880385E-01               0
GRID*              15715               05.0000000000E-01-5.288011424E-01+
*       9.4805059681E-01               0
GRID*              15716               05.0000000000E-01-3.358200871E-01+
*       1.0205795345E+00               0
GRID*              15717               05.0000000000E-01-3.881227934E-01+
*       9.6724110951E-01               0
GRID*              15718               05.0000000000E-01-4.696086497E-01+
*       9.0359262330E-01               0
GRID*              15719               05.0000000000E-01-4.105876696E-01+
*       9.1804836914E-01               0
GRID*              15720               05.0000000000E-01-9.352506856E-01+
*       1.0537648787E-01               0
GRID*              15721               06.2500163419E-013.6460406771E-01+
*       6.4293588473E-01               0
GRID*              15722               06.2499952420E-013.1967707460E-01+
*       5.4455818394E-01               0
GRID*              15723               06.2500292331E-012.4883736600E-01+
*       4.6280883957E-01               0
GRID*              15724               06.2499846142E-011.5786276951E-01+
*       4.0434315113E-01               0
GRID*              15725               06.2500258990E-015.4069406312E-02+
*       3.7386779479E-01               0
GRID*              15726               06.2499741010E-01-5.406941768E-02+
*       3.7386779642E-01               0
GRID*              15727               06.2500153859E-01-1.578627800E-01+
*       4.0434315591E-01               0
GRID*              15728               06.2499707669E-01-2.488373747E-01+
*       4.6280884709E-01               0
GRID*              15729               06.2500047580E-01-3.196770808E-01+
*       5.4455819360E-01               0
GRID*              15730               06.2499836580E-01-3.646040709E-01+
*       6.4293589573E-01               0
GRID*              15731               06.2500000000E-01-3.799999952E-01+
*       7.5000001148E-01               0
GRID*              15732               06.2500163419E-01-3.646040645E-01+
*       8.5706412627E-01               0
GRID*              15733               06.2499952421E-01-3.196770621E-01+
*       9.5544182225E-01               0
GRID*              15734               06.2500292331E-01-2.488373718E-01+
*       1.0371911806E+00               0
GRID*              15735               06.2499846142E-01-1.578627662E-01+
*       1.0956568531E+00               0
GRID*              15736               06.2500258990E-01-5.406941012E-02+
*       1.1261322266E+00               0
GRID*              15737               06.2499741010E-015.4069421491E-02+
*       1.1261322250E+00               0
GRID*              15738               06.2500153858E-011.5786277666E-01+
*       1.0956568483E+00               0
GRID*              15739               06.2499707669E-012.4883738044E-01+
*       1.0371911731E+00               0
GRID*              15740               06.2500047579E-013.1967706835E-01+
*       9.5544181259E-01               0
GRID*              15741               06.2499836581E-013.6460406771E-01+
*       8.5706411527E-01               0
GRID*              15742               06.8750068209E-013.7613095734E-01+
*       6.9591772115E-01               0
GRID*              15743               06.2499741010E-013.7613222217E-01+
*       6.9593058470E-01               0
GRID*              15744               06.8750219413E-013.6460342592E-01+
*       6.4293376954E-01               0
GRID*              15745               05.6249890870E-013.7613164279E-01+
*       6.9592469233E-01               0
GRID*              15746               05.6249755951E-013.6460874113E-01+
*       6.4295128720E-01               0
GRID*              15747               05.6250120220E-013.4565747939E-01+
*       5.9213840038E-01               0
GRID*              15748               06.2500153858E-013.4565685323E-01+
*       5.9213722874E-01               0
GRID*              15749               05.6249984953E-013.1967646878E-01+
*       5.4455705038E-01               0
GRID*              15750               05.6249831568E-012.8718805546E-01+
*       5.0115884998E-01               0
GRID*              15751               06.2499707670E-012.8719116173E-01+
*       5.0116263341E-01               0
GRID*              15752               05.6249786750E-012.4885280288E-01+
*       4.6282151248E-01               0
GRID*              15753               05.6250068487E-012.0544108784E-01+
*       4.3032253584E-01               0
GRID*              15754               06.2500047579E-012.0544181643E-01+
*       4.3032292515E-01               0
GRID*              15755               05.6249945509E-011.5785930691E-01+
*       4.0434130100E-01               0
GRID*              15756               05.6249780588E-011.0706622648E-01+
*       3.8539658698E-01               0
GRID*              15757               06.2499836581E-011.0706411124E-01+
*       3.8539594545E-01               0
GRID*              15758               05.6249931790E-015.4082269661E-02+
*       3.7386906225E-01               0
GRID*              15759               05.6250000000E-01-5.739932555E-09+
*       3.7000000477E-01               0
GRID*              15760               06.2500000000E-01-5.740240070E-09+
*       3.7000000477E-01               0
GRID*              15761               05.6249890870E-01-5.407530994E-02+
*       3.7386837700E-01               0
GRID*              15762               05.6249755951E-01-1.070487192E-01+
*       3.8539127708E-01               0
GRID*              15763               06.2500163419E-01-1.070641222E-01+
*       3.8539594868E-01               0
GRID*              15764               05.6250120219E-01-1.578616082E-01+
*       4.0434252984E-01               0
GRID*              15765               05.6249984953E-01-2.054429597E-01+
*       4.3032353705E-01               0
GRID*              15766               06.2499952421E-01-2.054418261E-01+
*       4.3032293136E-01               0
GRID*              15767               05.6249831568E-01-2.488411582E-01+
*       4.6281195321E-01               0
GRID*              15768               05.6249786749E-01-2.871784957E-01+
*       5.0114720572E-01               0
GRID*              15769               06.2500292330E-01-2.871911692E-01+
*       5.0116264208E-01               0
GRID*              15770               05.6250068488E-01-3.196774702E-01+
*       5.4455892216E-01               0
GRID*              15771               05.6249945509E-01-3.456587085E-01+
*       5.9214070161E-01               0
GRID*              15772               06.2499846142E-01-3.456568580E-01+
*       5.9213723919E-01               0
GRID*              15773               05.6249780587E-01-3.646034292E-01+
*       6.4293378056E-01               0
GRID*              15774               05.6249931791E-01-3.761309590E-01+
*       6.9591773250E-01               0
GRID*              15775               06.2500258990E-01-3.761322238E-01+
*       6.9593059607E-01               0
GRID*              15776               05.6250000000E-01-3.799999952E-01+
*       7.5000001148E-01               0
GRID*              15777               05.6249890870E-01-3.761316412E-01+
*       8.0407531904E-01               0
GRID*              15778               06.2499741010E-01-3.761322205E-01+
*       8.0406942667E-01               0
GRID*              15779               05.6249755951E-01-3.646087379E-01+
*       8.5704872382E-01               0
GRID*              15780               05.6250120219E-01-3.456574743E-01+
*       9.0786160979E-01               0
GRID*              15781               06.2500153858E-01-3.456568481E-01+
*       9.0786278144E-01               0
GRID*              15782               05.6249984953E-01-3.196764563E-01+
*       9.5544295577E-01               0
GRID*              15783               05.6249831568E-01-2.871880522E-01+
*       9.9884116726E-01               0
GRID*              15784               06.2499707669E-01-2.871911575E-01+
*       9.9883738302E-01               0
GRID*              15785               05.6249786750E-01-2.488528096E-01+
*       1.0371785088E+00               0
GRID*              15786               05.6250068487E-01-2.054410910E-01+
*       1.0696774813E+00               0
GRID*              15787               06.2500047579E-01-2.054418197E-01+
*       1.0696770921E+00               0
GRID*              15788               05.6249945509E-01-1.578593033E-01+
*       1.0956587027E+00               0
GRID*              15789               05.6249780588E-01-1.070662233E-01+
*       1.1146034291E+00               0
GRID*              15790               06.2499836580E-01-1.070641082E-01+
*       1.1146040711E+00               0
GRID*              15791               05.6249931790E-01-5.408227375E-02+
*       1.1261309621E+00               0
GRID*              15792               05.6250000000E-015.7399726513E-09+
*       1.1299999952E+00               0
GRID*              15793               06.2500000000E-015.7403139229E-09+
*       1.1299999952E+00               0
GRID*              15794               05.6249890870E-015.4075313884E-02+
*       1.1261316458E+00               0
GRID*              15795               05.6249755951E-011.0704871716E-01+
*       1.1146087429E+00               0
GRID*              15796               05.6250120219E-011.5786160485E-01+
*       1.0956574742E+00               0
GRID*              15797               06.2500163419E-011.0706411916E-01+
*       1.1146040679E+00               0
GRID*              15798               05.6249984953E-012.0544296299E-01+
*       1.0696764804E+00               0
GRID*              15799               05.6249831568E-012.4884116424E-01+
*       1.0371880672E+00               0
GRID*              15800               06.2499952421E-012.0544182932E-01+
*       1.0696770859E+00               0
GRID*              15801               05.6249786749E-012.8717849546E-01+
*       9.9885281397E-01               0
GRID*              15802               05.6250068487E-013.1967745773E-01+
*       9.5544108403E-01               0
GRID*              15803               06.2500292331E-012.8719116504E-01+
*       9.9883737434E-01               0
GRID*              15804               05.6249945509E-013.4565870335E-01+
*       9.0785930859E-01               0
GRID*              15805               05.6249780587E-013.6460342592E-01+
*       8.5706623046E-01               0
GRID*              15806               06.2499846142E-013.4565685285E-01+
*       9.0786277099E-01               0
GRID*              15807               05.6249931791E-013.7613095734E-01+
*       8.0408227885E-01               0
GRID*              15808               06.2500258990E-013.7613222217E-01+
*       8.0406941530E-01               0
GRID*              15809               06.8750244049E-013.6460874113E-01+
*       8.5704871280E-01               0
GRID*              15810               06.8750109130E-013.7613164279E-01+
*       8.0407530767E-01               0
GRID*              15811               06.8750015047E-013.1967646253E-01+
*       9.5544294611E-01               0
GRID*              15812               06.8749879781E-013.4565747903E-01+
*       9.0786159935E-01               0
GRID*              15813               06.8750213250E-012.4885281823E-01+
*       1.0371785013E+00               0
GRID*              15814               06.8750168432E-012.8718805974E-01+
*       9.9884115858E-01               0
GRID*              15815               06.8750054491E-011.5785931379E-01+
*       1.0956586979E+00               0
GRID*              15816               06.8749931513E-012.0544110067E-01+
*       1.0696774751E+00               0
GRID*              15817               06.8750068210E-015.4082285102E-02+
*       1.1261309605E+00               0
GRID*              15818               06.8750219413E-011.0706623428E-01+
*       1.1146034259E+00               0
GRID*              15819               06.8750109130E-01-5.407530252E-02+
*       1.1261316474E+00               0
GRID*              15820               06.8750000000E-015.7406549747E-09+
*       1.1299999952E+00               0
GRID*              15821               06.8749879781E-01-1.578615944E-01+
*       1.0956574790E+00               0
GRID*              15822               06.8750244049E-01-1.070487061E-01+
*       1.1146087461E+00               0
GRID*              15823               06.8750168432E-01-2.488411556E-01+
*       1.0371880747E+00               0
GRID*              15824               06.8750015047E-01-2.054429533E-01+
*       1.0696764866E+00               0
GRID*              15825               06.8749931513E-01-3.196774515E-01+
*       9.5544109370E-01               0
GRID*              15826               06.8750213251E-01-2.871784879E-01+
*       9.9885282264E-01               0
GRID*              15827               06.8750219413E-01-3.646034227E-01+
*       8.5706624147E-01               0
GRID*              15828               06.8750054491E-01-3.456586986E-01+
*       9.0785931903E-01               0
GRID*              15829               06.8750000000E-01-3.799999952E-01+
*       7.5000001148E-01               0
GRID*              15830               06.8750068209E-01-3.761309557E-01+
*       8.0408229019E-01               0
GRID*              15831               06.8750244049E-01-3.646087444E-01+
*       6.4295129821E-01               0
GRID*              15832               06.8750109130E-01-3.761316444E-01+
*       6.9592470370E-01               0
GRID*              15833               06.8750015047E-01-3.196764750E-01+
*       5.4455706004E-01               0
GRID*              15834               06.8749879780E-01-3.456574842E-01+
*       5.9213841082E-01               0
GRID*              15835               06.8750213250E-01-2.488528115E-01+
*       4.6282152000E-01               0
GRID*              15836               06.8750168432E-01-2.871880630E-01+
*       5.0115885866E-01               0
GRID*              15837               06.8750054491E-01-1.578593174E-01+
*       4.0434130577E-01               0
GRID*              15838               06.8749931513E-01-2.054410975E-01+
*       4.3032254205E-01               0
GRID*              15839               06.8750068210E-01-5.408228101E-02+
*       3.7386906388E-01               0
GRID*              15840               06.8750219412E-01-1.070662375E-01+
*       3.8539659022E-01               0
GRID*              15841               06.8750109130E-015.4075298575E-02+
*       3.7386837537E-01               0
GRID*              15842               06.8750000000E-01-5.739881173E-09+
*       3.7000000477E-01               0
GRID*              15843               06.8749879781E-011.5786159780E-01+
*       4.0434252507E-01               0
GRID*              15844               06.8750244049E-011.0704870821E-01+
*       3.8539127385E-01               0
GRID*              15845               06.8750168432E-012.4884114957E-01+
*       4.6281194569E-01               0
GRID*              15846               06.8750015047E-012.0544295003E-01+
*       4.3032353085E-01               0
GRID*              15847               06.8749931512E-013.1967746397E-01+
*       5.4455891250E-01               0
GRID*              15848               06.8750213250E-012.8717848820E-01+
*       5.0114719705E-01               0
GRID*              15849               06.8750054491E-013.4565870368E-01+
*       5.9214069117E-01               0
GRID*              15850               06.2499926019E-01-2.947571535E-01+
*       1.7055716001E+00               0
GRID*              15851               06.2500039965E-01-9.308732048E-01+
*       1.1153420964E+00               0
GRID*              15852               06.2499962880E-01-9.735264891E-01+
*       9.7857383045E-01               0
GRID*              15853               06.2499817990E-01-9.958891485E-01+
*       8.4057497675E-01               0
GRID*              15854               06.2500227199E-01-8.660214513E-01+
*       1.2500056679E+00               0
GRID*              15855               06.2499827542E-01-7.818342936E-01+
*       1.3734853479E+00               0
GRID*              15856               06.2499872648E-01-6.801753252E-01+
*       1.4830490078E+00               0
GRID*              15857               06.2500010967E-01-5.633197685E-01+
*       1.5762389239E+00               0
GRID*              15858               06.2500208485E-01-4.338778068E-01+
*       1.6509711040E+00               0
GRID*              15859               06.2500073981E-012.9475715353E-01+
*       1.7055716001E+00               0
GRID*              15860               06.2499827603E-01-1.490473495E-01+
*       1.7388296262E+00               0
GRID*              15861               06.2500000000E-011.6670530579E-12+
*       1.7500000000E+00               0
GRID*              15862               06.2500172396E-011.4904734945E-01+
*       1.7388296262E+00               0
GRID*              15863               06.2499989033E-015.6331976852E-01+
*       1.5762389239E+00               0
GRID*              15864               06.2499791515E-014.3387780685E-01+
*       1.6509711040E+00               0
GRID*              15865               06.2500127352E-016.8017532518E-01+
*       1.4830490078E+00               0
GRID*              15866               06.2500172458E-017.8183429362E-01+
*       1.3734853479E+00               0
GRID*              15867               06.2499772800E-018.6602145131E-01+
*       1.2500056679E+00               0
GRID*              15868               06.2499960035E-019.3087320484E-01+
*       1.1153420964E+00               0
GRID*              15869               06.2500037120E-019.7352648911E-01+
*       9.7857383045E-01               0
GRID*              15870               06.2500182010E-019.9588914849E-01+
*       8.4057497675E-01               0
GRID*              15871               06.8749931801E-01-9.438837179E-01+
*       1.0802770235E+00               0
GRID*              15872               06.8750149376E-01-9.165599220E-01+
*       1.1498959381E+00               0
GRID*              15873               06.8750046504E-01-9.651164015E-01+
*       1.0118202684E+00               0
GRID*              15874               06.8750187125E-01-9.819825558E-01+
*       9.3896911127E-01               0
GRID*              15875               06.2499993386E-01-9.546519205E-01+
*       1.0477224244E+00               0
GRID*              15876               05.6249943818E-01-9.438836092E-01+
*       1.0802773722E+00               0
GRID*              15877               05.6250088103E-01-9.651160255E-01+
*       1.0118214744E+00               0
GRID*              15878               05.6249841260E-01-9.819844449E-01+
*       9.3895877678E-01               0
GRID*              15879               06.8749999696E-01-9.927903880E-01+
*       8.6986334171E-01               0
GRID*              15880               06.2500226575E-01-9.871203769E-01+
*       9.0997565813E-01               0
GRID*              15881               06.8750135730E-01-9.989710135E-01+
*       7.9534094673E-01               0
GRID*              15882               06.2500221676E-01-9.989708555E-01+
*       7.9534355274E-01               0
GRID*              15883               05.6249999952E-01-9.927903875E-01+
*       8.6986334947E-01               0
GRID*              15884               05.6249828663E-01-9.989715779E-01+
*       7.9533163718E-01               0
GRID*              15885               05.6249817204E-01-9.165640661E-01+
*       1.1498867397E+00               0
GRID*              15886               06.8750000851E-01-8.841153524E-01+
*       1.2172686309E+00               0
GRID*              15887               06.8750160386E-01-8.467212844E-01+
*       1.2820360198E+00               0
GRID*              15888               06.2499791516E-01-9.009711094E-01+
*       1.1838778106E+00               0
GRID*              15889               05.6250005081E-01-8.841152860E-01+
*       1.2172687409E+00               0
GRID*              15890               06.8750056182E-01-3.302773753E-01+
*       1.6938836072E+00               0
GRID*              15891               06.8749905062E-01-2.588217270E-01+
*       1.7159247761E+00               0
GRID*              15892               05.6249873138E-01-8.467257930E-01+
*       1.2820285502E+00               0
GRID*              15893               06.8750078862E-01-8.045960660E-01+
*       1.3438218654E+00               0
GRID*              15894               06.8749924833E-01-7.579730326E-01+
*       1.4022855451E+00               0
GRID*              15895               06.2499989032E-01-8.262389530E-01+
*       1.3133197850E+00               0
GRID*              15896               05.6249970722E-01-8.045980937E-01+
*       1.3438192810E+00               0
GRID*              15897               05.6249980662E-01-7.579719860E-01+
*       1.4022868790E+00               0
GRID*              15898               06.8750182550E-01-7.071024657E-01+
*       1.4571103112E+00               0
GRID*              15899               06.8750019338E-01-6.522869134E-01+
*       1.5079720186E+00               0
GRID*              15900               06.2500127351E-01-7.330489809E-01+
*       1.4301753025E+00               0
GRID*              15901               05.6249817449E-01-7.071103043E-01+
*       1.4571024650E+00               0
GRID*              15902               05.6250075166E-01-6.522855784E-01+
*       1.5079730637E+00               0
GRID*              15903               05.6249921138E-01-5.938218617E-01+
*       1.5545960474E+00               0
GRID*              15904               05.6249839614E-01-5.320360061E-01+
*       1.5967212614E+00               0
GRID*              15905               06.2500172459E-01-6.234853631E-01+
*       1.5318342977E+00               0
GRID*              15906               06.8750029279E-01-5.938192751E-01+
*       1.5545980723E+00               0
GRID*              15907               06.8750126862E-01-5.320285378E-01+
*       1.5967257722E+00               0
GRID*              15908               06.8750182796E-01-3.998867400E-01+
*       1.6665640702E+00               0
GRID*              15909               06.8749994919E-01-4.672687363E-01+
*       1.6341152760E+00               0
GRID*              15910               06.2499960035E-01-3.653420998E-01+
*       1.6808732140E+00               0
GRID*              15911               05.6250068199E-01-3.302770265E-01+
*       1.6938837156E+00               0
GRID*              15912               05.6249850624E-01-3.998959370E-01+
*       1.6665599230E+00               0
GRID*              15913               05.6249999149E-01-4.672686263E-01+
*       1.6341153424E+00               0
GRID*              15914               06.2499772801E-01-5.000056593E-01+
*       1.6160214369E+00               0
GRID*              15915               05.6249964030E-01-2.588200168E-01+
*       1.7159253076E+00               0
GRID*              15916               06.8750035970E-012.5882001680E-01+
*       1.7159253076E+00               0
GRID*              15917               06.8749931801E-013.3027702650E-01+
*       1.6938837156E+00               0
GRID*              15918               06.8750168630E-01-1.859064643E-01+
*       1.7325668626E+00               0
GRID*              15919               06.8750007314E-01-1.119642633E-01+
*       1.7437122299E+00               0
GRID*              15920               06.2500080904E-01-2.225184907E-01+
*       1.7249281912E+00               0
GRID*              15921               05.6249811521E-01-1.859171320E-01+
*       1.7325648968E+00               0
GRID*              15922               05.6250036481E-01-1.119633789E-01+
*       1.7437122829E+00               0
GRID*              15923               06.8750113505E-01-3.738772097E-02+
*       1.7493005158E+00               0
GRID*              15924               06.8750102876E-013.7394281397E-02+
*       1.7493001225E+00               0
GRID*              15925               06.2500218951E-01-7.472343571E-02+
*       1.7472037317E+00               0
GRID*              15926               05.6249897124E-01-3.739428139E-02+
*       1.7493001225E+00               0
GRID*              15927               05.6249886495E-013.7387720974E-02+
*       1.7493005158E+00               0
GRID*              15928               05.6249831369E-011.8590646434E-01+
*       1.7325668626E+00               0
GRID*              15929               05.6249992685E-011.1196426335E-01+
*       1.7437122299E+00               0
GRID*              15930               06.2499919095E-012.2251849071E-01+
*       1.7249281912E+00               0
GRID*              15931               06.8750188478E-011.8591713198E-01+
*       1.7325648968E+00               0
GRID*              15932               05.6250094937E-012.5882172696E-01+
*       1.7159247761E+00               0
GRID*              15933               06.8749963519E-011.1196337893E-01+
*       1.7437122829E+00               0
GRID*              15934               06.2499781048E-017.4723435710E-02+
*       1.7472037317E+00               0
GRID*              15935               05.6249943818E-013.3027737528E-01+
*       1.6938836072E+00               0
GRID*              15936               06.8750149376E-013.9989593697E-01+
*       1.6665599230E+00               0
GRID*              15937               06.8750000851E-014.6726862627E-01+
*       1.6341153424E+00               0
GRID*              15938               06.2500039964E-013.6534209981E-01+
*       1.6808732140E+00               0
GRID*              15939               05.6249817204E-013.9988673998E-01+
*       1.6665640702E+00               0
GRID*              15940               05.6250005081E-014.6726873627E-01+
*       1.6341152760E+00               0
GRID*              15941               06.8750160386E-015.3203600608E-01+
*       1.5967212614E+00               0
GRID*              15942               06.8750078862E-015.9382186175E-01+
*       1.5545960474E+00               0
GRID*              15943               06.2500227199E-015.0000565932E-01+
*       1.6160214369E+00               0
GRID*              15944               05.6249873138E-015.3202853777E-01+
*       1.5967257722E+00               0
GRID*              15945               05.6249970720E-015.9381927513E-01+
*       1.5545980723E+00               0
GRID*              15946               06.8749924834E-016.5228557841E-01+
*       1.5079730637E+00               0
GRID*              15947               06.8750182550E-017.0711030433E-01+
*       1.4571024650E+00               0
GRID*              15948               06.2499827541E-016.2348536313E-01+
*       1.5318342977E+00               0
GRID*              15949               05.6249980662E-016.5228691345E-01+
*       1.5079720186E+00               0
GRID*              15950               05.6249817450E-017.0710246570E-01+
*       1.4571103112E+00               0
GRID*              15951               06.8750019338E-017.5797198604E-01+
*       1.4022868790E+00               0
GRID*              15952               06.8750029278E-018.0459809370E-01+
*       1.3438192810E+00               0
GRID*              15953               06.2499872649E-017.3304898085E-01+
*       1.4301753025E+00               0
GRID*              15954               05.6250075167E-017.5797303261E-01+
*       1.4022855451E+00               0
GRID*              15955               05.6249921138E-018.0459606601E-01+
*       1.3438218654E+00               0
GRID*              15956               06.8750126862E-018.4672579299E-01+
*       1.2820285502E+00               0
GRID*              15957               06.8749994919E-018.8411528600E-01+
*       1.2172687409E+00               0
GRID*              15958               06.2500010967E-018.2623895302E-01+
*       1.3133197850E+00               0
GRID*              15959               05.6249839614E-018.4672128441E-01+
*       1.2820360198E+00               0
GRID*              15960               05.6249999149E-018.8411535241E-01+
*       1.2172686309E+00               0
GRID*              15961               06.8750182796E-019.1656406614E-01+
*       1.1498867397E+00               0
GRID*              15962               06.8750056182E-019.4388360918E-01+
*       1.0802773722E+00               0
GRID*              15963               06.2500208484E-019.0097110936E-01+
*       1.1838778106E+00               0
GRID*              15964               05.6249850624E-019.1655992199E-01+
*       1.1498959381E+00               0
GRID*              15965               05.6250068199E-019.4388371790E-01+
*       1.0802770235E+00               0
GRID*              15966               06.8749911897E-019.6511602546E-01+
*       1.0118214744E+00               0
GRID*              15967               06.8750158740E-019.8198444491E-01+
*       9.3895877678E-01               0
GRID*              15968               06.2500006614E-019.5465192047E-01+
*       1.0477224244E+00               0
GRID*              15969               05.6249953496E-019.6511640147E-01+
*       1.0118202684E+00               0
GRID*              15970               05.6249812875E-019.8198255576E-01+
*       9.3896911127E-01               0
GRID*              15971               06.8750000048E-019.9279038749E-01+
*       8.6986334947E-01               0
GRID*              15972               06.2499773425E-019.8712037691E-01+
*       9.0997565813E-01               0
GRID*              15973               06.8750171337E-019.9897157787E-01+
*       7.9533163718E-01               0
GRID*              15974               06.2499778324E-019.9897085547E-01+
*       7.9534355274E-01               0
GRID*              15975               05.6250000304E-019.9279038796E-01+
*       8.6986334171E-01               0
GRID*              15976               05.6249864270E-019.9897101346E-01+
*       7.9534094673E-01               0
GRID*              15977               07.5000000000E-01-1.654020083E-02+
*       1.3703050332E-01               0
GRID*              15978               07.5000000000E-012.7017253520E-02+
*       2.6441875666E-01               0
GRID*              15979               07.5000000000E-01-1.268078495E-01+
*       1.2114640334E+00               0
GRID*              15980               07.5000000000E-01-2.128908516E-01+
*       1.3077179431E+00               0
GRID*              15981               07.5000000000E-01-3.074035944E-01+
*       1.4123747915E+00               0
GRID*              15982               07.5000000000E-01-4.048742653E-01+
*       1.5174890807E+00               0
GRID*              15983               07.5000000000E-01-4.504228742E-01+
*       5.6619342153E-01               0
GRID*              15984               07.5000000000E-01-5.410299171E-01+
*       4.5884904301E-01               0
GRID*              15985               07.5000000000E-01-6.229050485E-01+
*       3.4762081725E-01               0
GRID*              15986               07.5000000000E-01-6.983916802E-01+
*       2.3732303487E-01               0
GRID*              15987               07.5000000000E-01-7.676758231E-01+
*       1.1607938125E-01               0
GRID*              15988               07.5000000000E-01-2.179661691E-01+
*       2.8926411116E-01               0
GRID*              15989               07.5000000000E-01-3.009418629E-01+
*       1.5057640180E-01               0
GRID*              15990               07.5000000000E-01-1.562069242E-01+
*       1.4161333462E-01               0
GRID*              15991               07.5000000000E-01-9.598269851E-02+
*       2.6886668801E-01               0
GRID*              15992               07.5000000000E-01-4.945007684E-01+
*       3.2832912214E-01               0
GRID*              15993               07.5000000000E-01-3.552907830E-01+
*       3.0621881962E-01               0
GRID*              15994               07.5000000000E-01-4.014841687E-01+
*       4.4473889480E-01               0
GRID*              15995               07.5000000000E-01-4.680362947E-01+
*       1.6450692756E-01               0
GRID*              15996               07.5000000000E-01-6.254482545E-01+
*       1.2668806820E-01               0
GRID*              15997               07.5000000000E-01-5.834551083E-01+
*       2.4195035413E-01               0
GRID*              15998               07.5000000000E-01-8.479692529E-01+
*       9.2971858863E-01               0
GRID*              15999               07.5000000000E-01-7.120535660E-01+
*       9.4299298032E-01               0
GRID*              16000               07.5000000000E-01-5.713968489E-01+
*       9.5066252584E-01               0
GRID*              16001               07.5000000000E-01-4.371114538E-01+
*       9.6323505376E-01               0
GRID*              16002               07.5000000000E-01-8.048521767E-01+
*       1.0597697450E+00               0
GRID*              16003               07.5000000000E-01-2.425949480E-01+
*       1.1696605155E+00               0
GRID*              16004               07.5000000000E-01-3.707467165E-01+
*       1.1002178654E+00               0
GRID*              16005               07.5000000000E-01-5.240024733E-01+
*       1.0851387580E+00               0
GRID*              16006               07.5000000000E-01-6.638529942E-01+
*       1.0709257348E+00               0
GRID*              16007               07.5000000000E-01-4.443563104E-01+
*       1.3693883256E+00               0
GRID*              16008               07.5000000000E-01-4.815969968E-01+
*       1.2253706624E+00               0
GRID*              16009               07.5000000000E-01-3.429645595E-01+
*       1.2646211841E+00               0
GRID*              16010               07.5000000000E-01-7.524104397E-01+
*       1.1860726996E+00               0
GRID*              16011               07.5000000000E-01-6.188320025E-01+
*       1.1981375337E+00               0
GRID*              16012               07.5000000000E-01-7.030273340E-01+
*       1.2898633426E+00               0
GRID*              16013               07.5000000000E-01-5.857112060E-01+
*       1.3286220797E+00               0
GRID*              16014               07.5000000000E-01-5.442603857E-01+
*       1.4644777932E+00               0
GRID*              16015               07.5000000000E-01-8.838771500E-01+
*       5.2097474105E-01               0
GRID*              16016               07.5000000000E-01-7.661875447E-01+
*       5.7076022066E-01               0
GRID*              16017               07.5000000000E-01-6.132655361E-01+
*       6.1010015911E-01               0
GRID*              16018               07.5000000000E-01-4.821535721E-01+
*       7.0048583087E-01               0
GRID*              16019               07.5000000000E-01-8.785622256E-01+
*       6.5835409605E-01               0
GRID*              16020               07.5000000000E-01-4.750529204E-01+
*       8.3653608620E-01               0
GRID*              16021               07.5000000000E-01-6.238946018E-01+
*       7.9916317533E-01               0
GRID*              16022               07.5000000000E-01-7.541126889E-01+
*       7.1249411613E-01               0
GRID*              16023               07.5000000000E-01-8.716737010E-01+
*       7.9754577665E-01               0
GRID*              16024               07.5000000000E-01-7.636694933E-01+
*       8.3687797989E-01               0
GRID*              16025               07.5000000000E-01-8.548697878E-01+
*       2.3557871300E-01               0
GRID*              16026               07.5000000000E-01-8.928625106E-01+
*       1.0024280347E-01               0
GRID*              16027               07.5000000000E-01-8.793216690E-01+
*       3.8797059838E-01               0
GRID*              16028               07.5000000000E-01-7.530660858E-01+
*       3.5664534378E-01               0
GRID*              16029               07.5000000000E-01-7.922464005E-01+
*       4.6041782587E-01               0
GRID*              16030               07.5000000000E-01-6.823412036E-01+
*       4.6630245483E-01               0
GRID*              16031               07.5000000000E-018.7087533251E-01+
*       6.5853288098E-01               0
GRID*              16032               07.5000000000E-017.3946451390E-01+
*       7.1667327496E-01               0
GRID*              16033               07.5000000000E-016.0911783162E-01+
*       7.7499626204E-01               0
GRID*              16034               07.5000000000E-014.8264791204E-01+
*       8.2814646639E-01               0
GRID*              16035               07.5000000000E-014.6714173658E-01+
*       1.3861547626E-01               0
GRID*              16036               07.5000000000E-014.1343885746E-01+
*       2.8605401905E-01               0
GRID*              16037               07.5000000000E-013.7274514227E-01+
*       4.2712454977E-01               0
GRID*              16038               07.5000000000E-012.9224732171E-01+
*       1.7063541746E-01               0
GRID*              16039               07.5000000000E-012.7227032379E-01+
*       3.4128863339E-01               0
GRID*              16040               07.5000000000E-011.5281396591E-01+
*       2.8470668125E-01               0
GRID*              16041               07.5000000000E-011.2593157269E-01+
*       1.4339553051E-01               0
GRID*              16042               07.5000000000E-014.8662078220E-01+
*       6.9574898359E-01               0
GRID*              16043               07.5000000000E-016.1419703730E-01+
*       6.3070893354E-01               0
GRID*              16044               07.5000000000E-017.4727352046E-01+
*       5.7015112775E-01               0
GRID*              16045               07.5000000000E-018.7506384549E-01+
*       5.1090333950E-01               0
GRID*              16046               07.5000000000E-015.1471854927E-01+
*       3.8739175122E-01               0
GRID*              16047               07.5000000000E-016.2596169561E-01+
*       4.8241734782E-01               0
GRID*              16048               07.5000000000E-014.7084818562E-01+
*       5.4452121570E-01               0
GRID*              16049               07.5000000000E-016.4573646021E-01+
*       3.4240459429E-01               0
GRID*              16050               07.5000000000E-017.5855178719E-01+
*       2.8561904852E-01               0
GRID*              16051               07.5000000000E-018.7050137095E-01+
*       2.1075297504E-01               0
GRID*              16052               07.5000000000E-018.7641744106E-01+
*       3.6374877568E-01               0
GRID*              16053               07.5000000000E-017.5465346199E-01+
*       4.2564715474E-01               0
GRID*              16054               07.5000000000E-015.5247908771E-01+
*       2.5189853747E-01               0
GRID*              16055               07.5000000000E-016.0871979812E-01+
*       1.2770739535E-01               0
GRID*              16056               07.5000000000E-016.6089190535E-01+
*       2.3042676693E-01               0
GRID*              16057               07.5000000000E-017.3863214573E-01+
*       1.4355449153E-01               0
GRID*              16058               07.5000000000E-012.5055654767E-01+
*       1.1646748109E+00               0
GRID*              16059               07.5000000000E-013.6331336543E-01+
*       1.2304011139E+00               0
GRID*              16060               07.5000000000E-014.8575895996E-01+
*       1.2990174378E+00               0
GRID*              16061               07.5000000000E-016.1167232968E-01+
*       1.3670160526E+00               0
GRID*              16062               07.5000000000E-014.9108682986E-01+
*       1.4528638462E+00               0
GRID*              16063               07.5000000000E-01-2.664303472E-01+
*       1.5624878249E+00               0
GRID*              16064               07.5000000000E-01-1.721261448E-01+
*       1.4464884830E+00               0
GRID*              16065               07.5000000000E-01-1.246932841E-01+
*       1.5919611248E+00               0
GRID*              16066               07.5000000000E-013.6023933993E-01+
*       1.5265970234E+00               0
GRID*              16067               07.5000000000E-013.6455396555E-01+
*       1.3748067895E+00               0
GRID*              16068               07.5000000000E-012.4983709788E-01+
*       1.3009650524E+00               0
GRID*              16069               07.5000000000E-011.2854924083E-01+
*       1.2333334206E+00               0
GRID*              16070               07.5000000000E-01-7.426986283E-03+
*       1.2308166148E+00               0
GRID*              16071               07.5000000000E-014.2081438626E-02+
*       1.3506026021E+00               0
GRID*              16072               07.5000000000E-01-3.560108284E-02+
*       1.4661450451E+00               0
GRID*              16073               07.5000000000E-01-8.530892651E-02+
*       1.3348281751E+00               0
GRID*              16074               07.5000000000E-012.2941526878E-02+
*       1.6028997389E+00               0
GRID*              16075               07.5000000000E-011.5252058157E-01+
*       1.3593353119E+00               0
GRID*              16076               07.5000000000E-011.0269980165E-01+
*       1.4677289757E+00               0
GRID*              16077               07.5000000000E-011.9776350849E-01+
*       1.5961029256E+00               0
GRID*              16078               07.5000000000E-012.3798753755E-01+
*       1.4361495922E+00               0
GRID*              16079               07.5000000000E-018.6285445276E-01+
*       8.0487334200E-01               0
GRID*              16080               07.5000000000E-018.4854979115E-01+
*       9.4429628056E-01               0
GRID*              16081               07.5000000000E-017.3092013536E-01+
*       8.5952219315E-01               0
GRID*              16082               07.5000000000E-014.7723775501E-01+
*       1.1471656412E+00               0
GRID*              16083               07.5000000000E-015.9997558011E-01+
*       1.0654151821E+00               0
GRID*              16084               07.5000000000E-017.2414423151E-01+
*       9.9659357530E-01               0
GRID*              16085               07.5000000000E-016.0587421169E-01+
*       1.2141929339E+00               0
GRID*              16086               07.5000000000E-017.3019381419E-01+
*       1.2739214658E+00               0
GRID*              16087               07.5000000000E-017.3010066989E-01+
*       1.1317927566E+00               0
GRID*              16088               07.5000000000E-018.3124924621E-01+
*       1.0587885148E+00               0
GRID*              16089               07.5000000000E-016.0103289747E-01+
*       9.1706241645E-01               0
GRID*              16090               07.5000000000E-013.5196398183E-01+
*       1.0857156158E+00               0
GRID*              16091               07.5000000000E-014.5656939193E-01+
*       9.7903876503E-01               0
GRID*              16092               07.5000000000E-01-2.658555468E-01+
*       7.5288200902E-02               0
GRID*              16093               07.5000000000E-01-3.427786238E-01+
*       7.5288200902E-02               0
GRID*              16094               07.5000000000E-01-1.165650006E-01+
*       7.0806667309E-02               0
GRID*              16095               07.5000000000E-01-4.673163887E-02+
*       6.8515251658E-02               0
GRID*              16096               07.5000000000E-01-8.637356252E-02+
*       1.3932191897E-01               0
GRID*              16097               07.5000000000E-01-1.934880775E-01+
*       7.0806667309E-02               0
GRID*              16098               07.5000000000E-01-2.285743936E-01+
*       1.4609486821E-01               0
GRID*              16099               07.5000000000E-01-1.870865466E-01+
*       2.1543872289E-01               0
GRID*              16100               07.5000000000E-01-2.594540160E-01+
*       2.1992025648E-01               0
GRID*              16101               07.5000000000E-01-1.353114772E-02+
*       3.1914377005E-01               0
GRID*              16102               07.5000000000E-014.0548395556E-02+
*       3.1914376924E-01               0
GRID*              16103               07.5000000000E-01-5.626144967E-02+
*       2.0294859566E-01               0
GRID*              16104               07.5000000000E-015.2385263467E-03+
*       2.0072462999E-01               0
GRID*              16105               07.5000000000E-01-3.448272249E-02+
*       2.6664272233E-01               0
GRID*              16106               07.5000000000E-01-1.260948114E-01+
*       2.0524001131E-01               0
GRID*              16107               07.5000000000E-01-1.569744338E-01+
*       2.7906539959E-01               0
GRID*              16108               07.5000000000E-01-7.503112373E-02+
*       3.2136773573E-01               0
GRID*              16109               07.5000000000E-01-1.269200850E-01+
*       3.3660349812E-01               0
GRID*              16110               07.5000000000E-01-1.879118203E-01+
*       3.4680220970E-01               0
GRID*              16111               07.5000000000E-01-4.712570429E-01+
*       4.5179396890E-01               0
GRID*              16112               07.5000000000E-01-4.259535215E-01+
*       5.0546615816E-01               0
GRID*              16113               07.5000000000E-01-4.957263957E-01+
*       5.1252123227E-01               0
GRID*              16114               07.5000000000E-01-4.479924686E-01+
*       3.8653400847E-01               0
GRID*              16115               07.5000000000E-01-4.248957757E-01+
*       3.1727397088E-01               0
GRID*              16116               07.5000000000E-01-3.783874759E-01+
*       3.7547885721E-01               0
GRID*              16117               07.5000000000E-01-5.177653428E-01+
*       3.9358908258E-01               0
GRID*              16118               07.5000000000E-01-5.819674828E-01+
*       4.0323493013E-01               0
GRID*              16119               07.5000000000E-01-5.587029085E-01+
*       3.3797496970E-01               0
GRID*              16120               07.5000000000E-01-3.850495463E-01+
*       5.5537499469E-01               0
GRID*              16121               07.5000000000E-01-4.075144154E-01+
*       6.0456773874E-01               0
GRID*              16122               07.5000000000E-01-3.605801935E-01+
*       4.9464773132E-01               0
GRID*              16123               07.5000000000E-01-2.334062254E-01+
*       3.7604012671E-01               0
GRID*              16124               07.5000000000E-01-3.020685324E-01+
*       3.8451748094E-01               0
GRID*              16125               07.5000000000E-01-2.866284761E-01+
*       2.9774146539E-01               0
GRID*              16126               07.5000000000E-01-3.251652252E-01+
*       4.5377751853E-01               0
GRID*              16127               07.5000000000E-01-4.263258396E-01+
*       8.2253463780E-02               0
GRID*              16128               07.5000000000E-01-5.032489166E-01+
*       8.2253463780E-02               0
GRID*              16129               07.5000000000E-01-3.844890788E-01+
*       1.5754166468E-01               0
GRID*              16130               07.5000000000E-01-3.281163230E-01+
*       2.2839761071E-01               0
GRID*              16131               07.5000000000E-01-4.116635388E-01+
*       2.3536287359E-01               0
GRID*              16132               07.5000000000E-01-7.299917577E-01+
*       5.8039690625E-02               0
GRID*              16133               07.5000000000E-01-8.069148346E-01+
*       5.8039690625E-02               0
GRID*              16134               07.5000000000E-01-6.965620388E-01+
*       1.2138372473E-01               0
GRID*              16135               07.5000000000E-01-6.619199674E-01+
*       1.8200555154E-01               0
GRID*              16136               07.5000000000E-01-7.330337516E-01+
*       1.7670120806E-01               0
GRID*              16137               07.5000000000E-01-6.588779734E-01+
*       6.3344034101E-02               0
GRID*              16138               07.5000000000E-01-5.819548965E-01+
*       6.3344034101E-02               0
GRID*              16139               07.5000000000E-01-6.031800784E-01+
*       2.9478558569E-01               0
GRID*              16140               07.5000000000E-01-5.389779384E-01+
*       2.8513973814E-01               0
GRID*              16141               07.5000000000E-01-6.409233942E-01+
*       2.3963669450E-01               0
GRID*              16142               07.5000000000E-01-6.044516814E-01+
*       1.8431921117E-01               0
GRID*              16143               07.5000000000E-01-6.606483643E-01+
*       2.9247192606E-01               0
GRID*              16144               07.5000000000E-01-4.812685316E-01+
*       2.4641802485E-01               0
GRID*              16145               07.5000000000E-01-5.257457015E-01+
*       2.0322864085E-01               0
GRID*              16146               07.5000000000E-01-5.467422746E-01+
*       1.4559749788E-01               0
GRID*              16147               07.5000000000E-01-8.802122405E-01+
*       1.0522623808E+00               0
GRID*              16148               07.5000000000E-01-8.529103438E-01+
*       1.1218266594E+00               0
GRID*              16149               07.5000000000E-01-8.264107148E-01+
*       9.9474416679E-01               0
GRID*              16150               07.5000000000E-01-7.800114094E-01+
*       9.3635578448E-01               0
GRID*              16151               07.5000000000E-01-7.584528714E-01+
*       1.0013813626E+00               0
GRID*              16152               07.5000000000E-01-9.017707786E-01+
*       9.8723680269E-01               0
GRID*              16153               07.5000000000E-01-9.183998935E-01+
*       9.1438040192E-01               0
GRID*              16154               07.5000000000E-01-6.879532801E-01+
*       1.0069593576E+00               0
GRID*              16155               07.5000000000E-01-7.343525855E-01+
*       1.0653477399E+00               0
GRID*              16156               07.5000000000E-01-6.417252075E-01+
*       9.4682775308E-01               0
GRID*              16157               07.5000000000E-01-6.176249216E-01+
*       1.0107941303E+00               0
GRID*              16158               07.5000000000E-01-1.423326528E-01+
*       1.1535618663E+00               0
GRID*              16159               07.5000000000E-01-9.044369472E-02+
*       1.1687976377E+00               0
GRID*              16160               07.5000000000E-01-2.002262020E-01+
*       1.1326601074E+00               0
GRID*              16161               07.5000000000E-01-1.847013988E-01+
*       1.1905622744E+00               0
GRID*              16162               07.5000000000E-01-5.476996611E-01+
*       1.0179006419E+00               0
GRID*              16163               07.5000000000E-01-5.939277338E-01+
*       1.0780322464E+00               0
GRID*              16164               07.5000000000E-01-4.805569636E-01+
*       1.0241869059E+00               0
GRID*              16165               07.5000000000E-01-4.039290852E-01+
*       1.0317264596E+00               0
GRID*              16166               07.5000000000E-01-4.473745949E-01+
*       1.0926783117E+00               0
GRID*              16167               07.5000000000E-01-5.042541514E-01+
*       9.5694878980E-01               0
GRID*              16168               07.5000000000E-01-2.457206143E-01+
*       1.1034222020E+00               0
GRID*              16169               07.5000000000E-01-3.066708322E-01+
*       1.1349391904E+00               0
GRID*              16170               07.5000000000E-01-3.097964985E-01+
*       1.0687008769E+00               0
GRID*              16171               07.5000000000E-01-3.452114573E-01+
*       1.0278306562E+00               0
GRID*              16172               07.5000000000E-01-3.783938260E-01+
*       9.5933925038E-01               0
GRID*              16173               07.5000000000E-01-3.758799524E-01+
*       1.3908815586E+00               0
GRID*              16174               07.5000000000E-01-3.561389298E-01+
*       1.4649319361E+00               0
GRID*              16175               07.5000000000E-01-4.246152878E-01+
*       1.4434387031E+00               0
GRID*              16176               07.5000000000E-01-3.251840769E-01+
*       1.3384979878E+00               0
GRID*              16177               07.5000000000E-01-2.779277055E-01+
*       1.2861695636E+00               0
GRID*              16178               07.5000000000E-01-2.601472230E-01+
*       1.3600463673E+00               0
GRID*              16179               07.5000000000E-01-3.936604349E-01+
*       1.3170047548E+00               0
GRID*              16180               07.5000000000E-01-4.629766536E-01+
*       1.2973794940E+00               0
GRID*              16181               07.5000000000E-01-4.122807781E-01+
*       1.2449959232E+00               0
GRID*              16182               07.5000000000E-01-2.277428998E-01+
*       1.2386892293E+00               0
GRID*              16183               07.5000000000E-01-1.698493506E-01+
*       1.2595909882E+00               0
GRID*              16184               07.5000000000E-01-4.261718567E-01+
*       1.1627942639E+00               0
GRID*              16185               07.5000000000E-01-3.568556380E-01+
*       1.1824195247E+00               0
GRID*              16186               07.5000000000E-01-5.027997351E-01+
*       1.1552547102E+00               0
GRID*              16187               07.5000000000E-01-2.927797537E-01+
*       1.2171408498E+00               0
GRID*              16188               07.5000000000E-01-8.266894753E-01+
*       1.1849781368E+00               0
GRID*              16189               07.5000000000E-01-7.893246121E-01+
*       1.2496963825E+00               0
GRID*              16190               07.5000000000E-01-7.786313082E-01+
*       1.1229212223E+00               0
GRID*              16191               07.5000000000E-01-7.081317169E-01+
*       1.1284992172E+00               0
GRID*              16192               07.5000000000E-01-5.714172379E-01+
*       1.1416381458E+00               0
GRID*              16193               07.5000000000E-01-5.502144997E-01+
*       1.2117540980E+00               0
GRID*              16194               07.5000000000E-01-6.413424983E-01+
*       1.1345316342E+00               0
GRID*              16195               07.5000000000E-01-6.856212211E-01+
*       1.1921051166E+00               0
GRID*              16196               07.5000000000E-01-7.277188869E-01+
*       1.2379680211E+00               0
GRID*              16197               07.5000000000E-01-6.609296682E-01+
*       1.2440004381E+00               0
GRID*              16198               07.5000000000E-01-7.646330592E-01+
*       1.3015917040E+00               0
GRID*              16199               07.5000000000E-01-7.180395204E-01+
*       1.3600179584E+00               0
GRID*              16200               07.5000000000E-01-6.022716042E-01+
*       1.2633798067E+00               0
GRID*              16201               07.5000000000E-01-6.443692700E-01+
*       1.3092427111E+00               0
GRID*              16202               07.5000000000E-01-5.336541014E-01+
*       1.2769963710E+00               0
GRID*              16203               07.5000000000E-01-5.150337582E-01+
*       1.3490052026E+00               0
GRID*              16204               07.5000000000E-01-4.745673255E-01+
*       1.4909834369E+00               0
GRID*              16205               07.5000000000E-01-4.943083480E-01+
*       1.4169330594E+00               0
GRID*              16206               07.5000000000E-01-5.221300717E-01+
*       1.5402513952E+00               0
GRID*              16207               07.5000000000E-01-5.838749360E-01+
*       1.4981544351E+00               0
GRID*              16208               07.5000000000E-01-4.524370115E-01+
*       1.5667570390E+00               0
GRID*              16209               07.5000000000E-01-5.649857958E-01+
*       1.3965499364E+00               0
GRID*              16210               07.5000000000E-01-6.386560462E-01+
*       1.4473251837E+00               0
GRID*              16211               07.5000000000E-01-6.593814564E-01+
*       1.3793973269E+00               0
GRID*              16212               07.5000000000E-01-9.392811128E-01+
*       6.2917704803E-01               0
GRID*              16213               07.5000000000E-01-9.392811128E-01+
*       7.0417704803E-01               0
GRID*              16214               07.5000000000E-01-9.419385750E-01+
*       5.6048737052E-01               0
GRID*              16215               07.5000000000E-01-9.419385750E-01+
*       4.8548737052E-01               0
GRID*              16216               07.5000000000E-01-8.812196878E-01+
*       5.8966441855E-01               0
GRID*              16217               07.5000000000E-01-8.250323473E-01+
*       5.4586748085E-01               0
GRID*              16218               07.5000000000E-01-8.223748852E-01+
*       6.1455715835E-01               0
GRID*              16219               07.5000000000E-01-4.008587022E-01+
*       9.1014651002E-01               0
GRID*              16220               07.5000000000E-01-4.275264578E-01+
*       7.9326804884E-01               0
GRID*              16221               07.5000000000E-01-4.786032463E-01+
*       7.6851095854E-01               0
GRID*              16222               07.5000000000E-01-4.310767837E-01+
*       7.2524292117E-01               0
GRID*              16223               07.5000000000E-01-4.198294355E-01+
*       8.4679702624E-01               0
GRID*              16224               07.5000000000E-01-5.530240869E-01+
*       7.4982450310E-01               0
GRID*              16225               07.5000000000E-01-6.185800689E-01+
*       7.0463166722E-01               0
GRID*              16226               07.5000000000E-01-5.477095541E-01+
*       6.5529299499E-01               0
GRID*              16227               07.5000000000E-01-5.494737611E-01+
*       8.1784963077E-01               0
GRID*              16228               07.5000000000E-01-7.601501168E-01+
*       6.4162716839E-01               0
GRID*              16229               07.5000000000E-01-8.163374573E-01+
*       6.8542410609E-01               0
GRID*              16230               07.5000000000E-01-6.836891125E-01+
*       6.6129713762E-01               0
GRID*              16231               07.5000000000E-01-6.890036453E-01+
*       7.5582864573E-01               0
GRID*              16232               07.5000000000E-01-6.897265404E-01+
*       5.9043018989E-01               0
GRID*              16233               07.5000000000E-01-4.560821871E-01+
*       8.9988556998E-01               0
GRID*              16234               07.5000000000E-01-5.232248847E-01+
*       8.9359930602E-01               0
GRID*              16235               07.5000000000E-01-5.976457253E-01+
*       8.7491285058E-01               0
GRID*              16236               07.5000000000E-01-6.679740839E-01+
*       8.7107807783E-01               0
GRID*              16237               07.5000000000E-01-9.358368505E-01+
*       7.7377288833E-01               0
GRID*              16238               07.5000000000E-01-8.751179633E-01+
*       7.2794993635E-01               0
GRID*              16239               07.5000000000E-01-9.302521176E-01+
*       8.4829399592E-01               0
GRID*              16240               07.5000000000E-01-8.598214769E-01+
*       8.6363218264E-01               0
GRID*              16241               07.5000000000E-01-8.128931950E-01+
*       7.5501994639E-01               0
GRID*              16242               07.5000000000E-01-7.378615296E-01+
*       8.8993548011E-01               0
GRID*              16243               07.5000000000E-01-6.937820475E-01+
*       8.1802057761E-01               0
GRID*              16244               07.5000000000E-01-7.588910911E-01+
*       7.7468604801E-01               0
GRID*              16245               07.5000000000E-01-8.058193731E-01+
*       8.8329828426E-01               0
GRID*              16246               07.5000000000E-01-8.176715971E-01+
*       8.1721187827E-01               0
GRID*              16247               07.5000000000E-01-8.112728055E-01+
*       1.7582904713E-01               0
GRID*              16248               07.5000000000E-01-7.766307340E-01+
*       2.3645087394E-01               0
GRID*              16249               07.5000000000E-01-8.695081784E-01+
*       5.0121401736E-02               0
GRID*              16250               07.5000000000E-01-8.302691669E-01+
*       1.0816109236E-01               0
GRID*              16251               07.5000000000E-01-9.464312553E-01+
*       5.0121401736E-02               0
GRID*              16252               07.5000000000E-01-9.464312553E-01+
*       1.2512140174E-01               0
GRID*              16253               07.5000000000E-01-8.738661492E-01+
*       1.6791075824E-01               0
GRID*              16254               07.5000000000E-01-9.274348939E-01+
*       1.9278935650E-01               0
GRID*              16255               07.5000000000E-01-9.274348939E-01+
*       2.6778935650E-01               0
GRID*              16256               07.5000000000E-01-9.396608345E-01+
*       4.1898529919E-01               0
GRID*              16257               07.5000000000E-01-8.815994095E-01+
*       4.5447266971E-01               0
GRID*              16258               07.5000000000E-01-9.396608345E-01+
*       3.4398529919E-01               0
GRID*              16259               07.5000000000E-01-8.670957284E-01+
*       3.1177465569E-01               0
GRID*              16260               07.5000000000E-01-7.257288830E-01+
*       2.9698418932E-01               0
GRID*              16261               07.5000000000E-01-6.879855672E-01+
*       3.5213308051E-01               0
GRID*              16262               07.5000000000E-01-8.039679368E-01+
*       2.9611202839E-01               0
GRID*              16263               07.5000000000E-01-8.161938774E-01+
*       3.7230797108E-01               0
GRID*              16264               07.5000000000E-01-8.357840347E-01+
*       4.2419421212E-01               0
GRID*              16265               07.5000000000E-01-7.726562431E-01+
*       4.0853158482E-01               0
GRID*              16266               07.5000000000E-01-8.380617752E-01+
*       4.9069628346E-01               0
GRID*              16267               07.5000000000E-01-7.792169726E-01+
*       5.1558902326E-01               0
GRID*              16268               07.5000000000E-01-6.526231261E-01+
*       4.0696163604E-01               0
GRID*              16269               07.5000000000E-01-6.116855604E-01+
*       4.6257574892E-01               0
GRID*              16270               07.5000000000E-01-7.177036447E-01+
*       4.1147389930E-01               0
GRID*              16271               07.5000000000E-01-7.372938020E-01+
*       4.6336014035E-01               0
GRID*              16272               07.5000000000E-01-4.233797644E-01+
*       6.7171394340E-01               0
GRID*              16273               07.5000000000E-01-7.242643742E-01+
*       5.1853133774E-01               0
GRID*              16274               07.5000000000E-01-6.478033699E-01+
*       5.3820130697E-01               0
GRID*              16275               07.5000000000E-01-4.662882232E-01+
*       6.3333962620E-01               0
GRID*              16276               07.5000000000E-01-5.318442052E-01+
*       5.8814679032E-01               0
GRID*              16277               07.5000000000E-01-5.771477266E-01+
*       5.3447460106E-01               0
GRID*              16278               07.5000000000E-014.2587856060E-01+
*       6.9307738130E-02               0
GRID*              16279               07.5000000000E-015.0280163752E-01+
*       6.9307738130E-02               0
GRID*              16280               07.5000000000E-013.7969452915E-01+
*       1.5462544686E-01               0
GRID*              16281               07.5000000000E-014.4029029702E-01+
*       2.1233474765E-01               0
GRID*              16282               07.5000000000E-013.5284308958E-01+
*       2.2834471825E-01               0
GRID*              16283               07.5000000000E-013.3843135316E-01+
*       8.5317708730E-02               0
GRID*              16284               07.5000000000E-012.6150827624E-01+
*       8.5317708730E-02               0
GRID*              16285               07.5000000000E-011.7835040173E-01+
*       7.1697765257E-02               0
GRID*              16286               07.5000000000E-011.0142732481E-01+
*       7.1697765257E-02               0
GRID*              16287               07.5000000000E-013.4285459062E-01+
*       3.1367132622E-01               0
GRID*              16288               07.5000000000E-013.9309199986E-01+
*       3.5658928441E-01               0
GRID*              16289               07.5000000000E-013.2250773303E-01+
*       3.8420659158E-01               0
GRID*              16290               07.5000000000E-012.0908944720E-01+
*       1.5701547399E-01               0
GRID*              16291               07.5000000000E-012.2253064381E-01+
*       2.2767104936E-01               0
GRID*              16292               07.5000000000E-011.3937276930E-01+
*       2.1405110588E-01               0
GRID*              16293               07.5000000000E-012.8225882275E-01+
*       2.5596202542E-01               0
GRID*              16294               07.5000000000E-012.1254214485E-01+
*       3.1299765732E-01               0
GRID*              16295               07.5000000000E-013.0191438048E-02+
*       6.8515251658E-02               0
GRID*              16296               07.5000000000E-013.1079570767E-01+
*       4.4497034225E-01               0
GRID*              16297               07.5000000000E-012.6055829843E-01+
*       4.0205238406E-01               0
GRID*              16298               07.5000000000E-013.4621067721E-01+
*       4.8584055398E-01               0
GRID*              16299               07.5000000000E-015.4695685930E-02+
*       1.4021301692E-01               0
GRID*              16300               07.5000000000E-017.6474413103E-02+
*       2.0390714359E-01               0
GRID*              16301               07.5000000000E-012.1506389242E-01+
*       3.7281446843E-01               0
GRID*              16302               07.5000000000E-011.5533571348E-01+
*       3.4452349236E-01               0
GRID*              16303               07.5000000000E-018.9915609716E-02+
*       2.7456271896E-01               0
GRID*              16304               07.5000000000E-011.0344675175E-01+
*       3.2928773153E-01               0
GRID*              16305               07.5000000000E-014.3132395364E-01+
*       7.8907323319E-01               0
GRID*              16306               07.5000000000E-014.2362693294E-01+
*       8.4260221082E-01               0
GRID*              16307               07.5000000000E-014.3331038872E-01+
*       7.2287449179E-01               0
GRID*              16308               07.5000000000E-014.8463434712E-01+
*       7.6194772499E-01               0
GRID*              16309               07.5000000000E-015.4786930691E-01+
*       7.3537262281E-01               0
GRID*              16310               07.5000000000E-015.5040890975E-01+
*       6.6322895856E-01               0
GRID*              16311               07.5000000000E-016.1165743446E-01+
*       7.0285259779E-01               0
GRID*              16312               07.5000000000E-015.4588287183E-01+
*       8.0157136421E-01               0
GRID*              16313               07.5000000000E-016.7683077560E-01+
*       6.7369110425E-01               0
GRID*              16314               07.5000000000E-016.7429117276E-01+
*       7.4583476850E-01               0
GRID*              16315               07.5000000000E-016.8073527888E-01+
*       6.0043003064E-01               0
GRID*              16316               07.5000000000E-017.4336901718E-01+
*       6.4341220136E-01               0
GRID*              16317               07.5000000000E-019.3753192274E-01+
*       5.5545166975E-01               0
GRID*              16318               07.5000000000E-019.3753192274E-01+
*       4.8045166975E-01               0
GRID*              16319               07.5000000000E-018.7296958900E-01+
*       5.8471811024E-01               0
GRID*              16320               07.5000000000E-019.3543766625E-01+
*       6.2926644049E-01               0
GRID*              16321               07.5000000000E-018.0907442648E-01+
*       6.1434200436E-01               0
GRID*              16322               07.5000000000E-018.0516992320E-01+
*       6.8760307797E-01               0
GRID*              16323               07.5000000000E-018.1116868297E-01+
*       5.4052723362E-01               0
GRID*              16324               07.5000000000E-016.2007936646E-01+
*       5.5656314068E-01               0
GRID*              16325               07.5000000000E-016.8661760804E-01+
*       5.2628423779E-01               0
GRID*              16326               07.5000000000E-015.4252261146E-01+
*       5.8761507462E-01               0
GRID*              16327               07.5000000000E-014.7873448391E-01+
*       6.2013509964E-01               0
GRID*              16328               07.5000000000E-015.4840494061E-01+
*       5.1346928176E-01               0
GRID*              16329               07.5000000000E-014.9278336745E-01+
*       4.6595648346E-01               0
GRID*              16330               07.5000000000E-015.7034012244E-01+
*       4.3490454952E-01               0
GRID*              16331               07.5000000000E-014.4373184577E-01+
*       4.0725815049E-01               0
GRID*              16332               07.5000000000E-014.6407870337E-01+
*       3.3672288513E-01               0
GRID*              16333               07.5000000000E-014.2179666394E-01+
*       4.8582288273E-01               0
GRID*              16334               07.5000000000E-014.2561336780E-01+
*       6.6934551426E-01               0
GRID*              16335               07.5000000000E-014.1772706951E-01+
*       5.9373163031E-01               0
GRID*              16336               07.5000000000E-013.9526219888E-01+
*       5.4453888694E-01               0
GRID*              16337               07.5000000000E-019.3525068548E-01+
*       2.5537648752E-01               0
GRID*              16338               07.5000000000E-019.3820872053E-01+
*       3.3187438784E-01               0
GRID*              16339               07.5000000000E-018.7345940600E-01+
*       2.8725087536E-01               0
GRID*              16340               07.5000000000E-019.3525068548E-01+
*       1.8037648752E-01               0
GRID*              16341               07.5000000000E-019.3820872053E-01+
*       4.0687438784E-01               0
GRID*              16342               07.5000000000E-018.7574064327E-01+
*       4.3732605759E-01               0
GRID*              16343               07.5000000000E-017.5096349123E-01+
*       4.9789914125E-01               0
GRID*              16344               07.5000000000E-016.9030757880E-01+
*       4.5403225128E-01               0
GRID*              16345               07.5000000000E-018.1485865374E-01+
*       4.6827524712E-01               0
GRID*              16346               07.5000000000E-018.1553545153E-01+
*       3.9469796521E-01               0
GRID*              16347               07.5000000000E-018.1748461413E-01+
*       3.2468391210E-01               0
GRID*              16348               07.5000000000E-018.1452657907E-01+
*       2.4818601178E-01               0
GRID*              16349               07.5000000000E-017.5660262459E-01+
*       3.5563310163E-01               0
GRID*              16350               07.5000000000E-016.3584907791E-01+
*       4.1241097105E-01               0
GRID*              16351               07.5000000000E-015.8022750474E-01+
*       3.6489817275E-01               0
GRID*              16352               07.5000000000E-017.0019496110E-01+
*       3.8402587451E-01               0
GRID*              16353               07.5000000000E-017.0214412370E-01+
*       3.1401182140E-01               0
GRID*              16354               07.5000000000E-015.3359881849E-01+
*       3.1964514434E-01               0
GRID*              16355               07.5000000000E-015.9910777396E-01+
*       2.9715156588E-01               0
GRID*              16356               07.5000000000E-014.8295897258E-01+
*       2.6897627826E-01               0
GRID*              16357               07.5000000000E-015.0981041214E-01+
*       1.9525700686E-01               0
GRID*              16358               07.5000000000E-015.7359066829E-01+
*       6.3853697677E-02               0
GRID*              16359               07.5000000000E-016.5051374521E-01+
*       6.3853697677E-02               0
GRID*              16360               07.5000000000E-015.3793076735E-01+
*       1.3316143581E-01               0
GRID*              16361               07.5000000000E-015.8059944291E-01+
*       1.8980296641E-01               0
GRID*              16362               07.5000000000E-016.5331418278E-01+
*       2.8641568061E-01               0
GRID*              16363               07.5000000000E-017.0972184627E-01+
*       2.5802290772E-01               0
GRID*              16364               07.5000000000E-016.0668549653E-01+
*       2.4116265220E-01               0
GRID*              16365               07.5000000000E-016.3480585173E-01+
*       1.7906708114E-01               0
GRID*              16366               07.5000000000E-017.1546991902E-01+
*       7.1777245766E-02               0
GRID*              16367               07.5000000000E-017.9239299594E-01+
*       7.1777245766E-02               0
GRID*              16368               07.5000000000E-016.7367597193E-01+
*       1.3563094344E-01               0
GRID*              16369               07.5000000000E-016.9976202554E-01+
*       1.8699062923E-01               0
GRID*              16370               07.5000000000E-017.4859196646E-01+
*       2.1458677003E-01               0
GRID*              16371               07.5000000000E-018.0456675834E-01+
*       1.7715373329E-01               0
GRID*              16372               07.5000000000E-018.5832760855E-01+
*       1.0537648752E-01               0
GRID*              16373               07.5000000000E-015.5728815804E-01+
*       1.4923474616E+00               0
GRID*              16374               07.5000000000E-014.9554329377E-01+
*       1.5344444217E+00               0
GRID*              16375               07.5000000000E-016.1758090795E-01+
*       1.4494235648E+00               0
GRID*              16376               07.5000000000E-016.7236201822E-01+
*       1.3985943134E+00               0
GRID*              16377               07.5000000000E-015.5137957977E-01+
*       1.4099399494E+00               0
GRID*              16378               07.5000000000E-014.8842289491E-01+
*       1.3759406420E+00               0
GRID*              16379               07.5000000000E-015.4871564482E-01+
*       1.3330167452E+00               0
GRID*              16380               07.5000000000E-01-3.158856753E-01+
*       1.6216807674E+00               0
GRID*              16381               07.5000000000E-01-2.444756228E-01+
*       1.6437077871E+00               0
GRID*              16382               07.5000000000E-01-3.851076344E-01+
*       1.5991813953E+00               0
GRID*              16383               07.5000000000E-01-3.356523062E-01+
*       1.5399884528E+00               0
GRID*              16384               07.5000000000E-01-2.869169708E-01+
*       1.4874313082E+00               0
GRID*              16385               07.5000000000E-01-1.736070912E-01+
*       1.6584444371E+00               0
GRID*              16386               07.5000000000E-01-9.971167466E-02+
*       1.6695822320E+00               0
GRID*              16387               07.5000000000E-01-1.955618156E-01+
*       1.5772244749E+00               0
GRID*              16388               07.5000000000E-01-2.192782460E-01+
*       1.5044881539E+00               0
GRID*              16389               07.5000000000E-01-1.484097144E-01+
*       1.5192248039E+00               0
GRID*              16390               07.5000000000E-01-2.397648696E-01+
*       1.4294316373E+00               0
GRID*              16391               07.5000000000E-01-1.925084982E-01+
*       1.3771032130E+00               0
GRID*              16392               07.5000000000E-014.3011954881E-01+
*       1.5713110103E+00               0
GRID*              16393               07.5000000000E-014.2566308489E-01+
*       1.4897304348E+00               0
GRID*              16394               07.5000000000E-013.6279017166E-01+
*       1.6037353667E+00               0
GRID*              16395               07.5000000000E-014.2782039770E-01+
*       1.4138353179E+00               0
GRID*              16396               07.5000000000E-013.6239665274E-01+
*       1.4507019065E+00               0
GRID*              16397               07.5000000000E-014.2515646276E-01+
*       1.3369121136E+00               0
GRID*              16398               07.5000000000E-013.6393366549E-01+
*       1.3026039517E+00               0
GRID*              16399               07.5000000000E-014.2453616270E-01+
*       1.2647092758E+00               0
GRID*              16400               07.5000000000E-01-3.075326310E-02+
*       1.1784739284E+00               0
GRID*              16401               07.5000000000E-01-6.711741790E-02+
*       1.2211403241E+00               0
GRID*              16402               07.5000000000E-013.0657523166E-01+
*       1.2656830831E+00               0
GRID*              16403               07.5000000000E-013.0719553172E-01+
*       1.3378859209E+00               0
GRID*              16404               07.5000000000E-012.5019682278E-01+
*       1.2328199316E+00               0
GRID*              16405               07.5000000000E-011.8919316936E-01+
*       1.2671492365E+00               0
GRID*              16406               07.5000000000E-011.8955289425E-01+
*       1.1990041157E+00               0
GRID*              16407               07.5000000000E-013.0693495655E-01+
*       1.1975379624E+00               0
GRID*              16408               07.5000000000E-012.3326282502E-02+
*       1.1784739276E+00               0
GRID*              16409               07.5000000000E-019.1314396061E-02+
*       1.1797323305E+00               0
GRID*              16410               07.5000000000E-016.0561127276E-02+
*       1.2320750177E+00               0
GRID*              16411               07.5000000000E-011.4320335364E-01+
*       1.1644965575E+00               0
GRID*              16412               07.5000000000E-012.0420700706E-01+
*       1.1301672527E+00               0
GRID*              16413               07.5000000000E-011.7327226172E-02+
*       1.2907096085E+00               0
GRID*              16414               07.5000000000E-018.5315339730E-02+
*       1.2919680113E+00               0
GRID*              16415               07.5000000000E-01-1.060583880E-01+
*       1.2731461042E+00               0
GRID*              16416               07.5000000000E-01-4.636795640E-02+
*       1.2828223950E+00               0
GRID*              16417               07.5000000000E-01-1.490998890E-01+
*       1.3212730591E+00               0
GRID*              16418               07.5000000000E-01-1.287175356E-01+
*       1.3906583291E+00               0
GRID*              16419               07.5000000000E-01-1.038636138E-01+
*       1.4563167640E+00               0
GRID*              16420               07.5000000000E-01-8.014718346E-02+
*       1.5290530850E+00               0
GRID*              16421               07.5000000000E-01-6.045500468E-02+
*       1.4004866101E+00               0
GRID*              16422               07.5000000000E-01-2.161374394E-02+
*       1.3427153886E+00               0
GRID*              16423               07.5000000000E-013.2401778909E-03+
*       1.4083738236E+00               0
GRID*              16424               07.5000000000E-01-5.087587860E-02+
*       1.5974304319E+00               0
GRID*              16425               07.5000000000E-01-6.329777983E-03+
*       1.5345223920E+00               0
GRID*              16426               07.5000000000E-01-2.589426918E-02+
*       1.6750515390E+00               0
GRID*              16427               07.5000000000E-014.8835796061E-02+
*       1.6750515390E+00               0
GRID*              16428               07.5000000000E-013.3549359403E-02+
*       1.4669370104E+00               0
GRID*              16429               07.5000000000E-016.2820664264E-02+
*       1.5353143573E+00               0
GRID*              16430               07.5000000000E-017.2390620138E-02+
*       1.4091657889E+00               0
GRID*              16431               07.5000000000E-011.4053491120E-01+
*       1.2963343662E+00               0
GRID*              16432               07.5000000000E-012.0117883973E-01+
*       1.3301501821E+00               0
GRID*              16433               07.5000000000E-019.7301010100E-02+
*       1.3549689570E+00               0
GRID*              16434               07.5000000000E-011.2761019161E-01+
*       1.4135321438E+00               0
GRID*              16435               07.5000000000E-011.1035251769E-01+
*       1.5995013323E+00               0
GRID*              16436               07.5000000000E-011.5023165507E-01+
*       1.5319159507E+00               0
GRID*              16437               07.5000000000E-011.3624678687E-01+
*       1.6716531324E+00               0
GRID*              16438               07.5000000000E-012.1014220344E-01+
*       1.6605153375E+00               0
GRID*              16439               07.5000000000E-012.4391231772E-01+
*       1.3685573223E+00               0
GRID*              16440               07.5000000000E-011.9525405956E-01+
*       1.3977424521E+00               0
GRID*              16441               07.5000000000E-013.0127075155E-01+
*       1.4054781909E+00               0
GRID*              16442               07.5000000000E-012.9911343874E-01+
*       1.4813733078E+00               0
GRID*              16443               07.5000000000E-011.7034366960E-01+
*       1.4519392840E+00               0
GRID*              16444               07.5000000000E-012.1787552302E-01+
*       1.5161262589E+00               0
GRID*              16445               07.5000000000E-012.8155225594E-01+
*       1.6384883178E+00               0
GRID*              16446               07.5000000000E-012.7900142421E-01+
*       1.5613499745E+00               0
GRID*              16447               07.5000000000E-019.3142722638E-01+
*       7.7743667100E-01               0
GRID*              16448               07.5000000000E-019.2584249344E-01+
*       8.5195777860E-01               0
GRID*              16449               07.5000000000E-019.3543766625E-01+
*       7.0426644049E-01               0
GRID*              16450               07.5000000000E-018.6686489263E-01+
*       7.3170311149E-01               0
GRID*              16451               07.5000000000E-018.0115948333E-01+
*       7.6077330848E-01               0
GRID*              16452               07.5000000000E-019.1869016263E-01+
*       9.2166924788E-01               0
GRID*              16453               07.5000000000E-018.5570212196E-01+
*       8.7458481128E-01               0
GRID*              16454               07.5000000000E-019.0206104770E-01+
*       9.9452564865E-01               0
GRID*              16455               07.5000000000E-017.9688729406E-01+
*       8.3219776758E-01               0
GRID*              16456               07.5000000000E-017.8973496325E-01+
*       9.0190923685E-01               0
GRID*              16457               07.5000000000E-017.3519232463E-01+
*       7.8809773406E-01               0
GRID*              16458               07.5000000000E-016.7001898349E-01+
*       8.1725922759E-01               0
GRID*              16459               07.5000000000E-014.8149835749E-01+
*       1.2230915395E+00               0
GRID*              16460               07.5000000000E-014.2027556022E-01+
*       1.1887833776E+00               0
GRID*              16461               07.5000000000E-015.4581658583E-01+
*       1.2566051858E+00               0
GRID*              16462               07.5000000000E-016.0877327069E-01+
*       1.2906044933E+00               0
GRID*              16463               07.5000000000E-015.4155598335E-01+
*       1.1806792876E+00               0
GRID*              16464               07.5000000000E-015.3860666756E-01+
*       1.1062904117E+00               0
GRID*              16465               07.5000000000E-016.0292489590E-01+
*       1.1398040580E+00               0
GRID*              16466               07.5000000000E-016.7093307193E-01+
*       1.3204687592E+00               0
GRID*              16467               07.5000000000E-016.6803401294E-01+
*       1.2440571999E+00               0
GRID*              16468               07.5000000000E-017.3162276048E-01+
*       1.3520470200E+00               0
GRID*              16469               07.5000000000E-017.7821629934E-01+
*       1.2936207656E+00               0
GRID*              16470               07.5000000000E-016.6503812500E-01+
*       1.0986039694E+00               0
GRID*              16471               07.5000000000E-016.6205990581E-01+
*       1.0310043787E+00               0
GRID*              16472               07.5000000000E-017.2712245070E-01+
*       1.0641931659E+00               0
GRID*              16473               07.5000000000E-016.6798744079E-01+
*       1.1729928453E+00               0
GRID*              16474               07.5000000000E-017.3014724204E-01+
*       1.2028571112E+00               0
GRID*              16475               07.5000000000E-017.7769673886E-01+
*       1.0276910451E+00               0
GRID*              16476               07.5000000000E-017.8067495805E-01+
*       1.0952906357E+00               0
GRID*              16477               07.5000000000E-018.3989951868E-01+
*       1.0015423977E+00               0
GRID*              16478               07.5000000000E-018.9341077523E-01+
*       1.0517717658E+00               0
GRID*              16479               07.5000000000E-017.8634701133E-01+
*       9.7044492793E-01               0
GRID*              16480               07.5000000000E-018.6610887854E-01+
*       1.1213360444E+00               0
GRID*              16481               07.5000000000E-018.1558116253E-01+
*       1.2289025199E+00               0
GRID*              16482               07.5000000000E-018.1553459039E-01+
*       1.1578381653E+00               0
GRID*              16483               07.5000000000E-016.0507536455E-01+
*       8.4602933924E-01               0
GRID*              16484               07.5000000000E-015.4184040476E-01+
*       8.7260444142E-01               0
GRID*              16485               07.5000000000E-016.6597651641E-01+
*       8.8829230480E-01               0
GRID*              16486               07.5000000000E-017.2753218344E-01+
*       9.2805788423E-01               0
GRID*              16487               07.5000000000E-016.6258856449E-01+
*       9.5682799588E-01               0
GRID*              16488               07.5000000000E-013.5763867363E-01+
*       1.1580583649E+00               0
GRID*              16489               07.5000000000E-014.1460086842E-01+
*       1.1164406285E+00               0
GRID*              16490               07.5000000000E-013.0126026475E-01+
*       1.1251952134E+00               0
GRID*              16491               07.5000000000E-012.4970141843E-01+
*       1.1009293459E+00               0
GRID*              16492               07.5000000000E-013.0040513551E-01+
*       1.0614497484E+00               0
GRID*              16493               07.5000000000E-014.6690357347E-01+
*       1.0631022031E+00               0
GRID*              16494               07.5000000000E-014.0426668688E-01+
*       1.0323771904E+00               0
GRID*              16495               07.5000000000E-015.2827248602E-01+
*       1.0222269736E+00               0
GRID*              16496               07.5000000000E-016.0050423879E-01+
*       9.9123879929E-01               0
GRID*              16497               07.5000000000E-015.2880114470E-01+
*       9.4805059074E-01               0
GRID*              16498               07.5000000000E-013.3582009309E-01+
*       1.0205795266E+00               0
GRID*              16499               07.5000000000E-013.8812279814E-01+
*       9.6724110119E-01               0
GRID*              16500               07.5000000000E-014.6960865199E-01+
*       9.0359261571E-01               0
GRID*              16501               07.5000000000E-014.1058767288E-01+
*       9.1804836014E-01               0
GRID*              16502               07.5000000000E-019.3525068548E-01+
*       1.0537648752E-01               0
GRID*              16503               01.0734269523E+00-6.488402411E-01+
*       -8.333276909E-02               0
GRID*              16504               01.1188769783E+00-7.113592580E-01+
*       -8.333301657E-02               0
GRID*              16505               01.1188990372E+00-7.885725378E-01+
*       -8.333381427E-02               0
GRID*              16506               01.0734947532E+00-8.511104321E-01+
*       -8.333274086E-02               0
GRID*              16507               01.0000729603E+00-8.749999787E-01+
*       -8.333333335E-02               0
GRID*              16508               09.2654422284E-01-8.511391595E-01+
*       -8.333362295E-02               0
GRID*              16509               08.8113748249E-01-7.886872723E-01+
*       -8.333333063E-02               0
GRID*              16510               08.8111494626E-01-7.113821389E-01+
*       -8.333333696E-02               0
GRID*              16511               09.2648565582E-01-6.489033493E-01+
*       -8.333311495E-02               0
GRID*              16512               01.0734356111E+00-6.488466082E-01+
*       -1.666672590E-01               0
GRID*              16513               01.1188764424E+00-7.113579161E-01+
*       -1.666661853E-01               0
GRID*              16514               01.1188995900E+00-7.885711522E-01+
*       -1.666669777E-01               0
GRID*              16515               01.0734860704E+00-8.511168169E-01+
*       -1.666672340E-01               0
GRID*              16516               01.0000729599E+00-8.749999787E-01+
*       -1.666666667E-01               0
GRID*              16517               09.2654480076E-01-8.511396296E-01+
*       -1.666668810E-01               0
GRID*              16518               08.8113747391E-01-7.886872417E-01+
*       -1.666666630E-01               0
GRID*              16519               08.8111495386E-01-7.113821140E-01+
*       -1.666666695E-01               0
GRID*              16520               09.2648512121E-01-6.489037833E-01+
*       -1.666663787E-01               0
GRID*              16521               01.0734327652E+00-6.488445155E-01+
*       -1.250002122E-01               0
GRID*              16522               01.1011100730E+00-6.765054852E-01+
*       -1.666674365E-01               0
GRID*              16523               01.1011013441E+00-6.764941212E-01+
*       -1.249989568E-01               0
GRID*              16524               01.1188763038E+00-7.113575691E-01+
*       -1.249994760E-01               0
GRID*              16525               01.1011011919E+00-6.764939231E-01+
*       -8.333225838E-02               0
GRID*              16526               01.1249999946E+00-7.499634809E-01+
*       -1.666666666E-01               0
GRID*              16527               01.1249999946E+00-7.499634810E-01+
*       -1.250000000E-01               0
GRID*              16528               01.1188989222E+00-7.885728258E-01+
*       -1.250005163E-01               0
GRID*              16529               01.1249999946E+00-7.499634811E-01+
*       -8.333333333E-02               0
GRID*              16530               01.1011441962E+00-8.234468350E-01+
*       -1.666677365E-01               0
GRID*              16531               01.1011442761E+00-8.234467310E-01+
*       -1.250010531E-01               0
GRID*              16532               01.0734917692E+00-8.511126264E-01+
*       -1.249998061E-01               0
GRID*              16533               01.1011529698E+00-8.234354128E-01+
*       -8.333258069E-02               0
GRID*              16534               01.0386688737E+00-8.688683254E-01+
*       -1.666666911E-01               0
GRID*              16535               01.0386708563E+00-8.688676335E-01+
*       -1.249998671E-01               0
GRID*              16536               01.0000729601E+00-8.749999787E-01+
*       -1.250000000E-01               0
GRID*              16537               01.0386705203E+00-8.688677507E-01+
*       -8.333322707E-02               0
GRID*              16538               09.6141096169E-01-8.688934916E-01+
*       -1.666670698E-01               0
GRID*              16539               09.6140886583E-01-8.688926233E-01+
*       -1.250006901E-01               0
GRID*              16540               09.2654378724E-01-8.511388051E-01+
*       -1.250003465E-01               0
GRID*              16541               09.6140866933E-01-8.688925419E-01+
*       -8.333405026E-02               0
GRID*              16542               08.9889824271E-01-8.235079124E-01+
*       -1.666667090E-01               0
GRID*              16543               08.9889802873E-01-8.235075928E-01+
*       -1.250000686E-01               0
GRID*              16544               08.8113746969E-01-7.886872267E-01+
*       -1.249999957E-01               0
GRID*              16545               08.9889811517E-01-8.235077219E-01+
*       -8.333339125E-02               0
GRID*              16546               08.7500000540E-01-7.500365700E-01+
*       -1.666666667E-01               0
GRID*              16547               08.7500000541E-01-7.500365702E-01+
*       -1.250000000E-01               0
GRID*              16548               08.8111493969E-01-7.113821603E-01+
*       -1.250000045E-01               0
GRID*              16549               08.7500000543E-01-7.500365703E-01+
*       -8.333333339E-02               0
GRID*              16550               08.9885532967E-01-6.765511552E-01+
*       -1.666667102E-01               0
GRID*              16551               08.9885511230E-01-6.765514774E-01+
*       -1.250000700E-01               0
GRID*              16552               09.2648463464E-01-6.489041783E-01+
*       -1.249996486E-01               0
GRID*              16553               08.9885521517E-01-6.765513249E-01+
*       -8.333339078E-02               0
GRID*              16554               01.0385988543E+00-6.311088570E-01+
*       -4.166659548E-02               0
GRID*              16555               01.0385995198E+00-6.311090915E-01+
*       -8.333331506E-02               0
GRID*              16556               01.0734290537E+00-6.488417863E-01+
*       -4.166638298E-02               0
GRID*              16557               01.0386010695E+00-6.311096376E-01+
*       -1.666667715E-01               0
GRID*              16558               01.0386014230E+00-6.311097622E-01+
*       -1.250001329E-01               0
GRID*              16559               01.0386002005E+00-6.311093314E-01+
*       -2.083333692E-01               0
GRID*              16560               01.0734330578E+00-6.488447306E-01+
*       -2.083335848E-01               0
GRID*              16561               01.1011093337E+00-6.765045227E-01+
*       -2.083339498E-01               0
GRID*              16562               01.1188788219E+00-7.113638741E-01+
*       -2.083335832E-01               0
GRID*              16563               01.1249999946E+00-7.499634808E-01+
*       -2.083333333E-01               0
GRID*              16564               01.1189002911E+00-7.885693952E-01+
*       -2.083334288E-01               0
GRID*              16565               01.1011474558E+00-8.234425915E-01+
*       -2.083337263E-01               0
GRID*              16566               01.0734882055E+00-8.511152468E-01+
*       -2.083336156E-01               0
GRID*              16567               01.0386682835E+00-8.688685313E-01+
*       -2.083334047E-01               0
GRID*              16568               01.0000729598E+00-8.749999787E-01+
*       -2.083333333E-01               0
GRID*              16569               09.6141301549E-01-8.688943424E-01+
*       -2.083334552E-01               0
GRID*              16570               09.2654593364E-01-8.511405511E-01+
*       -2.083334000E-01               0
GRID*              16571               08.9889848043E-01-8.235082674E-01+
*       -2.083333465E-01               0
GRID*              16572               08.8113751911E-01-7.886874028E-01+
*       -2.083333354E-01               0
GRID*              16573               08.7500000539E-01-7.500365699E-01+
*       -2.083333333E-01               0
GRID*              16574               08.8111496982E-01-7.113820618E-01+
*       -2.083333343E-01               0
GRID*              16575               08.9885557512E-01-6.765507915E-01+
*       -2.083333469E-01               0
GRID*              16576               09.2648870915E-01-6.489008705E-01+
*       -2.083335130E-01               0
GRID*              16577               09.6134629747E-01-6.311270886E-01+
*       -2.083336015E-01               0
GRID*              16578               09.6133907075E-01-6.311300824E-01+
*       -1.666659451E-01               0
GRID*              16579               09.6133921988E-01-6.311300206E-01+
*       -1.249992988E-01               0
GRID*              16580               09.6134134100E-01-6.311291419E-01+
*       -8.333292256E-02               0
GRID*              16581               09.2648680983E-01-6.489024124E-01+
*       -4.166659865E-02               0
GRID*              16582               09.6134343261E-01-6.311282754E-01+
*       -4.166654232E-02               0
GRID*              16583               08.8111499607E-01-7.113819760E-01+
*       -4.166666439E-02               0
GRID*              16584               08.9885597901E-01-6.765501929E-01+
*       -4.166663089E-02               0
GRID*              16585               08.8113749647E-01-7.886873221E-01+
*       -4.166666572E-02               0
GRID*              16586               08.7500000545E-01-7.500365705E-01+
*       -4.166666674E-02               0
GRID*              16587               09.2654779116E-01-8.511420621E-01+
*       -4.166649090E-02               0
GRID*              16588               08.9889886923E-01-8.235088481E-01+
*       -4.166663206E-02               0
GRID*              16589               01.0000729604E+00-8.749999787E-01+
*       -4.166666669E-02               0
GRID*              16590               09.6141576135E-01-8.688954799E-01+
*       -4.166641232E-02               0
GRID*              16591               01.0734922119E+00-8.511123008E-01+
*       -4.166641351E-02               0
GRID*              16592               01.0386696408E+00-8.688680576E-01+
*       -4.166663017E-02               0
GRID*              16593               01.1189013900E+00-7.885666411E-01+
*       -4.166642400E-02               0
GRID*              16594               01.1011523183E+00-8.234362610E-01+
*       -4.166604919E-02               0
GRID*              16595               01.1188776923E+00-7.113610458E-01+
*       -4.166656928E-02               0
GRID*              16596               01.1249999947E+00-7.499634811E-01+
*       -4.166666667E-02               0
GRID*              16597               01.1011044605E+00-6.764981784E-01+
*       -4.166627052E-02               0
GRID*              16598               01.0734269600E+008.5115975333E-01+
*       -8.333276909E-02               0
GRID*              16599               01.1188769869E+007.8864072857E-01+
*       -8.333301657E-02               0
GRID*              16600               01.1188990282E+007.1142744892E-01+
*       -8.333381427E-02               0
GRID*              16601               01.0734947454E+006.4888956224E-01+
*       -8.333274086E-02               0
GRID*              16602               01.0000729603E+006.2500002133E-01+
*       -8.333333335E-02               0
GRID*              16603               09.2654421494E-016.4886083486E-01+
*       -8.333362295E-02               0
GRID*              16604               08.8113751370E-017.1131273175E-01+
*       -8.333333063E-02               0
GRID*              16605               08.8111491605E-017.8861786489E-01+
*       -8.333333696E-02               0
GRID*              16606               09.2648566339E-018.5109664550E-01+
*       -8.333311495E-02               0
GRID*              16607               01.0734356188E+008.5115338620E-01+
*       -1.666672590E-01               0
GRID*              16608               01.1188764514E+007.8864207066E-01+
*       -1.666661853E-01               0
GRID*              16609               01.1188995815E+007.1142883433E-01+
*       -1.666669777E-01               0
GRID*              16610               01.0734860627E+006.4888317752E-01+
*       -1.666672340E-01               0
GRID*              16611               01.0000729599E+006.2500002131E-01+
*       -1.666666667E-01               0
GRID*              16612               09.2654479332E-016.4886036532E-01+
*       -1.666668810E-01               0
GRID*              16613               08.8113750441E-017.1131276212E-01+
*       -1.666666630E-01               0
GRID*              16614               08.8111492308E-017.8861788993E-01+
*       -1.666666695E-01               0
GRID*              16615               09.2648512920E-018.5109621097E-01+
*       -1.666663787E-01               0
GRID*              16616               01.0734327729E+008.5115547888E-01+
*       -1.250002122E-01               0
GRID*              16617               01.1011100543E+008.2349448089E-01+
*       -1.666674365E-01               0
GRID*              16618               01.1011013254E+008.2350584489E-01+
*       -1.249989568E-01               0
GRID*              16619               01.1188763130E+007.8864241762E-01+
*       -1.249994760E-01               0
GRID*              16620               01.1011011731E+008.2350604307E-01+
*       -8.333225837E-02               0
GRID*              16621               01.1249999946E+007.5003650330E-01+
*       -1.666666666E-01               0
GRID*              16622               01.1249999946E+007.5003650321E-01+
*       -1.250000000E-01               0
GRID*              16623               01.1188989132E+007.1142716095E-01+
*       -1.250005163E-01               0
GRID*              16624               01.1249999947E+007.5003650312E-01+
*       -8.333333333E-02               0
GRID*              16625               01.1011442149E+006.7655313113E-01+
*       -1.666677365E-01               0
GRID*              16626               01.1011442948E+006.7655323513E-01+
*       -1.250010531E-01               0
GRID*              16627               01.0734917615E+006.4888736803E-01+
*       -1.249998061E-01               0
GRID*              16628               01.1011529885E+006.7656455326E-01+
*       -8.333258070E-02               0
GRID*              16629               01.0386708564E+006.3113232895E-01+
*       -1.249998671E-01               0
GRID*              16630               01.0386705207E+006.3113221066E-01+
*       -8.333322707E-02               0
GRID*              16631               01.0386688759E+006.3113163100E-01+
*       -1.666666911E-01               0
GRID*              16632               01.0000729601E+006.2500002132E-01+
*       -1.250000000E-01               0
GRID*              16633               09.6140886583E-016.3110737669E-01+
*       -1.250006901E-01               0
GRID*              16634               09.6140866933E-016.3110745810E-01+
*       -8.333405026E-02               0
GRID*              16635               09.6141096169E-016.3110650844E-01+
*       -1.666670698E-01               0
GRID*              16636               09.2654377899E-016.4886118878E-01+
*       -1.250003465E-01               0
GRID*              16637               08.9889803298E-016.7649240546E-01+
*       -1.250000686E-01               0
GRID*              16638               08.9889811990E-016.7649227665E-01+
*       -8.333339125E-02               0
GRID*              16639               08.9889824811E-016.7649208664E-01+
*       -1.666667090E-01               0
GRID*              16640               08.8113749985E-017.1131277705E-01+
*       -1.249999957E-01               0
GRID*              16641               08.7500000542E-017.4996342385E-01+
*       -1.250000000E-01               0
GRID*              16642               08.7500000544E-017.4996342370E-01+
*       -8.333333339E-02               0
GRID*              16643               08.7500000540E-017.4996342398E-01+
*       -1.666666667E-01               0
GRID*              16644               08.8111490999E-017.8861784328E-01+
*       -1.250000045E-01               0
GRID*              16645               08.9885510829E-018.2344852071E-01+
*       -1.249999300E-01               0
GRID*              16646               08.9885532449E-018.2344884363E-01+
*       -8.333328979E-02               0
GRID*              16647               08.9885521059E-018.2344867350E-01+
*       -1.666666092E-01               0
GRID*              16648               09.2648464302E-018.5109581549E-01+
*       -1.249996486E-01               0
GRID*              16649               01.0385988513E+008.6889109733E-01+
*       -4.166659548E-02               0
GRID*              16650               01.0385995176E+008.6889086482E-01+
*       -8.333331506E-02               0
GRID*              16651               01.0734290614E+008.5115820807E-01+
*       -4.166638298E-02               0
GRID*              16652               01.0386010689E+008.6889032346E-01+
*       -1.666667715E-01               0
GRID*              16653               01.0386014228E+008.6889019995E-01+
*       -1.250001329E-01               0
GRID*              16654               01.0386001990E+008.6889062704E-01+
*       -2.083333692E-01               0
GRID*              16655               01.0734330655E+008.5115526374E-01+
*       -2.083335848E-01               0
GRID*              16656               01.1011093150E+008.2349544342E-01+
*       -2.083339498E-01               0
GRID*              16657               01.1188788291E+007.8863611191E-01+
*       -2.083335832E-01               0
GRID*              16658               01.1249999946E+007.5003650339E-01+
*       -2.083333333E-01               0
GRID*              16659               01.1189002831E+007.1143059107E-01+
*       -2.083334288E-01               0
GRID*              16660               01.1011474745E+006.7655737470E-01+
*       -2.083337263E-01               0
GRID*              16661               01.0734881978E+006.4888474755E-01+
*       -2.083336156E-01               0
GRID*              16662               01.0386682863E+006.3113142322E-01+
*       -2.083334047E-01               0
GRID*              16663               01.0000729598E+006.2500002131E-01+
*       -2.083333333E-01               0
GRID*              16664               09.6141301549E-016.3110565760E-01+
*       -2.083334552E-01               0
GRID*              16665               09.2654592710E-016.4885944490E-01+
*       -2.083334000E-01               0
GRID*              16666               08.9889848710E-016.7649173244E-01+
*       -2.083333465E-01               0
GRID*              16667               08.8113755332E-017.1131260219E-01+
*       -2.083333354E-01               0
GRID*              16668               08.7500000539E-017.4996342408E-01+
*       -2.083333333E-01               0
GRID*              16669               08.8111493783E-017.8861794249E-01+
*       -2.083333343E-01               0
GRID*              16670               08.9885597035E-018.2344980827E-01+
*       -2.083333691E-01               0
GRID*              16671               09.2648871429E-018.5109912725E-01+
*       -2.083335130E-01               0
GRID*              16672               09.6134629747E-018.6887291143E-01+
*       -2.083336015E-01               0
GRID*              16673               09.6133907075E-018.6886991759E-01+
*       -1.666659451E-01               0
GRID*              16674               09.6133921988E-018.6886997937E-01+
*       -1.249992988E-01               0
GRID*              16675               09.6134134100E-018.6887085810E-01+
*       -8.333292256E-02               0
GRID*              16676               09.2648681648E-018.5109758348E-01+
*       -4.166659865E-02               0
GRID*              16677               09.6134343261E-018.6887172459E-01+
*       -4.166654232E-02               0
GRID*              16678               08.8111496208E-017.8861802890E-01+
*       -4.166666439E-02               0
GRID*              16679               08.9885556863E-018.2344920827E-01+
*       -4.166665306E-02               0
GRID*              16680               08.8113752882E-017.1131268232E-01+
*       -4.166666572E-02               0
GRID*              16681               08.7500000546E-017.4996342355E-01+
*       -4.166666674E-02               0
GRID*              16682               09.2654778610E-016.4885793573E-01+
*       -4.166649090E-02               0
GRID*              16683               08.9889887800E-016.7649115311E-01+
*       -4.166663206E-02               0
GRID*              16684               01.0000729604E+006.2500002134E-01+
*       -4.166666669E-02               0
GRID*              16685               09.6141576135E-016.3110452006E-01+
*       -4.166641232E-02               0
GRID*              16686               01.0734922042E+006.4888769359E-01+
*       -4.166641351E-02               0
GRID*              16687               01.0386696422E+006.3113190105E-01+
*       -4.166663017E-02               0
GRID*              16688               01.1189013830E+007.1143334490E-01+
*       -4.166642400E-02               0
GRID*              16689               01.1011523370E+006.7656370513E-01+
*       -4.166604919E-02               0
GRID*              16690               01.1188777004E+007.8863894056E-01+
*       -4.166656928E-02               0
GRID*              16691               01.1249999947E+007.5003650306E-01+
*       -4.166666667E-02               0
GRID*              16692               01.1011044418E+008.2350178773E-01+
*       -4.166627052E-02               0
GRID*              16693               01.1580951154E+00-9.192812039E-01+
*       0.0000000000E+00               0
GRID*              16694               01.1319962239E+00-8.623125907E-01+
*       0.0000000000E+00               0
GRID*              16695               01.0922843900E+00-8.987965180E-01+
*       0.0000000000E+00               0
GRID*              16696               08.4650946881E-01-8.934828397E-01+
*       0.0000000000E+00               0
GRID*              16697               08.4648909997E-018.9346038591E-01+
*       0.0000000000E+00               0
GRID*              16698               01.1534914315E+008.9348028584E-01+
*       0.0000000000E+00               0
GRID*              16699               01.1151018466E+00-4.806931780E-01+
*       0.0000000000E+00               0
GRID*              16700               01.0601280581E+00-5.878794709E-01+
*       0.0000000000E+00               0
GRID*              16701               01.1752730180E+00-7.301273792E-01+
*       0.0000000000E+00               0
GRID*              16702               01.1498253209E+00-6.294162941E-01+
*       0.0000000000E+00               0
GRID*              16703               08.8509385967E-014.8067398250E-01+
*       0.0000000000E+00               0
GRID*              16704               09.3992969834E-015.8785513315E-01+
*       0.0000000000E+00               0
GRID*              16705               08.2473207131E-017.3012565157E-01+
*       0.0000000000E+00               0
GRID*              16706               08.5021051351E-016.2940420422E-01+
*       0.0000000000E+00               0
GRID*              16707               08.7513309796E-01-2.053270088E-04+
*       0.0000000000E+00               0
GRID*              16708               01.0008017212E+007.7351543173E-02+
*       0.0000000000E+00               0
GRID*              16709               01.1263274179E+001.5391035207E-01+
*       0.0000000000E+00               0
GRID*              16710               08.7873451155E-013.1058967741E-01+
*       0.0000000000E+00               0
GRID*              16711               01.0105387782E+003.8877005101E-01+
*       0.0000000000E+00               0
GRID*              16712               01.1354565561E+004.6116328566E-01+
*       0.0000000000E+00               0
GRID*              16713               01.0283770747E+005.4118765799E-01+
*       0.0000000000E+00               0
GRID*              16714               01.1428331998E+005.9869663646E-01+
*       0.0000000000E+00               0
GRID*              16715               01.1293529857E+003.0864562772E-01+
*       0.0000000000E+00               0
GRID*              16716               08.7628817930E-011.5431609315E-01+
*       0.0000000000E+00               0
GRID*              16717               01.0038352327E+002.3232611703E-01+
*       0.0000000000E+00               0
GRID*              16718               01.1215448868E+00-3.107346243E-01+
*       0.0000000000E+00               0
GRID*              16719               09.8971217139E-01-3.889463671E-01+
*       0.0000000000E+00               0
GRID*              16720               08.6476677988E-01-4.611626909E-01+
*       0.0000000000E+00               0
GRID*              16721               09.7173088029E-01-5.412199105E-01+
*       0.0000000000E+00               0
GRID*              16722               08.5722210506E-01-5.986864072E-01+
*       0.0000000000E+00               0
GRID*              16723               08.7084274002E-01-3.089520198E-01+
*       0.0000000000E+00               0
GRID*              16724               08.7374195539E-01-1.544564350E-01+
*       0.0000000000E+00               0
GRID*              16725               09.9933476837E-01-7.730894231E-02+
*       0.0000000000E+00               0
GRID*              16726               01.1251382289E+00-1.990322833E-04+
*       0.0000000000E+00               0
GRID*              16727               01.1238416419E+00-1.544680057E-01+
*       0.0000000000E+00               0
GRID*              16728               09.9634106298E-01-2.325263147E-01+
*       0.0000000000E+00               0
GRID*              16729               01.1844502820E+007.0186951241E-01+
*       0.0000000000E+00               0
GRID*              16730               08.1555748842E-01-7.018448653E-01+
*       0.0000000000E+00               0
GRID*              16731               09.5833333333E-019.3750000000E-01+
*       0.0000000000E+00               0
GRID*              16732               09.5836981322E-01-9.374999893E-01+
*       0.0000000000E+00               0
GRID*              16733               01.2040475577E+00-9.596406020E-01+
*       0.0000000000E+00               0
GRID*              16734               01.1207142244E+00-9.596406020E-01+
*       0.0000000000E+00               0
GRID*              16735               01.2040475577E+00-8.827175250E-01+
*       0.0000000000E+00               0
GRID*              16736               01.1909981120E+00-8.542332184E-01+
*       0.0000000000E+00               0
GRID*              16737               01.1450456697E+00-8.907968973E-01+
*       0.0000000000E+00               0
GRID*              16738               01.1027432799E+00-8.567131491E-01+
*       0.0000000000E+00               0
GRID*              16739               01.1254484050E+00-8.254406260E-01+
*       0.0000000000E+00               0
GRID*              16740               01.1251897527E+00-9.090388609E-01+
*       0.0000000000E+00               0
GRID*              16741               01.0878088617E+00-9.493982590E-01+
*       0.0000000000E+00               0
GRID*              16742               01.0461786749E+00-8.868982483E-01+
*       0.0000000000E+00               0
GRID*              16743               01.0828873629E+00-8.749551128E-01+
*       0.0000000000E+00               0
GRID*              16744               01.1121403070E+00-8.805545543E-01+
*       0.0000000000E+00               0
GRID*              16745               08.8158806774E-01-9.467414198E-01+
*       0.0000000000E+00               0
GRID*              16746               07.9825473441E-01-9.467414198E-01+
*       0.0000000000E+00               0
GRID*              16747               07.9825473441E-01-8.698183429E-01+
*       0.0000000000E+00               0
GRID*              16748               08.8652794287E-01-8.723118997E-01+
*       0.0000000000E+00               0
GRID*              16749               08.6382348667E-01-8.410850912E-01+
*       0.0000000000E+00               0
GRID*              16750               07.9824454998E-019.4673019295E-01+
*       0.0000000000E+00               0
GRID*              16751               08.8157788332E-019.4673019295E-01+
*       0.0000000000E+00               0
GRID*              16752               07.9824454998E-018.6980711603E-01+
*       0.0000000000E+00               0
GRID*              16753               08.8648820521E-018.7227919343E-01+
*       0.0000000000E+00               0
GRID*              16754               08.6380202311E-018.4103917526E-01+
*       0.0000000000E+00               0
GRID*              16755               01.1184123824E+009.4674014292E-01+
*       0.0000000000E+00               0
GRID*              16756               01.2017457157E+009.4674014292E-01+
*       0.0000000000E+00               0
GRID*              16757               01.2017457157E+008.6981706600E-01+
*       0.0000000000E+00               0
GRID*              16758               01.1134613171E+008.7231847324E-01+
*       0.0000000000E+00               0
GRID*              16759               01.1361847165E+008.4105923830E-01+
*       0.0000000000E+00               0
GRID*              16760               01.2126365090E+00-7.112175357E-01+
*       0.0000000000E+00               0
GRID*              16761               01.2126365090E+00-7.881406127E-01+
*       0.0000000000E+00               0
GRID*              16762               01.1825509233E+00-5.095773582E-01+
*       0.0000000000E+00               0
GRID*              16763               01.1825509233E+00-4.326542813E-01+
*       0.0000000000E+00               0
GRID*              16764               01.1999126604E+00-6.608619932E-01+
*       0.0000000000E+00               0
GRID*              16765               01.1625491694E+00-6.797718366E-01+
*       0.0000000000E+00               0
GRID*              16766               01.1999126604E+00-5.839389163E-01+
*       0.0000000000E+00               0
GRID*              16767               01.1324635837E+00-5.550547361E-01+
*       0.0000000000E+00               0
GRID*              16768               01.0667796189E+00-6.183614105E-01+
*       0.0000000000E+00               0
GRID*              16769               01.0300640290E+00-6.064397354E-01+
*       0.0000000000E+00               0
GRID*              16770               01.1470754985E+00-7.207445911E-01+
*       0.0000000000E+00               0
GRID*              16771               01.1470868020E+00-7.593480202E-01+
*       0.0000000000E+00               0
GRID*              16772               01.1049766895E+00-6.086478825E-01+
*       0.0000000000E+00               0
GRID*              16773               01.0876149523E+00-5.342863244E-01+
*       0.0000000000E+00               0
GRID*              16774               01.1116282503E+00-6.391298222E-01+
*       0.0000000000E+00               0
GRID*              16775               01.1343516500E+00-6.703890486E-01+
*       0.0000000000E+00               0
GRID*              16776               07.8736603566E-017.1121667194E-01+
*       0.0000000000E+00               0
GRID*              16777               07.8736603566E-017.8813974886E-01+
*       0.0000000000E+00               0
GRID*              16778               08.1754692984E-015.0956776048E-01+
*       0.0000000000E+00               0
GRID*              16779               08.1754692984E-014.3264468356E-01+
*       0.0000000000E+00               0
GRID*              16780               08.0010525676E-016.6085594827E-01+
*       0.0000000000E+00               0
GRID*              16781               08.3747129241E-016.7976492790E-01+
*       0.0000000000E+00               0
GRID*              16782               08.0010525676E-015.8393287134E-01+
*       0.0000000000E+00               0
GRID*              16783               08.6765218659E-015.5503909336E-01+
*       0.0000000000E+00               0
GRID*              16784               09.3323805476E-016.1835708320E-01+
*       0.0000000000E+00               0
GRID*              16785               09.7000132906E-016.0642757725E-01+
*       0.0000000000E+00               0
GRID*              16786               08.5293480335E-017.2071915590E-01+
*       0.0000000000E+00               0
GRID*              16787               08.5292350878E-017.5937180809E-01+
*       0.0000000000E+00               0
GRID*              16788               08.9507010593E-016.0862966868E-01+
*       0.0000000000E+00               0
GRID*              16789               09.1251177901E-015.3426455782E-01+
*       0.0000000000E+00               0
GRID*              16790               08.8837846235E-016.3913161874E-01+
*       0.0000000000E+00               0
GRID*              16791               08.6567402445E-016.7035843223E-01+
*       0.0000000000E+00               0
GRID*              16792               08.1436725577E-013.4760253101E-01+
*       0.0000000000E+00               0
GRID*              16793               08.1436725577E-012.7067945409E-01+
*       0.0000000000E+00               0
GRID*              16794               08.8191418561E-013.9563182996E-01+
*       0.0000000000E+00               0
GRID*              16795               01.0194579264E+004.6497885450E-01+
*       0.0000000000E+00               0
GRID*              16796               01.0729976672E+004.2496666833E-01+
*       0.0000000000E+00               0
GRID*              16797               01.0819168154E+005.0117547182E-01+
*       0.0000000000E+00               0
GRID*              16798               09.4781631893E-014.3472201675E-01+
*       0.0000000000E+00               0
GRID*              16799               09.4463664487E-013.4967986421E-01+
*       0.0000000000E+00               0
GRID*              16800               09.5673546718E-015.1093082024E-01+
*       0.0000000000E+00               0
GRID*              16801               09.8415338652E-015.6452139557E-01+
*       0.0000000000E+00               0
GRID*              16802               01.1964165999E+006.4550216438E-01+
*       0.0000000000E+00               0
GRID*              16803               01.1964165999E+005.6857908746E-01+
*       0.0000000000E+00               0
GRID*              16804               01.1308668819E+006.5506398449E-01+
*       0.0000000000E+00               0
GRID*              16805               01.1081617563E+006.2379146993E-01+
*       0.0000000000E+00               0
GRID*              16806               01.1391448780E+005.2992996106E-01+
*       0.0000000000E+00               0
GRID*              16807               01.0856051373E+005.6994214722E-01+
*       0.0000000000E+00               0
GRID*              16808               01.1927282781E+004.9981241206E-01+
*       0.0000000000E+00               0
GRID*              16809               01.0142250172E+005.8309383967E-01+
*       0.0000000000E+00               0
GRID*              16810               01.0509336937E+005.9503698070E-01+
*       0.0000000000E+00               0
GRID*              16811               01.1896764928E+002.6970742924E-01+
*       0.0000000000E+00               0
GRID*              16812               01.1278402018E+002.3127798989E-01+
*       0.0000000000E+00               0
GRID*              16813               01.1881637090E+001.9233979142E-01+
*       0.0000000000E+00               0
GRID*              16814               01.1896764928E+003.4663050617E-01+
*       0.0000000000E+00               0
GRID*              16815               01.1927282781E+004.2288933514E-01+
*       0.0000000000E+00               0
GRID*              16816               01.1324047709E+003.8490445669E-01+
*       0.0000000000E+00               0
GRID*              16817               08.7571063863E-017.7055383072E-02+
*       0.0000000000E+00               0
GRID*              16818               09.3796740959E-013.8573108082E-02+
*       0.0000000000E+00               0
GRID*              16819               09.3854495026E-011.1583381816E-01+
*       0.0000000000E+00               0
GRID*              16820               08.1256654898E-013.8358874957E-02+
*       0.0000000000E+00               0
GRID*              16821               08.1256654898E-01-3.856420197E-02+
*       0.0000000000E+00               0
GRID*              16822               08.1314408965E-011.1561958504E-01+
*       0.0000000000E+00               0
GRID*              16823               08.1314408965E-011.9254266196E-01+
*       0.0000000000E+00               0
GRID*              16824               01.0699458819E+003.4870783936E-01+
*       0.0000000000E+00               0
GRID*              16825               01.0665941092E+002.7048587237E-01+
*       0.0000000000E+00               0
GRID*              16826               01.0071870055E+003.1054808402E-01+
*       0.0000000000E+00               0
GRID*              16827               01.0650813253E+001.9311823455E-01+
*       0.0000000000E+00               0
GRID*              16828               01.0023184770E+001.5483883010E-01+
*       0.0000000000E+00               0
GRID*              16829               01.0635645696E+001.1563094762E-01+
*       0.0000000000E+00               0
GRID*              16830               09.4128487214E-012.7145789722E-01+
*       0.0000000000E+00               0
GRID*              16831               08.7751134542E-012.3245288528E-01+
*       0.0000000000E+00               0
GRID*              16832               09.4006170602E-011.9332110509E-01+
*       0.0000000000E+00               0
GRID*              16833               01.1857724434E+00-3.476750045E-01+
*       0.0000000000E+00               0
GRID*              16834               01.1857724434E+00-2.707519276E-01+
*       0.0000000000E+00               0
GRID*              16835               01.1183233667E+00-3.957139012E-01+
*       0.0000000000E+00               0
GRID*              16836               09.8072152584E-01-4.650831388E-01+
*       0.0000000000E+00               0
GRID*              16837               09.2723947563E-01-4.250545290E-01+
*       0.0000000000E+00               0
GRID*              16838               09.1824883008E-01-5.011913007E-01+
*       0.0000000000E+00               0
GRID*              16839               01.0524070090E+00-4.348197725E-01+
*       0.0000000000E+00               0
GRID*              16840               01.0556285291E+00-3.498404957E-01+
*       0.0000000000E+00               0
GRID*              16841               01.0434163634E+00-5.109565443E-01+
*       0.0000000000E+00               0
GRID*              16842               01.0159294692E+00-5.645496907E-01+
*       0.0000000000E+00               0
GRID*              16843               08.0361105253E-01-6.454970498E-01+
*       0.0000000000E+00               0
GRID*              16844               08.0361105253E-01-5.685739728E-01+
*       0.0000000000E+00               0
GRID*              16845               08.6916854094E-01-6.550342227E-01+
*       0.0000000000E+00               0
GRID*              16846               08.9185470483E-01-6.237941996E-01+
*       0.0000000000E+00               0
GRID*              16847               08.6099444247E-01-5.299245491E-01+
*       0.0000000000E+00               0
GRID*              16848               09.1447649267E-01-5.699531589E-01+
*       0.0000000000E+00               0
GRID*              16849               08.0738338994E-01-4.998121147E-01+
*       0.0000000000E+00               0
GRID*              16850               09.8586544014E-01-5.831099553E-01+
*       0.0000000000E+00               0
GRID*              16851               09.4910909244E-01-5.950609513E-01+
*       0.0000000000E+00               0
GRID*              16852               08.0738338994E-01-4.228890378E-01+
*       0.0000000000E+00               0
GRID*              16853               08.6780475995E-01-3.850573553E-01+
*       0.0000000000E+00               0
GRID*              16854               08.1042137001E-01-3.467837022E-01+
*       0.0000000000E+00               0
GRID*              16855               08.1187097769E-01-1.156897560E-01+
*       0.0000000000E+00               0
GRID*              16856               08.7443752668E-01-7.733088101E-02+
*       0.0000000000E+00               0
GRID*              16857               08.1187097769E-01-1.926128329E-01+
*       0.0000000000E+00               0
GRID*              16858               08.1042137001E-01-2.698606253E-01+
*       0.0000000000E+00               0
GRID*              16859               08.7229234770E-01-2.317042274E-01+
*       0.0000000000E+00               0
GRID*              16860               01.1881637090E+001.1541671450E-01+
*       0.0000000000E+00               0
GRID*              16861               01.1257328234E+007.6855659894E-02+
*       0.0000000000E+00               0
GRID*              16862               01.1875691144E+003.8362022320E-02+
*       0.0000000000E+00               0
GRID*              16863               09.3723393316E-01-3.875713466E-02+
*       0.0000000000E+00               0
GRID*              16864               01.0000682448E+002.1300430075E-05+
*       0.0000000000E+00               0
GRID*              16865               09.3653836188E-01-1.158826887E-01+
*       0.0000000000E+00               0
GRID*              16866               01.0629699751E+003.8576255445E-02+
*       0.0000000000E+00               0
GRID*              16867               01.0622364986E+00-3.875398730E-02+
*       0.0000000000E+00               0
GRID*              16868               01.1875691144E+00-3.856105460E-02+
*       0.0000000000E+00               0
GRID*              16869               01.1244899354E+00-7.733351901E-02+
*       0.0000000000E+00               0
GRID*              16870               01.0615882051E+00-1.158884740E-01+
*       0.0000000000E+00               0
GRID*              16871               01.1869208209E+00-1.156955413E-01+
*       0.0000000000E+00               0
GRID*              16872               01.1869208209E+00-1.926186183E-01+
*       0.0000000000E+00               0
GRID*              16873               09.9783791567E-01-1.549176285E-01+
*       0.0000000000E+00               0
GRID*              16874               01.0600913524E+00-1.934971602E-01+
*       0.0000000000E+00               0
GRID*              16875               09.3504150918E-01-1.934913749E-01+
*       0.0000000000E+00               0
GRID*              16876               09.3359190150E-01-2.707391673E-01+
*       0.0000000000E+00               0
GRID*              16877               09.3027745570E-01-3.489491934E-01+
*       0.0000000000E+00               0
GRID*              16878               01.1226932644E+00-2.326013150E-01+
*       0.0000000000E+00               0
GRID*              16879               01.0589429749E+00-2.716304695E-01+
*       0.0000000000E+00               0
GRID*              16880               09.9302661718E-01-3.107363409E-01+
*       0.0000000000E+00               0
GRID*              16881               01.1516754230E+007.0665042247E-01+
*       0.0000000000E+00               0
GRID*              16882               01.1516641417E+007.4525385159E-01+
*       0.0000000000E+00               0
GRID*              16883               01.1636417409E+006.5028307443E-01+
*       0.0000000000E+00               0
GRID*              16884               01.2172251410E+006.9708860236E-01+
*       0.0000000000E+00               0
GRID*              16885               01.2172251410E+007.7401167928E-01+
*       0.0000000000E+00               0
GRID*              16886               08.4833623263E-01-7.066134518E-01+
*       0.0000000000E+00               0
GRID*              16887               08.4834749647E-01-7.452661040E-01+
*       0.0000000000E+00               0
GRID*              16888               08.3638979674E-01-6.502656363E-01+
*       0.0000000000E+00               0
GRID*              16889               07.8277874421E-01-6.970762788E-01+
*       0.0000000000E+00               0
GRID*              16890               07.8277874421E-01-7.739993557E-01+
*       0.0000000000E+00               0
GRID*              16891               08.3103347861E-01-7.976638525E-01+
*       0.0000000000E+00               0
GRID*              16892               01.1689708567E+007.9767489913E-01+
*       0.0000000000E+00               0
GRID*              16893               08.3561058564E-018.1179301874E-01+
*       0.0000000000E+00               0
GRID*              16894               01.1536346209E+00-7.962199849E-01+
*       0.0000000000E+00               0
GRID*              16895               01.0767457157E+008.8424014292E-01+
*       0.0000000000E+00               0
GRID*              16896               09.2329121430E-01-8.842414092E-01+
*       0.0000000000E+00               0
GRID*              16897               09.2324454998E-018.8423019295E-01+
*       0.0000000000E+00               0
GRID*              16898               01.0044755283E+00-9.493982590E-01+
*       0.0000000000E+00               0
GRID*              16899               09.3750000000E-019.6875000000E-01+
*       0.0000000000E+00               0
GRID*              16900               01.0208333333E+009.6875000000E-01+
*       0.0000000000E+00               0
GRID*              16901               09.0241121665E-019.1548019295E-01+
*       0.0000000000E+00               0
GRID*              16902               09.7916666667E-019.0625000000E-01+
*       0.0000000000E+00               0
GRID*              16903               01.0559123824E+009.1549014292E-01+
*       0.0000000000E+00               0
GRID*              16904               09.0243964102E-01-9.154914145E-01+
*       0.0000000000E+00               0
GRID*              16905               09.7922138650E-01-9.062499840E-01+
*       0.0000000000E+00               0
GRID*              16906               09.3751823995E-01-9.687499947E-01+
*       0.0000000000E+00               0
GRID*              16907               01.0253271016E+00-9.181482536E-01+
*       0.0000000000E+00               0
GRID*              16908               01.2500000000E+000.0000000000E+00+
*       -1.250000000E-01               0
GRID*              16909               01.2500000000E+004.6153846154E-01+
*       -1.250000000E-01               0
GRID*              16910               01.2500000000E+001.5384615385E-01+
*       -1.250000000E-01               0
GRID*              16911               01.2500000000E+003.0769230769E-01+
*       -1.250000000E-01               0
GRID*              16912               01.2500000000E+006.1538461538E-01+
*       -1.250000000E-01               0
GRID*              16913               01.2500000000E+007.6287656986E-01+
*       -1.250000000E-01               0
GRID*              16914               01.2500000000E+009.0701813764E-01+
*       -1.250000000E-01               0
GRID*              16915               01.2500000000E+00-3.076923077E-01+
*       -1.250000000E-01               0
GRID*              16916               01.2500000000E+00-1.538461538E-01+
*       -1.250000000E-01               0
GRID*              16917               01.2500000000E+00-6.153846154E-01+
*       -1.250000000E-01               0
GRID*              16918               01.2500000000E+00-4.615384615E-01+
*       -1.250000000E-01               0
GRID*              16919               01.2500000000E+00-7.628765699E-01+
*       -1.250000000E-01               0
GRID*              16920               01.2500000000E+00-9.070181376E-01+
*       -1.250000000E-01               0
GRID*              16921               01.2500000000E+003.8461538462E-02+
*       -6.250000000E-02               0
GRID*              16922               01.2500000000E+007.6923076923E-02+
*       -1.250000000E-01               0
GRID*              16923               01.2500000000E+001.1538461538E-01+
*       -6.250000000E-02               0
GRID*              16924               01.2500000000E+00-3.846153846E-02+
*       -6.250000000E-02               0
GRID*              16925               01.2500000000E+001.1538461538E-01+
*       -1.875000000E-01               0
GRID*              16926               01.2500000000E+001.9230769231E-01+
*       -1.875000000E-01               0
GRID*              16927               01.2500000000E+003.8461538462E-02+
*       -1.875000000E-01               0
GRID*              16928               01.2500000000E+002.6923076923E-01+
*       -1.875000000E-01               0
GRID*              16929               01.2500000000E+002.3076923077E-01+
*       -1.250000000E-01               0
GRID*              16930               01.2500000000E+003.4615384615E-01+
*       -1.875000000E-01               0
GRID*              16931               01.2500000000E+004.2307692308E-01+
*       -1.875000000E-01               0
GRID*              16932               01.2500000000E+003.8461538462E-01+
*       -1.250000000E-01               0
GRID*              16933               01.2500000000E+001.9230769231E-01+
*       -6.250000000E-02               0
GRID*              16934               01.2500000000E+002.6923076923E-01+
*       -6.250000000E-02               0
GRID*              16935               01.2500000000E+004.2307692308E-01+
*       -6.250000000E-02               0
GRID*              16936               01.2500000000E+005.0000000000E-01+
*       -6.250000000E-02               0
GRID*              16937               01.2500000000E+003.4615384615E-01+
*       -6.250000000E-02               0
GRID*              16938               01.2500000000E+005.7692307692E-01+
*       -6.250000000E-02               0
GRID*              16939               01.2500000000E+006.5384615385E-01+
*       -6.250000000E-02               0
GRID*              16940               01.2500000000E+005.3846153846E-01+
*       -1.250000000E-01               0
GRID*              16941               01.2500000000E+005.0000000000E-01+
*       -1.875000000E-01               0
GRID*              16942               01.2500000000E+005.7692307692E-01+
*       -1.875000000E-01               0
GRID*              16943               01.2500000000E+007.2759213109E-01+
*       -6.250000000E-02               0
GRID*              16944               01.2500000000E+008.0451520801E-01+
*       -6.250000000E-02               0
GRID*              16945               01.2500000000E+006.8913059262E-01+
*       -1.250000000E-01               0
GRID*              16946               01.2500000000E+006.5384615385E-01+
*       -1.875000000E-01               0
GRID*              16947               01.2500000000E+007.2759213109E-01+
*       -1.875000000E-01               0
GRID*              16948               01.2500000000E+008.0451520801E-01+
*       -1.875000000E-01               0
GRID*              16949               01.2500000000E+008.7658599189E-01+
*       -6.250000000E-02               0
GRID*              16950               01.2500000000E+008.3494735375E-01+
*       -1.250000000E-01               0
GRID*              16951               01.2500000000E+009.5350906882E-01+
*       -6.250000000E-02               0
GRID*              16952               01.2500000000E+009.5350906882E-01+
*       -1.250000000E-01               0
GRID*              16953               01.2500000000E+008.7658599189E-01+
*       -1.875000000E-01               0
GRID*              16954               01.2500000000E+009.5350906882E-01+
*       -1.875000000E-01               0
GRID*              16955               01.2500000000E+00-1.923076923E-01+
*       -6.250000000E-02               0
GRID*              16956               01.2500000000E+00-2.692307692E-01+
*       -6.250000000E-02               0
GRID*              16957               01.2500000000E+00-2.307692308E-01+
*       -1.250000000E-01               0
GRID*              16958               01.2500000000E+00-1.153846154E-01+
*       -6.250000000E-02               0
GRID*              16959               01.2500000000E+00-7.692307692E-02+
*       -1.250000000E-01               0
GRID*              16960               01.2500000000E+00-2.692307692E-01+
*       -1.875000000E-01               0
GRID*              16961               01.2500000000E+00-1.923076923E-01+
*       -1.875000000E-01               0
GRID*              16962               01.2500000000E+00-3.461538462E-01+
*       -1.875000000E-01               0
GRID*              16963               01.2500000000E+00-3.846153846E-02+
*       -1.875000000E-01               0
GRID*              16964               01.2500000000E+00-1.153846154E-01+
*       -1.875000000E-01               0
GRID*              16965               01.2500000000E+00-4.230769231E-01+
*       -1.875000000E-01               0
GRID*              16966               01.2500000000E+00-5.000000000E-01+
*       -1.875000000E-01               0
GRID*              16967               01.2500000000E+00-3.846153846E-01+
*       -1.250000000E-01               0
GRID*              16968               01.2500000000E+00-3.461538462E-01+
*       -6.250000000E-02               0
GRID*              16969               01.2500000000E+00-4.230769231E-01+
*       -6.250000000E-02               0
GRID*              16970               01.2500000000E+00-5.769230769E-01+
*       -1.875000000E-01               0
GRID*              16971               01.2500000000E+00-6.538461538E-01+
*       -1.875000000E-01               0
GRID*              16972               01.2500000000E+00-5.384615385E-01+
*       -1.250000000E-01               0
GRID*              16973               01.2500000000E+00-5.000000000E-01+
*       -6.250000000E-02               0
GRID*              16974               01.2500000000E+00-5.769230769E-01+
*       -6.250000000E-02               0
GRID*              16975               01.2500000000E+00-7.275921311E-01+
*       -1.875000000E-01               0
GRID*              16976               01.2500000000E+00-8.045152080E-01+
*       -1.875000000E-01               0
GRID*              16977               01.2500000000E+00-6.891305926E-01+
*       -1.250000000E-01               0
GRID*              16978               01.2500000000E+00-6.538461538E-01+
*       -6.250000000E-02               0
GRID*              16979               01.2500000000E+00-7.275921311E-01+
*       -6.250000000E-02               0
GRID*              16980               01.2500000000E+00-8.045152080E-01+
*       -6.250000000E-02               0
GRID*              16981               01.2500000000E+00-8.765859919E-01+
*       -1.875000000E-01               0
GRID*              16982               01.2500000000E+00-8.349473537E-01+
*       -1.250000000E-01               0
GRID*              16983               01.2500000000E+00-9.535090688E-01+
*       -1.875000000E-01               0
GRID*              16984               01.2500000000E+00-9.535090688E-01+
*       -1.250000000E-01               0
GRID*              16985               01.2500000000E+00-8.765859919E-01+
*       -6.250000000E-02               0
GRID*              16986               01.2500000000E+00-9.535090688E-01+
*       -6.250000000E-02               0
GRID*              16987               0-1.250000000E+00-1.000000000E+00+
*       -1.250000000E-01               0
GRID*              16988               0-1.250000000E+00-1.000000000E+00+
*       -1.875000000E-01               0
GRID*              16989               0-1.250000000E+00-1.000000000E+00+
*       -6.250000000E-02               0
GRID*              16990               0-1.250000000E+00-8.461538462E-01+
*       -2.500000000E-01               0
GRID*              16991               0-1.250000000E+00-6.923076923E-01+
*       -2.500000000E-01               0
GRID*              16992               0-1.250000000E+00-5.384615385E-01+
*       -2.500000000E-01               0
GRID*              16993               0-1.250000000E+00-3.846153846E-01+
*       -2.500000000E-01               0
GRID*              16994               0-1.250000000E+00-2.307692308E-01+
*       -2.500000000E-01               0
GRID*              16995               0-1.250000000E+00-7.692307692E-02+
*       -2.500000000E-01               0
GRID*              16996               0-1.250000000E+007.6923076923E-02+
*       -2.500000000E-01               0
GRID*              16997               0-1.250000000E+002.3076923077E-01+
*       -2.500000000E-01               0
GRID*              16998               0-1.250000000E+003.8461538462E-01+
*       -2.500000000E-01               0
GRID*              16999               0-1.250000000E+005.3846153846E-01+
*       -2.500000000E-01               0
GRID*              17000               0-1.250000000E+006.9230769231E-01+
*       -2.500000000E-01               0
GRID*              17001               0-1.250000000E+008.4615384615E-01+
*       -2.500000000E-01               0
GRID*              17002               0-1.250000000E+000.0000000000E+00+
*       -2.500000000E-01               0
GRID*              17003               0-1.250000000E+001.5384615385E-01+
*       -2.500000000E-01               0
GRID*              17004               0-1.250000000E+003.0769230769E-01+
*       -2.500000000E-01               0
GRID*              17005               0-1.250000000E+004.6153846154E-01+
*       -2.500000000E-01               0
GRID*              17006               0-1.250000000E+006.1538461538E-01+
*       -2.500000000E-01               0
GRID*              17007               0-1.250000000E+007.6923076923E-01+
*       -2.500000000E-01               0
GRID*              17008               0-1.250000000E+009.2307692308E-01+
*       -2.500000000E-01               0
GRID*              17009               0-1.250000000E+00-1.538461538E-01+
*       -2.500000000E-01               0
GRID*              17010               0-1.250000000E+00-3.076923077E-01+
*       -2.500000000E-01               0
GRID*              17011               0-1.250000000E+00-4.615384615E-01+
*       -2.500000000E-01               0
GRID*              17012               0-1.250000000E+00-6.153846154E-01+
*       -2.500000000E-01               0
GRID*              17013               0-1.250000000E+00-7.692307692E-01+
*       -2.500000000E-01               0
GRID*              17014               0-1.250000000E+00-9.230769231E-01+
*       -2.500000000E-01               0
GRID*              17015               0-1.250000000E+008.4615384615E-01+
*       0.0000000000E+00               0
GRID*              17016               0-1.250000000E+006.9230769231E-01+
*       0.0000000000E+00               0
GRID*              17017               0-1.250000000E+005.3846153846E-01+
*       0.0000000000E+00               0
GRID*              17018               0-1.250000000E+003.8461538462E-01+
*       0.0000000000E+00               0
GRID*              17019               0-1.250000000E+002.3076923077E-01+
*       0.0000000000E+00               0
GRID*              17020               0-1.250000000E+007.6923076923E-02+
*       0.0000000000E+00               0
GRID*              17021               0-1.250000000E+00-7.692307692E-02+
*       0.0000000000E+00               0
GRID*              17022               0-1.250000000E+00-2.307692308E-01+
*       0.0000000000E+00               0
GRID*              17023               0-1.250000000E+00-3.846153846E-01+
*       0.0000000000E+00               0
GRID*              17024               0-1.250000000E+00-5.384615385E-01+
*       0.0000000000E+00               0
GRID*              17025               0-1.250000000E+00-6.923076923E-01+
*       0.0000000000E+00               0
GRID*              17026               0-1.250000000E+00-8.461538462E-01+
*       0.0000000000E+00               0
GRID*              17027               0-1.250000000E+001.5384615385E-01+
*       0.0000000000E+00               0
GRID*              17028               0-1.250000000E+003.0769230769E-01+
*       0.0000000000E+00               0
GRID*              17029               0-1.250000000E+004.6153846154E-01+
*       0.0000000000E+00               0
GRID*              17030               0-1.250000000E+006.1538461538E-01+
*       0.0000000000E+00               0
GRID*              17031               0-1.250000000E+007.6923076923E-01+
*       0.0000000000E+00               0
GRID*              17032               0-1.250000000E+009.2307692308E-01+
*       0.0000000000E+00               0
GRID*              17033               0-1.250000000E+000.0000000000E+00+
*       0.0000000000E+00               0
GRID*              17034               0-1.250000000E+00-1.538461538E-01+
*       0.0000000000E+00               0
GRID*              17035               0-1.250000000E+00-3.076923077E-01+
*       0.0000000000E+00               0
GRID*              17036               0-1.250000000E+00-4.615384615E-01+
*       0.0000000000E+00               0
GRID*              17037               0-1.250000000E+00-6.153846154E-01+
*       0.0000000000E+00               0
GRID*              17038               0-1.250000000E+00-7.692307692E-01+
*       0.0000000000E+00               0
GRID*              17039               0-1.250000000E+00-9.230769231E-01+
*       0.0000000000E+00               0
GRID*              17040               0-1.250000000E+001.0000000000E+00+
*       -1.250000000E-01               0
GRID*              17041               0-1.250000000E+001.0000000000E+00+
*       -6.250000000E-02               0
GRID*              17042               0-1.250000000E+001.0000000000E+00+
*       -1.875000000E-01               0
GRID*              17043               0-9.166666667E-01-1.000000000E+00+
*       0.0000000000E+00               0
GRID*              17044               0-1.083333333E+00-1.000000000E+00+
*       0.0000000000E+00               0
GRID*              17045               0-8.333333333E-01-1.000000000E+00+
*       0.0000000000E+00               0
GRID*              17046               0-1.166666667E+00-1.000000000E+00+
*       0.0000000000E+00               0
GRID*              17047               0-1.000000000E+00-1.000000000E+00+
*       0.0000000000E+00               0
GRID*              17048               0-1.073512684E+00-6.489019959E-01+
*       0.0000000000E+00               0
GRID*              17049               0-1.118885024E+00-7.113820155E-01+
*       0.0000000000E+00               0
GRID*              17050               0-1.118862471E+00-7.886872935E-01+
*       0.0000000000E+00               0
GRID*              17051               0-1.073453612E+00-8.511409296E-01+
*       0.0000000000E+00               0
GRID*              17052               0-9.999270805E-01-8.749999787E-01+
*       0.0000000000E+00               0
GRID*              17053               0-9.265097154E-01-8.511137077E-01+
*       0.0000000000E+00               0
GRID*              17054               0-8.810994640E-01-7.885686780E-01+
*       0.0000000000E+00               0
GRID*              17055               0-8.811220360E-01-7.113618176E-01+
*       0.0000000000E+00               0
GRID*              17056               0-9.265687998E-01-6.488433532E-01+
*       0.0000000000E+00               0
GRID*              17057               0-9.614002511E-01-6.311092117E-01+
*       0.0000000000E+00               0
GRID*              17058               0-1.038655750E+00-6.311278773E-01+
*       0.0000000000E+00               0
GRID*              17059               0-1.101144348E+00-6.765505915E-01+
*       0.0000000000E+00               0
GRID*              17060               0-1.124999995E+00-7.500365399E-01+
*       0.0000000000E+00               0
GRID*              17061               0-1.101101446E+00-8.235083944E-01+
*       0.0000000000E+00               0
GRID*              17062               0-1.038586211E+00-8.688946706E-01+
*       0.0000000000E+00               0
GRID*              17063               0-9.613308506E-01-8.688682486E-01+
*       0.0000000000E+00               0
GRID*              17064               0-8.988507090E-01-8.234401925E-01+
*       0.0000000000E+00               0
GRID*              17065               0-8.750000053E-01-7.499635035E-01+
*       0.0000000000E+00               0
GRID*              17066               0-8.988936575E-01-6.765006403E-01+
*       0.0000000000E+00               0
GRID*              17067               0-1.073512686E+008.5109799441E-01+
*       0.0000000000E+00               0
GRID*              17068               0-1.118885018E+007.8861795397E-01+
*       0.0000000000E+00               0
GRID*              17069               0-1.118862478E+007.1131267590E-01+
*       0.0000000000E+00               0
GRID*              17070               0-1.073453610E+006.4885906086E-01+
*       0.0000000000E+00               0
GRID*              17071               0-9.999270805E-016.2500002128E-01+
*       0.0000000000E+00               0
GRID*              17072               0-9.265096992E-016.4888628234E-01+
*       0.0000000000E+00               0
GRID*              17073               0-8.810994643E-017.1143130891E-01+
*       0.0000000000E+00               0
GRID*              17074               0-8.811220357E-017.8863816925E-01+
*       0.0000000000E+00               0
GRID*              17075               0-9.265688159E-018.5115663699E-01+
*       0.0000000000E+00               0
GRID*              17076               0-9.614002460E-018.6889080268E-01+
*       0.0000000000E+00               0
GRID*              17077               0-1.038655737E+008.6887207295E-01+
*       0.0000000000E+00               0
GRID*              17078               0-1.101144331E+008.2344937304E-01+
*       0.0000000000E+00               0
GRID*              17079               0-1.124999995E+007.4996343276E-01+
*       0.0000000000E+00               0
GRID*              17080               0-1.101101463E+006.7649157015E-01+
*       0.0000000000E+00               0
GRID*              17081               0-1.038586223E+006.3110527960E-01+
*       0.0000000000E+00               0
GRID*              17082               0-9.613308558E-016.3113176598E-01+
*       0.0000000000E+00               0
GRID*              17083               0-8.988506834E-016.7655978315E-01+
*       0.0000000000E+00               0
GRID*              17084               0-8.750000053E-017.5003648532E-01+
*       0.0000000000E+00               0
GRID*              17085               0-8.988936831E-018.2349933533E-01+
*       0.0000000000E+00               0
GRID*              17086               0-9.166666667E-011.0000000000E+00+
*       0.0000000000E+00               0
GRID*              17087               0-1.083333333E+001.0000000000E+00+
*       0.0000000000E+00               0
GRID*              17088               0-1.166666667E+001.0000000000E+00+
*       0.0000000000E+00               0
GRID*              17089               0-8.333333333E-011.0000000000E+00+
*       0.0000000000E+00               0
GRID*              17090               0-1.000000000E+001.0000000000E+00+
*       0.0000000000E+00               0
GRID*              17091               0-7.500000000E-01-1.000000000E+00+
*       1.5000000000E-01               0
GRID*              17092               0-7.500000000E-01-1.000000000E+00+
*       3.0000000000E-01               0
GRID*              17093               0-7.500000000E-01-1.000000000E+00+
*       4.5000000000E-01               0
GRID*              17094               0-7.500000000E-01-1.000000000E+00+
*       6.0000000000E-01               0
GRID*              17095               0-7.500000000E-01-1.000000000E+00+
*       5.2500000000E-01               0
GRID*              17096               0-7.500000000E-01-1.000000000E+00+
*       2.2500000000E-01               0
GRID*              17097               0-7.500000000E-01-1.000000000E+00+
*       3.7500000000E-01               0
GRID*              17098               0-7.500000000E-01-1.000000000E+00+
*       6.7500000000E-01               0
GRID*              17099               0-7.500000000E-01-1.000000000E+00+
*       7.5000000000E-02               0
GRID*              17100               0-7.500000000E-013.6460595177E-01+
*       8.5705795470E-01               0
GRID*              17101               0-7.500000000E-013.1967620509E-01+
*       9.5544343782E-01               0
GRID*              17102               0-7.500000000E-012.4884628754E-01+
*       1.0371838789E+00               0
GRID*              17103               0-7.500000000E-011.5785746644E-01+
*       1.0956596942E+00               0
GRID*              17104               0-7.500000000E-015.4079551342E-02+
*       1.1261312407E+00               0
GRID*              17105               0-7.500000000E-01-5.407953998E-02+
*       1.1261312423E+00               0
GRID*              17106               0-7.500000000E-01-1.578574560E-01+
*       1.0956596989E+00               0
GRID*              17107               0-7.500000000E-01-2.488462789E-01+
*       1.0371838864E+00               0
GRID*              17108               0-7.500000000E-01-3.196761989E-01+
*       9.5544344747E-01               0
GRID*              17109               0-7.500000000E-01-3.646059485E-01+
*       8.5705796572E-01               0
GRID*              17110               0-7.500000000E-01-3.799999952E-01+
*       7.5000001148E-01               0
GRID*              17111               0-7.500000000E-01-3.646059550E-01+
*       6.4294205631E-01               0
GRID*              17112               0-7.500000000E-01-3.196762176E-01+
*       5.4455656836E-01               0
GRID*              17113               0-7.500000000E-01-2.488462817E-01+
*       4.6281614231E-01               0
GRID*              17114               0-7.500000000E-01-1.578574709E-01+
*       4.0434030962E-01               0
GRID*              17115               0-7.500000000E-01-5.407954898E-02+
*       3.7386878332E-01               0
GRID*              17116               0-7.500000000E-015.4079537616E-02+
*       3.7386878169E-01               0
GRID*              17117               0-7.500000000E-011.5785746047E-01+
*       4.0434030485E-01               0
GRID*              17118               0-7.500000000E-012.4884627304E-01+
*       4.6281613479E-01               0
GRID*              17119               0-7.500000000E-013.1967621137E-01+
*       5.4455655870E-01               0
GRID*              17120               0-7.500000000E-013.6460595177E-01+
*       6.4294204530E-01               0
GRID*              17121               0-7.500000000E-01-5.740210959E-09+
*       3.7000000477E-01               0
GRID*              17122               0-7.500000000E-011.0705794937E-01+
*       3.8539406180E-01               0
GRID*              17123               0-7.500000000E-013.4565969979E-01+
*       5.9214253703E-01               0
GRID*              17124               0-7.500000000E-012.0544344148E-01+
*       4.3032378805E-01               0
GRID*              17125               0-7.500000000E-012.8718386592E-01+
*       5.0115372641E-01               0
GRID*              17126               0-7.500000000E-011.0705795966E-01+
*       1.1146059523E+00               0
GRID*              17127               0-7.500000000E-012.0544345410E-01+
*       1.0696762235E+00               0
GRID*              17128               0-7.500000000E-012.8718387298E-01+
*       9.9884628154E-01               0
GRID*              17129               0-7.500000000E-013.4565969945E-01+
*       9.0785746280E-01               0
GRID*              17130               0-7.500000000E-013.7613123756E-01+
*       8.0407954528E-01               0
GRID*              17131               0-7.500000000E-013.7613123756E-01+
*       6.9592045472E-01               0
GRID*              17132               0-7.500000000E-01-2.871838734E-01+
*       5.0115373508E-01               0
GRID*              17133               0-7.500000000E-01-2.054434511E-01+
*       4.3032379426E-01               0
GRID*              17134               0-7.500000000E-01-1.070579604E-01+
*       3.8539406504E-01               0
GRID*              17135               0-7.500000000E-01-3.761312359E-01+
*       8.0407955664E-01               0
GRID*              17136               0-7.500000000E-01-3.761312392E-01+
*       6.9592046608E-01               0
GRID*              17137               0-7.500000000E-01-3.456597046E-01+
*       5.9214254748E-01               0
GRID*              17138               0-7.500000000E-015.7402187587E-09+
*       1.1299999952E+00               0
GRID*              17139               0-7.500000000E-01-1.070579486E-01+
*       1.1146059556E+00               0
GRID*              17140               0-7.500000000E-01-2.054434444E-01+
*       1.0696762297E+00               0
GRID*              17141               0-7.500000000E-01-2.871838655E-01+
*       9.9884629022E-01               0
GRID*              17142               0-7.500000000E-01-3.456596947E-01+
*       9.0785747325E-01               0
GRID*              17143               0-7.500000000E-018.4615384615E-01+
*       0.0000000000E+00               0
GRID*              17144               0-7.500000000E-016.9230769231E-01+
*       0.0000000000E+00               0
GRID*              17145               0-7.500000000E-015.3846153846E-01+
*       0.0000000000E+00               0
GRID*              17146               0-7.500000000E-013.8461538462E-01+
*       0.0000000000E+00               0
GRID*              17147               0-7.500000000E-012.3076923077E-01+
*       0.0000000000E+00               0
GRID*              17148               0-7.500000000E-017.6923076923E-02+
*       0.0000000000E+00               0
GRID*              17149               0-7.500000000E-01-7.692307692E-02+
*       0.0000000000E+00               0
GRID*              17150               0-7.500000000E-01-2.307692308E-01+
*       0.0000000000E+00               0
GRID*              17151               0-7.500000000E-01-3.846153846E-01+
*       0.0000000000E+00               0
GRID*              17152               0-7.500000000E-01-5.384615385E-01+
*       0.0000000000E+00               0
GRID*              17153               0-7.500000000E-01-6.923076923E-01+
*       0.0000000000E+00               0
GRID*              17154               0-7.500000000E-01-8.461538462E-01+
*       0.0000000000E+00               0
GRID*              17155               0-7.500000000E-019.2307692308E-01+
*       0.0000000000E+00               0
GRID*              17156               0-7.500000000E-01-9.230769231E-01+
*       0.0000000000E+00               0
GRID*              17157               0-7.500000000E-01-7.692307692E-01+
*       0.0000000000E+00               0
GRID*              17158               0-7.500000000E-01-4.615384615E-01+
*       0.0000000000E+00               0
GRID*              17159               0-7.500000000E-01-6.153846154E-01+
*       0.0000000000E+00               0
GRID*              17160               0-7.500000000E-016.1538461538E-01+
*       0.0000000000E+00               0
GRID*              17161               0-7.500000000E-013.0769230769E-01+
*       0.0000000000E+00               0
GRID*              17162               0-7.500000000E-014.6153846154E-01+
*       0.0000000000E+00               0
GRID*              17163               0-7.500000000E-01-3.076923077E-01+
*       0.0000000000E+00               0
GRID*              17164               0-7.500000000E-011.5384615385E-01+
*       0.0000000000E+00               0
GRID*              17165               0-7.500000000E-010.0000000000E+00+
*       0.0000000000E+00               0
GRID*              17166               0-7.500000000E-01-1.538461538E-01+
*       0.0000000000E+00               0
GRID*              17167               0-7.500000000E-017.6923076923E-01+
*       0.0000000000E+00               0
GRID*              17168               0-7.500000000E-01-9.888305326E-01+
*       8.9904221506E-01               0
GRID*              17169               0-7.500000000E-01-9.555723009E-01+
*       1.0447550156E+00               0
GRID*              17170               0-7.500000000E-01-9.009685140E-01+
*       1.1838835754E+00               0
GRID*              17171               0-7.500000000E-01-8.262387843E-01+
*       1.3133200653E+00               0
GRID*              17172               0-7.500000000E-01-7.330517075E-01+
*       1.4301725749E+00               0
GRID*              17173               0-7.500000000E-01-6.234894842E-01+
*       1.5318310740E+00               0
GRID*              17174               0-7.500000000E-01-4.999997604E-01+
*       1.6160250018E+00               0
GRID*              17175               0-7.500000000E-01-3.653410032E-01+
*       1.6808737093E+00               0
GRID*              17176               0-7.500000000E-01-2.225208981E-01+
*       1.7249277485E+00               0
GRID*              17177               0-7.500000000E-01-7.473006491E-02+
*       1.7472033362E+00               0
GRID*              17178               0-7.500000000E-017.4730064908E-02+
*       1.7472033362E+00               0
GRID*              17179               0-7.500000000E-012.2252089812E-01+
*       1.7249277485E+00               0
GRID*              17180               0-7.500000000E-013.6534100315E-01+
*       1.6808737093E+00               0
GRID*              17181               0-7.500000000E-014.9999976045E-01+
*       1.6160250018E+00               0
GRID*              17182               0-7.500000000E-016.2348948419E-01+
*       1.5318310740E+00               0
GRID*              17183               0-7.500000000E-017.3305170754E-01+
*       1.4301725749E+00               0
GRID*              17184               0-7.500000000E-018.2623878432E-01+
*       1.3133200653E+00               0
GRID*              17185               0-7.500000000E-019.0096851398E-01+
*       1.1838835754E+00               0
GRID*              17186               0-7.500000000E-019.5557230092E-01+
*       1.0447550156E+00               0
GRID*              17187               0-7.500000000E-019.8883053259E-01+
*       8.9904221506E-01               0
GRID*              17188               0-7.500000000E-019.3087370000E-01+
*       1.1153409991E+00               0
GRID*              17189               0-7.500000000E-019.7492780711E-01+
*       9.7252091614E-01               0
GRID*              17190               0-7.500000000E-018.6602501503E-01+
*       1.2499997670E+00               0
GRID*              17191               0-7.500000000E-017.8183106297E-01+
*       1.3734894687E+00               0
GRID*              17192               0-7.500000000E-015.6332004891E-01+
*       1.5762387550E+00               0
GRID*              17193               0-7.500000000E-016.8017260185E-01+
*       1.4830517355E+00               0
GRID*              17194               0-7.500000000E-019.9720329622E-01+
*       8.2473006249E-01               0
GRID*              17195               0-7.500000000E-01-5.633200489E-01+
*       1.5762387550E+00               0
GRID*              17196               0-7.500000000E-01-6.801726019E-01+
*       1.4830517355E+00               0
GRID*              17197               0-7.500000000E-012.9475500698E-01+
*       1.7055722694E+00               0
GRID*              17198               0-7.500000000E-014.3388357169E-01+
*       1.6509685062E+00               0
GRID*              17199               0-7.500000000E-011.4904221538E-01+
*       1.7388305739E+00               0
GRID*              17200               0-7.500000000E-01-4.338835717E-01+
*       1.6509685062E+00               0
GRID*              17201               0-7.500000000E-010.0000000000E+00+
*       1.7500000000E+00               0
GRID*              17202               0-7.500000000E-01-1.490422154E-01+
*       1.7388305739E+00               0
GRID*              17203               0-7.500000000E-01-2.947550070E-01+
*       1.7055722694E+00               0
GRID*              17204               0-7.500000000E-01-9.972032962E-01+
*       8.2473006249E-01               0
GRID*              17205               0-7.500000000E-01-9.749278071E-01+
*       9.7252091614E-01               0
GRID*              17206               0-7.500000000E-01-7.818310630E-01+
*       1.3734894687E+00               0
GRID*              17207               0-7.500000000E-01-9.308737000E-01+
*       1.1153409991E+00               0
GRID*              17208               0-7.500000000E-01-8.660250150E-01+
*       1.2499997670E+00               0
GRID*              17209               0-7.500000000E-011.0000000000E+00+
*       6.0000000000E-01               0
GRID*              17210               0-7.500000000E-011.0000000000E+00+
*       4.5000000000E-01               0
GRID*              17211               0-7.500000000E-011.0000000000E+00+
*       3.0000000000E-01               0
GRID*              17212               0-7.500000000E-011.0000000000E+00+
*       1.5000000000E-01               0
GRID*              17213               0-7.500000000E-011.0000000000E+00+
*       6.7500000000E-01               0
GRID*              17214               0-7.500000000E-011.0000000000E+00+
*       5.2500000000E-01               0
GRID*              17215               0-7.500000000E-011.0000000000E+00+
*       7.5000000000E-02               0
GRID*              17216               0-7.500000000E-011.0000000000E+00+
*       2.2500000000E-01               0
GRID*              17217               0-7.500000000E-011.0000000000E+00+
*       3.7500000000E-01               0
GRID*              17218               0-6.250000000E-01-1.000000000E+00+
*       7.5000000000E-01               0
GRID*              17219               0-6.875000000E-01-1.000000000E+00+
*       7.5000000000E-01               0
GRID*              17220               0-5.625000000E-01-1.000000000E+00+
*       7.5000000000E-01               0
GRID*              17221               0-6.250000000E-011.0000000000E+00+
*       7.5000000000E-01               0
GRID*              17222               0-6.875000000E-011.0000000000E+00+
*       7.5000000000E-01               0
GRID*              17223               0-5.625000000E-011.0000000000E+00+
*       7.5000000000E-01               0
GRID*              17224               0-5.000000000E-01-1.000000000E+00+
*       1.5000000000E-01               0
GRID*              17225               0-5.000000000E-01-1.000000000E+00+
*       3.0000000000E-01               0
GRID*              17226               0-5.000000000E-01-1.000000000E+00+
*       4.5000000000E-01               0
GRID*              17227               0-5.000000000E-01-1.000000000E+00+
*       6.0000000000E-01               0
GRID*              17228               0-5.000000000E-01-1.000000000E+00+
*       6.7500000000E-01               0
GRID*              17229               0-5.000000000E-01-1.000000000E+00+
*       5.2500000000E-01               0
GRID*              17230               0-5.000000000E-01-1.000000000E+00+
*       7.5000000000E-02               0
GRID*              17231               0-5.000000000E-01-1.000000000E+00+
*       2.2500000000E-01               0
GRID*              17232               0-5.000000000E-01-1.000000000E+00+
*       3.7500000000E-01               0
GRID*              17233               0-5.000000000E-013.6460595177E-01+
*       8.5705795470E-01               0
GRID*              17234               0-5.000000000E-013.1967620509E-01+
*       9.5544343782E-01               0
GRID*              17235               0-5.000000000E-012.4884628754E-01+
*       1.0371838789E+00               0
GRID*              17236               0-5.000000000E-011.5785746644E-01+
*       1.0956596942E+00               0
GRID*              17237               0-5.000000000E-015.4079551342E-02+
*       1.1261312407E+00               0
GRID*              17238               0-5.000000000E-01-5.407953998E-02+
*       1.1261312423E+00               0
GRID*              17239               0-5.000000000E-01-1.578574560E-01+
*       1.0956596989E+00               0
GRID*              17240               0-5.000000000E-01-2.488462789E-01+
*       1.0371838864E+00               0
GRID*              17241               0-5.000000000E-01-3.196761989E-01+
*       9.5544344747E-01               0
GRID*              17242               0-5.000000000E-01-3.646059485E-01+
*       8.5705796572E-01               0
GRID*              17243               0-5.000000000E-01-3.799999952E-01+
*       7.5000001148E-01               0
GRID*              17244               0-5.000000000E-01-3.646059550E-01+
*       6.4294205631E-01               0
GRID*              17245               0-5.000000000E-01-3.196762176E-01+
*       5.4455656836E-01               0
GRID*              17246               0-5.000000000E-01-2.488462817E-01+
*       4.6281614231E-01               0
GRID*              17247               0-5.000000000E-01-1.578574709E-01+
*       4.0434030962E-01               0
GRID*              17248               0-5.000000000E-01-5.407954898E-02+
*       3.7386878332E-01               0
GRID*              17249               0-5.000000000E-015.4079537616E-02+
*       3.7386878169E-01               0
GRID*              17250               0-5.000000000E-011.5785746047E-01+
*       4.0434030485E-01               0
GRID*              17251               0-5.000000000E-012.4884627304E-01+
*       4.6281613479E-01               0
GRID*              17252               0-5.000000000E-013.1967621137E-01+
*       5.4455655870E-01               0
GRID*              17253               0-5.000000000E-013.6460595177E-01+
*       6.4294204530E-01               0
GRID*              17254               0-5.000000000E-013.7613123756E-01+
*       8.0407954528E-01               0
GRID*              17255               0-5.000000000E-013.4565969945E-01+
*       9.0785746280E-01               0
GRID*              17256               0-5.000000000E-012.8718387298E-01+
*       9.9884628154E-01               0
GRID*              17257               0-5.000000000E-012.0544345410E-01+
*       1.0696762235E+00               0
GRID*              17258               0-5.000000000E-011.0705795966E-01+
*       1.1146059523E+00               0
GRID*              17259               0-5.000000000E-015.7402187448E-09+
*       1.1299999952E+00               0
GRID*              17260               0-5.000000000E-01-1.070579486E-01+
*       1.1146059556E+00               0
GRID*              17261               0-5.000000000E-01-2.054434444E-01+
*       1.0696762297E+00               0
GRID*              17262               0-5.000000000E-01-2.871838655E-01+
*       9.9884629022E-01               0
GRID*              17263               0-5.000000000E-01-3.456596947E-01+
*       9.0785747325E-01               0
GRID*              17264               0-5.000000000E-01-3.761312359E-01+
*       8.0407955664E-01               0
GRID*              17265               0-5.000000000E-01-3.761312392E-01+
*       6.9592046608E-01               0
GRID*              17266               0-5.000000000E-01-3.456597046E-01+
*       5.9214254748E-01               0
GRID*              17267               0-5.000000000E-01-2.871838734E-01+
*       5.0115373508E-01               0
GRID*              17268               0-5.000000000E-01-2.054434511E-01+
*       4.3032379426E-01               0
GRID*              17269               0-5.000000000E-01-1.070579604E-01+
*       3.8539406504E-01               0
GRID*              17270               0-5.000000000E-01-5.740210959E-09+
*       3.7000000477E-01               0
GRID*              17271               0-5.000000000E-011.0705794937E-01+
*       3.8539406180E-01               0
GRID*              17272               0-5.000000000E-012.0544344148E-01+
*       4.3032378805E-01               0
GRID*              17273               0-5.000000000E-012.8718386592E-01+
*       5.0115372641E-01               0
GRID*              17274               0-5.000000000E-013.4565969979E-01+
*       5.9214253703E-01               0
GRID*              17275               0-5.000000000E-013.7613123756E-01+
*       6.9592045472E-01               0
GRID*              17276               0-5.000000000E-018.4615384615E-01+
*       0.0000000000E+00               0
GRID*              17277               0-5.000000000E-016.9230769231E-01+
*       0.0000000000E+00               0
GRID*              17278               0-5.000000000E-015.3846153846E-01+
*       0.0000000000E+00               0
GRID*              17279               0-5.000000000E-013.8461538462E-01+
*       0.0000000000E+00               0
GRID*              17280               0-5.000000000E-012.3076923077E-01+
*       0.0000000000E+00               0
GRID*              17281               0-5.000000000E-017.6923076923E-02+
*       0.0000000000E+00               0
GRID*              17282               0-5.000000000E-01-7.692307692E-02+
*       0.0000000000E+00               0
GRID*              17283               0-5.000000000E-01-2.307692308E-01+
*       0.0000000000E+00               0
GRID*              17284               0-5.000000000E-01-3.846153846E-01+
*       0.0000000000E+00               0
GRID*              17285               0-5.000000000E-01-5.384615385E-01+
*       0.0000000000E+00               0
GRID*              17286               0-5.000000000E-01-6.923076923E-01+
*       0.0000000000E+00               0
GRID*              17287               0-5.000000000E-01-8.461538462E-01+
*       0.0000000000E+00               0
GRID*              17288               0-5.000000000E-01-3.076923077E-01+
*       0.0000000000E+00               0
GRID*              17289               0-5.000000000E-01-1.538461538E-01+
*       0.0000000000E+00               0
GRID*              17290               0-5.000000000E-01-4.615384615E-01+
*       0.0000000000E+00               0
GRID*              17291               0-5.000000000E-01-7.692307692E-01+
*       0.0000000000E+00               0
GRID*              17292               0-5.000000000E-01-6.153846154E-01+
*       0.0000000000E+00               0
GRID*              17293               0-5.000000000E-01-9.230769231E-01+
*       0.0000000000E+00               0
GRID*              17294               0-5.000000000E-014.6153846154E-01+
*       0.0000000000E+00               0
GRID*              17295               0-5.000000000E-013.0769230769E-01+
*       0.0000000000E+00               0
GRID*              17296               0-5.000000000E-011.5384615385E-01+
*       0.0000000000E+00               0
GRID*              17297               0-5.000000000E-010.0000000000E+00+
*       0.0000000000E+00               0
GRID*              17298               0-5.000000000E-016.1538461538E-01+
*       0.0000000000E+00               0
GRID*              17299               0-5.000000000E-017.6923076923E-01+
*       0.0000000000E+00               0
GRID*              17300               0-5.000000000E-019.2307692308E-01+
*       0.0000000000E+00               0
GRID*              17301               0-5.000000000E-01-9.888305326E-01+
*       8.9904221506E-01               0
GRID*              17302               0-5.000000000E-01-9.555723009E-01+
*       1.0447550156E+00               0
GRID*              17303               0-5.000000000E-01-9.009685140E-01+
*       1.1838835754E+00               0
GRID*              17304               0-5.000000000E-01-8.262387843E-01+
*       1.3133200653E+00               0
GRID*              17305               0-5.000000000E-01-7.330517075E-01+
*       1.4301725749E+00               0
GRID*              17306               0-5.000000000E-01-6.234894842E-01+
*       1.5318310740E+00               0
GRID*              17307               0-5.000000000E-01-4.999997604E-01+
*       1.6160250018E+00               0
GRID*              17308               0-5.000000000E-01-3.653410032E-01+
*       1.6808737093E+00               0
GRID*              17309               0-5.000000000E-01-2.225208981E-01+
*       1.7249277485E+00               0
GRID*              17310               0-5.000000000E-01-7.473006491E-02+
*       1.7472033362E+00               0
GRID*              17311               0-5.000000000E-017.4730064908E-02+
*       1.7472033362E+00               0
GRID*              17312               0-5.000000000E-012.2252089812E-01+
*       1.7249277485E+00               0
GRID*              17313               0-5.000000000E-013.6534100315E-01+
*       1.6808737093E+00               0
GRID*              17314               0-5.000000000E-014.9999976045E-01+
*       1.6160250018E+00               0
GRID*              17315               0-5.000000000E-016.2348948419E-01+
*       1.5318310740E+00               0
GRID*              17316               0-5.000000000E-017.3305170754E-01+
*       1.4301725749E+00               0
GRID*              17317               0-5.000000000E-018.2623878432E-01+
*       1.3133200653E+00               0
GRID*              17318               0-5.000000000E-019.0096851398E-01+
*       1.1838835754E+00               0
GRID*              17319               0-5.000000000E-019.5557230092E-01+
*       1.0447550156E+00               0
GRID*              17320               0-5.000000000E-019.8883053259E-01+
*       8.9904221506E-01               0
GRID*              17321               0-5.000000000E-019.7492780711E-01+
*       9.7252091614E-01               0
GRID*              17322               0-5.000000000E-019.9720329622E-01+
*       8.2473006249E-01               0
GRID*              17323               0-5.000000000E-019.3087370000E-01+
*       1.1153409991E+00               0
GRID*              17324               0-5.000000000E-018.6602501503E-01+
*       1.2499997670E+00               0
GRID*              17325               0-5.000000000E-017.8183106297E-01+
*       1.3734894687E+00               0
GRID*              17326               0-5.000000000E-016.8017260185E-01+
*       1.4830517355E+00               0
GRID*              17327               0-5.000000000E-015.6332004891E-01+
*       1.5762387550E+00               0
GRID*              17328               0-5.000000000E-014.3388357169E-01+
*       1.6509685062E+00               0
GRID*              17329               0-5.000000000E-01-9.749278071E-01+
*       9.7252091614E-01               0
GRID*              17330               0-5.000000000E-01-9.972032962E-01+
*       8.2473006249E-01               0
GRID*              17331               0-5.000000000E-01-9.308737000E-01+
*       1.1153409991E+00               0
GRID*              17332               0-5.000000000E-01-7.818310630E-01+
*       1.3734894687E+00               0
GRID*              17333               0-5.000000000E-01-8.660250150E-01+
*       1.2499997670E+00               0
GRID*              17334               0-5.000000000E-012.9475500698E-01+
*       1.7055722694E+00               0
GRID*              17335               0-5.000000000E-011.4904221538E-01+
*       1.7388305739E+00               0
GRID*              17336               0-5.000000000E-01-6.801726019E-01+
*       1.4830517355E+00               0
GRID*              17337               0-5.000000000E-010.0000000000E+00+
*       1.7500000000E+00               0
GRID*              17338               0-5.000000000E-01-5.633200489E-01+
*       1.5762387550E+00               0
GRID*              17339               0-5.000000000E-01-1.490422154E-01+
*       1.7388305739E+00               0
GRID*              17340               0-5.000000000E-01-4.338835717E-01+
*       1.6509685062E+00               0
GRID*              17341               0-5.000000000E-01-2.947550070E-01+
*       1.7055722694E+00               0
GRID*              17342               0-5.000000000E-011.0000000000E+00+
*       6.0000000000E-01               0
GRID*              17343               0-5.000000000E-011.0000000000E+00+
*       4.5000000000E-01               0
GRID*              17344               0-5.000000000E-011.0000000000E+00+
*       3.0000000000E-01               0
GRID*              17345               0-5.000000000E-011.0000000000E+00+
*       1.5000000000E-01               0
GRID*              17346               0-5.000000000E-011.0000000000E+00+
*       5.2500000000E-01               0
GRID*              17347               0-5.000000000E-011.0000000000E+00+
*       2.2500000000E-01               0
GRID*              17348               0-5.000000000E-011.0000000000E+00+
*       3.7500000000E-01               0
GRID*              17349               0-5.000000000E-011.0000000000E+00+
*       6.7500000000E-01               0
GRID*              17350               0-5.000000000E-011.0000000000E+00+
*       7.5000000000E-02               0
GRID*              17351               01.1029411765E+00-1.000000000E+00+
*       -2.500000000E-01               0
GRID*              17352               09.5588235294E-01-1.000000000E+00+
*       -2.500000000E-01               0
GRID*              17353               08.0882352941E-01-1.000000000E+00+
*       -2.500000000E-01               0
GRID*              17354               06.6176470588E-01-1.000000000E+00+
*       -2.500000000E-01               0
GRID*              17355               05.1470588235E-01-1.000000000E+00+
*       -2.500000000E-01               0
GRID*              17356               03.6764705882E-01-1.000000000E+00+
*       -2.500000000E-01               0
GRID*              17357               02.2058823529E-01-1.000000000E+00+
*       -2.500000000E-01               0
GRID*              17358               07.3529411765E-02-1.000000000E+00+
*       -2.500000000E-01               0
GRID*              17359               0-7.352941176E-02-1.000000000E+00+
*       -2.500000000E-01               0
GRID*              17360               0-2.205882353E-01-1.000000000E+00+
*       -2.500000000E-01               0
GRID*              17361               0-3.676470588E-01-1.000000000E+00+
*       -2.500000000E-01               0
GRID*              17362               0-5.147058824E-01-1.000000000E+00+
*       -2.500000000E-01               0
GRID*              17363               0-6.617647059E-01-1.000000000E+00+
*       -2.500000000E-01               0
GRID*              17364               0-8.088235294E-01-1.000000000E+00+
*       -2.500000000E-01               0
GRID*              17365               0-9.558823529E-01-1.000000000E+00+
*       -2.500000000E-01               0
GRID*              17366               0-1.102941176E+00-1.000000000E+00+
*       -2.500000000E-01               0
GRID*              17367               0-2.941176471E-01-1.000000000E+00+
*       -2.500000000E-01               0
GRID*              17368               0-4.411764706E-01-1.000000000E+00+
*       -2.500000000E-01               0
GRID*              17369               0-1.029411765E+00-1.000000000E+00+
*       -2.500000000E-01               0
GRID*              17370               0-1.176470588E+00-1.000000000E+00+
*       -2.500000000E-01               0
GRID*              17371               0-8.823529412E-01-1.000000000E+00+
*       -2.500000000E-01               0
GRID*              17372               0-7.352941176E-01-1.000000000E+00+
*       -2.500000000E-01               0
GRID*              17373               0-5.882352941E-01-1.000000000E+00+
*       -2.500000000E-01               0
GRID*              17374               0-1.470588235E-01-1.000000000E+00+
*       -2.500000000E-01               0
GRID*              17375               01.4705882353E-01-1.000000000E+00+
*       -2.500000000E-01               0
GRID*              17376               00.0000000000E+00-1.000000000E+00+
*       -2.500000000E-01               0
GRID*              17377               02.9411764706E-01-1.000000000E+00+
*       -2.500000000E-01               0
GRID*              17378               04.4117647059E-01-1.000000000E+00+
*       -2.500000000E-01               0
GRID*              17379               01.0294117647E+00-1.000000000E+00+
*       -2.500000000E-01               0
GRID*              17380               01.1764705882E+00-1.000000000E+00+
*       -2.500000000E-01               0
GRID*              17381               08.8235294118E-01-1.000000000E+00+
*       -2.500000000E-01               0
GRID*              17382               07.3529411765E-01-1.000000000E+00+
*       -2.500000000E-01               0
GRID*              17383               05.8823529412E-01-1.000000000E+00+
*       -2.500000000E-01               0
GRID*              17384               03.5714285714E-01-1.000000000E+00+
*       0.0000000000E+00               0
GRID*              17385               02.1428571429E-01-1.000000000E+00+
*       0.0000000000E+00               0
GRID*              17386               07.1428571429E-02-1.000000000E+00+
*       0.0000000000E+00               0
GRID*              17387               0-7.142857143E-02-1.000000000E+00+
*       0.0000000000E+00               0
GRID*              17388               0-2.142857143E-01-1.000000000E+00+
*       0.0000000000E+00               0
GRID*              17389               0-3.571428571E-01-1.000000000E+00+
*       0.0000000000E+00               0
GRID*              17390               0-4.285714286E-01-1.000000000E+00+
*       0.0000000000E+00               0
GRID*              17391               0-2.857142857E-01-1.000000000E+00+
*       0.0000000000E+00               0
GRID*              17392               02.8571428571E-01-1.000000000E+00+
*       0.0000000000E+00               0
GRID*              17393               01.4285714286E-01-1.000000000E+00+
*       0.0000000000E+00               0
GRID*              17394               00.0000000000E+00-1.000000000E+00+
*       0.0000000000E+00               0
GRID*              17395               0-1.428571429E-01-1.000000000E+00+
*       0.0000000000E+00               0
GRID*              17396               04.2857142857E-01-1.000000000E+00+
*       0.0000000000E+00               0
GRID*              17397               01.1029411765E+001.0000000000E+00+
*       -2.500000000E-01               0
GRID*              17398               09.5588235294E-011.0000000000E+00+
*       -2.500000000E-01               0
GRID*              17399               08.0882352941E-011.0000000000E+00+
*       -2.500000000E-01               0
GRID*              17400               06.6176470588E-011.0000000000E+00+
*       -2.500000000E-01               0
GRID*              17401               05.1470588235E-011.0000000000E+00+
*       -2.500000000E-01               0
GRID*              17402               03.6764705882E-011.0000000000E+00+
*       -2.500000000E-01               0
GRID*              17403               02.2058823529E-011.0000000000E+00+
*       -2.500000000E-01               0
GRID*              17404               07.3529411765E-021.0000000000E+00+
*       -2.500000000E-01               0
GRID*              17405               0-7.352941176E-021.0000000000E+00+
*       -2.500000000E-01               0
GRID*              17406               0-2.205882353E-011.0000000000E+00+
*       -2.500000000E-01               0
GRID*              17407               0-3.676470588E-011.0000000000E+00+
*       -2.500000000E-01               0
GRID*              17408               0-5.147058824E-011.0000000000E+00+
*       -2.500000000E-01               0
GRID*              17409               0-6.617647059E-011.0000000000E+00+
*       -2.500000000E-01               0
GRID*              17410               0-8.088235294E-011.0000000000E+00+
*       -2.500000000E-01               0
GRID*              17411               0-9.558823529E-011.0000000000E+00+
*       -2.500000000E-01               0
GRID*              17412               0-1.102941176E+001.0000000000E+00+
*       -2.500000000E-01               0
GRID*              17413               01.1764705882E+001.0000000000E+00+
*       -2.500000000E-01               0
GRID*              17414               07.3529411765E-011.0000000000E+00+
*       -2.500000000E-01               0
GRID*              17415               08.8235294118E-011.0000000000E+00+
*       -2.500000000E-01               0
GRID*              17416               01.0294117647E+001.0000000000E+00+
*       -2.500000000E-01               0
GRID*              17417               01.4705882353E-011.0000000000E+00+
*       -2.500000000E-01               0
GRID*              17418               02.9411764706E-011.0000000000E+00+
*       -2.500000000E-01               0
GRID*              17419               04.4117647059E-011.0000000000E+00+
*       -2.500000000E-01               0
GRID*              17420               05.8823529412E-011.0000000000E+00+
*       -2.500000000E-01               0
GRID*              17421               0-1.176470588E+001.0000000000E+00+
*       -2.500000000E-01               0
GRID*              17422               0-1.029411765E+001.0000000000E+00+
*       -2.500000000E-01               0
GRID*              17423               0-8.823529412E-011.0000000000E+00+
*       -2.500000000E-01               0
GRID*              17424               0-4.411764706E-011.0000000000E+00+
*       -2.500000000E-01               0
GRID*              17425               0-7.352941176E-011.0000000000E+00+
*       -2.500000000E-01               0
GRID*              17426               0-5.882352941E-011.0000000000E+00+
*       -2.500000000E-01               0
GRID*              17427               0-2.941176471E-011.0000000000E+00+
*       -2.500000000E-01               0
GRID*              17428               0-1.470588235E-011.0000000000E+00+
*       -2.500000000E-01               0
GRID*              17429               00.0000000000E+001.0000000000E+00+
*       -2.500000000E-01               0
GRID*              17430               03.5714285714E-011.0000000000E+00+
*       0.0000000000E+00               0
GRID*              17431               02.1428571429E-011.0000000000E+00+
*       0.0000000000E+00               0
GRID*              17432               07.1428571429E-021.0000000000E+00+
*       0.0000000000E+00               0
GRID*              17433               0-7.142857143E-021.0000000000E+00+
*       0.0000000000E+00               0
GRID*              17434               0-2.142857143E-011.0000000000E+00+
*       0.0000000000E+00               0
GRID*              17435               0-3.571428571E-011.0000000000E+00+
*       0.0000000000E+00               0
GRID*              17436               01.4285714286E-011.0000000000E+00+
*       0.0000000000E+00               0
GRID*              17437               02.8571428571E-011.0000000000E+00+
*       0.0000000000E+00               0
GRID*              17438               04.2857142857E-011.0000000000E+00+
*       0.0000000000E+00               0
GRID*              17439               0-4.285714286E-011.0000000000E+00+
*       0.0000000000E+00               0
GRID*              17440               0-2.857142857E-011.0000000000E+00+
*       0.0000000000E+00               0
GRID*              17441               00.0000000000E+001.0000000000E+00+
*       0.0000000000E+00               0
GRID*              17442               0-1.428571429E-011.0000000000E+00+
*       0.0000000000E+00               0
GRID*              17443               05.0000000000E-01-1.000000000E+00+
*       1.5000000000E-01               0
GRID*              17444               05.0000000000E-01-1.000000000E+00+
*       3.0000000000E-01               0
GRID*              17445               05.0000000000E-01-1.000000000E+00+
*       4.5000000000E-01               0
GRID*              17446               05.0000000000E-01-1.000000000E+00+
*       6.0000000000E-01               0
GRID*              17447               05.0000000000E-01-1.000000000E+00+
*       7.5000000000E-02               0
GRID*              17448               05.0000000000E-01-1.000000000E+00+
*       2.2500000000E-01               0
GRID*              17449               05.0000000000E-01-1.000000000E+00+
*       3.7500000000E-01               0
GRID*              17450               05.0000000000E-01-1.000000000E+00+
*       5.2500000000E-01               0
GRID*              17451               05.0000000000E-01-1.000000000E+00+
*       6.7500000000E-01               0
GRID*              17452               05.0000000000E-013.6460595177E-01+
*       8.5705795470E-01               0
GRID*              17453               05.0000000000E-013.1967620509E-01+
*       9.5544343782E-01               0
GRID*              17454               05.0000000000E-012.4884628754E-01+
*       1.0371838789E+00               0
GRID*              17455               05.0000000000E-011.5785746644E-01+
*       1.0956596942E+00               0
GRID*              17456               05.0000000000E-015.4079551342E-02+
*       1.1261312407E+00               0
GRID*              17457               05.0000000000E-01-5.407953998E-02+
*       1.1261312423E+00               0
GRID*              17458               05.0000000000E-01-1.578574560E-01+
*       1.0956596989E+00               0
GRID*              17459               05.0000000000E-01-2.488462789E-01+
*       1.0371838864E+00               0
GRID*              17460               05.0000000000E-01-3.196761989E-01+
*       9.5544344747E-01               0
GRID*              17461               05.0000000000E-01-3.646059485E-01+
*       8.5705796572E-01               0
GRID*              17462               05.0000000000E-01-3.799999952E-01+
*       7.5000001148E-01               0
GRID*              17463               05.0000000000E-01-3.646059550E-01+
*       6.4294205631E-01               0
GRID*              17464               05.0000000000E-01-3.196762176E-01+
*       5.4455656836E-01               0
GRID*              17465               05.0000000000E-01-2.488462817E-01+
*       4.6281614231E-01               0
GRID*              17466               05.0000000000E-01-1.578574709E-01+
*       4.0434030962E-01               0
GRID*              17467               05.0000000000E-01-5.407954898E-02+
*       3.7386878332E-01               0
GRID*              17468               05.0000000000E-015.4079537616E-02+
*       3.7386878169E-01               0
GRID*              17469               05.0000000000E-011.5785746047E-01+
*       4.0434030485E-01               0
GRID*              17470               05.0000000000E-012.4884627304E-01+
*       4.6281613479E-01               0
GRID*              17471               05.0000000000E-013.1967621137E-01+
*       5.4455655870E-01               0
GRID*              17472               05.0000000000E-013.6460595177E-01+
*       6.4294204530E-01               0
GRID*              17473               05.0000000000E-01-5.740210959E-09+
*       3.7000000477E-01               0
GRID*              17474               05.0000000000E-011.0705794937E-01+
*       3.8539406180E-01               0
GRID*              17475               05.0000000000E-013.4565969979E-01+
*       5.9214253703E-01               0
GRID*              17476               05.0000000000E-012.0544344148E-01+
*       4.3032378805E-01               0
GRID*              17477               05.0000000000E-012.8718386592E-01+
*       5.0115372641E-01               0
GRID*              17478               05.0000000000E-011.0705795966E-01+
*       1.1146059523E+00               0
GRID*              17479               05.0000000000E-012.0544345410E-01+
*       1.0696762235E+00               0
GRID*              17480               05.0000000000E-012.8718387298E-01+
*       9.9884628154E-01               0
GRID*              17481               05.0000000000E-013.4565969945E-01+
*       9.0785746280E-01               0
GRID*              17482               05.0000000000E-013.7613123756E-01+
*       8.0407954528E-01               0
GRID*              17483               05.0000000000E-013.7613123756E-01+
*       6.9592045472E-01               0
GRID*              17484               05.0000000000E-01-2.871838734E-01+
*       5.0115373508E-01               0
GRID*              17485               05.0000000000E-01-2.054434511E-01+
*       4.3032379426E-01               0
GRID*              17486               05.0000000000E-01-1.070579604E-01+
*       3.8539406504E-01               0
GRID*              17487               05.0000000000E-01-3.761312359E-01+
*       8.0407955664E-01               0
GRID*              17488               05.0000000000E-01-3.761312392E-01+
*       6.9592046608E-01               0
GRID*              17489               05.0000000000E-01-3.456597046E-01+
*       5.9214254748E-01               0
GRID*              17490               05.0000000000E-015.7402187587E-09+
*       1.1299999952E+00               0
GRID*              17491               05.0000000000E-01-1.070579486E-01+
*       1.1146059556E+00               0
GRID*              17492               05.0000000000E-01-2.054434444E-01+
*       1.0696762297E+00               0
GRID*              17493               05.0000000000E-01-2.871838655E-01+
*       9.9884629022E-01               0
GRID*              17494               05.0000000000E-01-3.456596947E-01+
*       9.0785747325E-01               0
GRID*              17495               05.0000000000E-018.4615384615E-01+
*       0.0000000000E+00               0
GRID*              17496               05.0000000000E-016.9230769231E-01+
*       0.0000000000E+00               0
GRID*              17497               05.0000000000E-015.3846153846E-01+
*       0.0000000000E+00               0
GRID*              17498               05.0000000000E-013.8461538462E-01+
*       0.0000000000E+00               0
GRID*              17499               05.0000000000E-012.3076923077E-01+
*       0.0000000000E+00               0
GRID*              17500               05.0000000000E-017.6923076923E-02+
*       0.0000000000E+00               0
GRID*              17501               05.0000000000E-01-7.692307692E-02+
*       0.0000000000E+00               0
GRID*              17502               05.0000000000E-01-2.307692308E-01+
*       0.0000000000E+00               0
GRID*              17503               05.0000000000E-01-3.846153846E-01+
*       0.0000000000E+00               0
GRID*              17504               05.0000000000E-01-5.384615385E-01+
*       0.0000000000E+00               0
GRID*              17505               05.0000000000E-01-6.923076923E-01+
*       0.0000000000E+00               0
GRID*              17506               05.0000000000E-01-8.461538462E-01+
*       0.0000000000E+00               0
GRID*              17507               05.0000000000E-01-3.076923077E-01+
*       0.0000000000E+00               0
GRID*              17508               05.0000000000E-01-6.153846154E-01+
*       0.0000000000E+00               0
GRID*              17509               05.0000000000E-01-4.615384615E-01+
*       0.0000000000E+00               0
GRID*              17510               05.0000000000E-01-7.692307692E-01+
*       0.0000000000E+00               0
GRID*              17511               05.0000000000E-01-9.230769231E-01+
*       0.0000000000E+00               0
GRID*              17512               05.0000000000E-01-1.538461538E-01+
*       0.0000000000E+00               0
GRID*              17513               05.0000000000E-011.5384615385E-01+
*       0.0000000000E+00               0
GRID*              17514               05.0000000000E-010.0000000000E+00+
*       0.0000000000E+00               0
GRID*              17515               05.0000000000E-013.0769230769E-01+
*       0.0000000000E+00               0
GRID*              17516               05.0000000000E-016.1538461538E-01+
*       0.0000000000E+00               0
GRID*              17517               05.0000000000E-014.6153846154E-01+
*       0.0000000000E+00               0
GRID*              17518               05.0000000000E-017.6923076923E-01+
*       0.0000000000E+00               0
GRID*              17519               05.0000000000E-019.2307692308E-01+
*       0.0000000000E+00               0
GRID*              17520               05.0000000000E-01-9.888305326E-01+
*       8.9904221506E-01               0
GRID*              17521               05.0000000000E-01-9.555723009E-01+
*       1.0447550156E+00               0
GRID*              17522               05.0000000000E-01-9.009685140E-01+
*       1.1838835754E+00               0
GRID*              17523               05.0000000000E-01-8.262387843E-01+
*       1.3133200653E+00               0
GRID*              17524               05.0000000000E-01-7.330517075E-01+
*       1.4301725749E+00               0
GRID*              17525               05.0000000000E-01-6.234894842E-01+
*       1.5318310740E+00               0
GRID*              17526               05.0000000000E-01-4.999997604E-01+
*       1.6160250018E+00               0
GRID*              17527               05.0000000000E-01-3.653410032E-01+
*       1.6808737093E+00               0
GRID*              17528               05.0000000000E-01-2.225208981E-01+
*       1.7249277485E+00               0
GRID*              17529               05.0000000000E-01-7.473006491E-02+
*       1.7472033362E+00               0
GRID*              17530               05.0000000000E-017.4730064908E-02+
*       1.7472033362E+00               0
GRID*              17531               05.0000000000E-012.2252089812E-01+
*       1.7249277485E+00               0
GRID*              17532               05.0000000000E-013.6534100315E-01+
*       1.6808737093E+00               0
GRID*              17533               05.0000000000E-014.9999976045E-01+
*       1.6160250018E+00               0
GRID*              17534               05.0000000000E-016.2348948419E-01+
*       1.5318310740E+00               0
GRID*              17535               05.0000000000E-017.3305170754E-01+
*       1.4301725749E+00               0
GRID*              17536               05.0000000000E-018.2623878432E-01+
*       1.3133200653E+00               0
GRID*              17537               05.0000000000E-019.0096851398E-01+
*       1.1838835754E+00               0
GRID*              17538               05.0000000000E-019.5557230092E-01+
*       1.0447550156E+00               0
GRID*              17539               05.0000000000E-019.8883053259E-01+
*       8.9904221506E-01               0
GRID*              17540               05.0000000000E-019.3087370000E-01+
*       1.1153409991E+00               0
GRID*              17541               05.0000000000E-019.7492780711E-01+
*       9.7252091614E-01               0
GRID*              17542               05.0000000000E-018.6602501503E-01+
*       1.2499997670E+00               0
GRID*              17543               05.0000000000E-017.8183106297E-01+
*       1.3734894687E+00               0
GRID*              17544               05.0000000000E-015.6332004891E-01+
*       1.5762387550E+00               0
GRID*              17545               05.0000000000E-016.8017260185E-01+
*       1.4830517355E+00               0
GRID*              17546               05.0000000000E-019.9720329622E-01+
*       8.2473006249E-01               0
GRID*              17547               05.0000000000E-01-5.633200489E-01+
*       1.5762387550E+00               0
GRID*              17548               05.0000000000E-01-6.801726019E-01+
*       1.4830517355E+00               0
GRID*              17549               05.0000000000E-012.9475500698E-01+
*       1.7055722694E+00               0
GRID*              17550               05.0000000000E-014.3388357169E-01+
*       1.6509685062E+00               0
GRID*              17551               05.0000000000E-011.4904221538E-01+
*       1.7388305739E+00               0
GRID*              17552               05.0000000000E-01-4.338835717E-01+
*       1.6509685062E+00               0
GRID*              17553               05.0000000000E-010.0000000000E+00+
*       1.7500000000E+00               0
GRID*              17554               05.0000000000E-01-1.490422154E-01+
*       1.7388305739E+00               0
GRID*              17555               05.0000000000E-01-2.947550070E-01+
*       1.7055722694E+00               0
GRID*              17556               05.0000000000E-01-9.972032962E-01+
*       8.2473006249E-01               0
GRID*              17557               05.0000000000E-01-9.749278071E-01+
*       9.7252091614E-01               0
GRID*              17558               05.0000000000E-01-7.818310630E-01+
*       1.3734894687E+00               0
GRID*              17559               05.0000000000E-01-9.308737000E-01+
*       1.1153409991E+00               0
GRID*              17560               05.0000000000E-01-8.660250150E-01+
*       1.2499997670E+00               0
GRID*              17561               05.0000000000E-011.0000000000E+00+
*       6.0000000000E-01               0
GRID*              17562               05.0000000000E-011.0000000000E+00+
*       4.5000000000E-01               0
GRID*              17563               05.0000000000E-011.0000000000E+00+
*       3.0000000000E-01               0
GRID*              17564               05.0000000000E-011.0000000000E+00+
*       1.5000000000E-01               0
GRID*              17565               05.0000000000E-011.0000000000E+00+
*       7.5000000000E-02               0
GRID*              17566               05.0000000000E-011.0000000000E+00+
*       2.2500000000E-01               0
GRID*              17567               05.0000000000E-011.0000000000E+00+
*       3.7500000000E-01               0
GRID*              17568               05.0000000000E-011.0000000000E+00+
*       5.2500000000E-01               0
GRID*              17569               05.0000000000E-011.0000000000E+00+
*       6.7500000000E-01               0
GRID*              17570               06.2500000000E-01-1.000000000E+00+
*       7.5000000000E-01               0
GRID*              17571               06.8750000000E-01-1.000000000E+00+
*       7.5000000000E-01               0
GRID*              17572               05.6250000000E-01-1.000000000E+00+
*       7.5000000000E-01               0
GRID*              17573               06.2500000000E-011.0000000000E+00+
*       7.5000000000E-01               0
GRID*              17574               05.6250000000E-011.0000000000E+00+
*       7.5000000000E-01               0
GRID*              17575               06.8750000000E-011.0000000000E+00+
*       7.5000000000E-01               0
GRID*              17576               07.5000000000E-01-1.000000000E+00+
*       1.5000000000E-01               0
GRID*              17577               07.5000000000E-01-1.000000000E+00+
*       3.0000000000E-01               0
GRID*              17578               07.5000000000E-01-1.000000000E+00+
*       4.5000000000E-01               0
GRID*              17579               07.5000000000E-01-1.000000000E+00+
*       6.0000000000E-01               0
GRID*              17580               07.5000000000E-01-1.000000000E+00+
*       7.5000000000E-02               0
GRID*              17581               07.5000000000E-01-1.000000000E+00+
*       2.2500000000E-01               0
GRID*              17582               07.5000000000E-01-1.000000000E+00+
*       3.7500000000E-01               0
GRID*              17583               07.5000000000E-01-1.000000000E+00+
*       5.2500000000E-01               0
GRID*              17584               07.5000000000E-01-1.000000000E+00+
*       6.7500000000E-01               0
GRID*              17585               07.5000000000E-013.6460595177E-01+
*       8.5705795470E-01               0
GRID*              17586               07.5000000000E-013.1967620509E-01+
*       9.5544343782E-01               0
GRID*              17587               07.5000000000E-012.4884628754E-01+
*       1.0371838789E+00               0
GRID*              17588               07.5000000000E-011.5785746644E-01+
*       1.0956596942E+00               0
GRID*              17589               07.5000000000E-015.4079551342E-02+
*       1.1261312407E+00               0
GRID*              17590               07.5000000000E-01-5.407953998E-02+
*       1.1261312423E+00               0
GRID*              17591               07.5000000000E-01-1.578574560E-01+
*       1.0956596989E+00               0
GRID*              17592               07.5000000000E-01-2.488462789E-01+
*       1.0371838864E+00               0
GRID*              17593               07.5000000000E-01-3.196761989E-01+
*       9.5544344747E-01               0
GRID*              17594               07.5000000000E-01-3.646059485E-01+
*       8.5705796572E-01               0
GRID*              17595               07.5000000000E-01-3.799999952E-01+
*       7.5000001148E-01               0
GRID*              17596               07.5000000000E-01-3.646059550E-01+
*       6.4294205631E-01               0
GRID*              17597               07.5000000000E-01-3.196762176E-01+
*       5.4455656836E-01               0
GRID*              17598               07.5000000000E-01-2.488462817E-01+
*       4.6281614231E-01               0
GRID*              17599               07.5000000000E-01-1.578574709E-01+
*       4.0434030962E-01               0
GRID*              17600               07.5000000000E-01-5.407954898E-02+
*       3.7386878332E-01               0
GRID*              17601               07.5000000000E-015.4079537616E-02+
*       3.7386878169E-01               0
GRID*              17602               07.5000000000E-011.5785746047E-01+
*       4.0434030485E-01               0
GRID*              17603               07.5000000000E-012.4884627304E-01+
*       4.6281613479E-01               0
GRID*              17604               07.5000000000E-013.1967621137E-01+
*       5.4455655870E-01               0
GRID*              17605               07.5000000000E-013.6460595177E-01+
*       6.4294204530E-01               0
GRID*              17606               07.5000000000E-013.7613123756E-01+
*       6.9592045472E-01               0
GRID*              17607               07.5000000000E-013.7613123756E-01+
*       8.0407954528E-01               0
GRID*              17608               07.5000000000E-013.4565969945E-01+
*       9.0785746280E-01               0
GRID*              17609               07.5000000000E-012.8718387298E-01+
*       9.9884628154E-01               0
GRID*              17610               07.5000000000E-012.0544345410E-01+
*       1.0696762235E+00               0
GRID*              17611               07.5000000000E-011.0705795966E-01+
*       1.1146059523E+00               0
GRID*              17612               07.5000000000E-015.7402187587E-09+
*       1.1299999952E+00               0
GRID*              17613               07.5000000000E-01-1.070579486E-01+
*       1.1146059556E+00               0
GRID*              17614               07.5000000000E-01-2.054434444E-01+
*       1.0696762297E+00               0
GRID*              17615               07.5000000000E-01-2.871838655E-01+
*       9.9884629022E-01               0
GRID*              17616               07.5000000000E-01-3.456596947E-01+
*       9.0785747325E-01               0
GRID*              17617               07.5000000000E-01-3.761312359E-01+
*       8.0407955664E-01               0
GRID*              17618               07.5000000000E-01-3.761312392E-01+
*       6.9592046608E-01               0
GRID*              17619               07.5000000000E-01-3.456597046E-01+
*       5.9214254748E-01               0
GRID*              17620               07.5000000000E-01-2.871838734E-01+
*       5.0115373508E-01               0
GRID*              17621               07.5000000000E-01-2.054434511E-01+
*       4.3032379426E-01               0
GRID*              17622               07.5000000000E-01-1.070579604E-01+
*       3.8539406504E-01               0
GRID*              17623               07.5000000000E-01-5.740210959E-09+
*       3.7000000477E-01               0
GRID*              17624               07.5000000000E-011.0705794937E-01+
*       3.8539406180E-01               0
GRID*              17625               07.5000000000E-012.0544344148E-01+
*       4.3032378805E-01               0
GRID*              17626               07.5000000000E-012.8718386592E-01+
*       5.0115372641E-01               0
GRID*              17627               07.5000000000E-013.4565969979E-01+
*       5.9214253703E-01               0
GRID*              17628               07.5000000000E-018.4615384615E-01+
*       0.0000000000E+00               0
GRID*              17629               07.5000000000E-016.9230769231E-01+
*       0.0000000000E+00               0
GRID*              17630               07.5000000000E-015.3846153846E-01+
*       0.0000000000E+00               0
GRID*              17631               07.5000000000E-013.8461538462E-01+
*       0.0000000000E+00               0
GRID*              17632               07.5000000000E-012.3076923077E-01+
*       0.0000000000E+00               0
GRID*              17633               07.5000000000E-017.6923076923E-02+
*       0.0000000000E+00               0
GRID*              17634               07.5000000000E-01-7.692307692E-02+
*       0.0000000000E+00               0
GRID*              17635               07.5000000000E-01-2.307692308E-01+
*       0.0000000000E+00               0
GRID*              17636               07.5000000000E-01-3.846153846E-01+
*       0.0000000000E+00               0
GRID*              17637               07.5000000000E-01-5.384615385E-01+
*       0.0000000000E+00               0
GRID*              17638               07.5000000000E-01-6.923076923E-01+
*       0.0000000000E+00               0
GRID*              17639               07.5000000000E-01-8.461538462E-01+
*       0.0000000000E+00               0
GRID*              17640               07.5000000000E-01-3.076923077E-01+
*       0.0000000000E+00               0
GRID*              17641               07.5000000000E-01-1.538461538E-01+
*       0.0000000000E+00               0
GRID*              17642               07.5000000000E-01-4.615384615E-01+
*       0.0000000000E+00               0
GRID*              17643               07.5000000000E-01-7.692307692E-01+
*       0.0000000000E+00               0
GRID*              17644               07.5000000000E-01-6.153846154E-01+
*       0.0000000000E+00               0
GRID*              17645               07.5000000000E-01-9.230769231E-01+
*       0.0000000000E+00               0
GRID*              17646               07.5000000000E-014.6153846154E-01+
*       0.0000000000E+00               0
GRID*              17647               07.5000000000E-013.0769230769E-01+
*       0.0000000000E+00               0
GRID*              17648               07.5000000000E-011.5384615385E-01+
*       0.0000000000E+00               0
GRID*              17649               07.5000000000E-010.0000000000E+00+
*       0.0000000000E+00               0
GRID*              17650               07.5000000000E-016.1538461538E-01+
*       0.0000000000E+00               0
GRID*              17651               07.5000000000E-017.6923076923E-01+
*       0.0000000000E+00               0
GRID*              17652               07.5000000000E-019.2307692308E-01+
*       0.0000000000E+00               0
GRID*              17653               07.5000000000E-01-9.888305326E-01+
*       8.9904221506E-01               0
GRID*              17654               07.5000000000E-01-9.555723009E-01+
*       1.0447550156E+00               0
GRID*              17655               07.5000000000E-01-9.009685140E-01+
*       1.1838835754E+00               0
GRID*              17656               07.5000000000E-01-8.262387843E-01+
*       1.3133200653E+00               0
GRID*              17657               07.5000000000E-01-7.330517075E-01+
*       1.4301725749E+00               0
GRID*              17658               07.5000000000E-01-6.234894842E-01+
*       1.5318310740E+00               0
GRID*              17659               07.5000000000E-01-4.999997604E-01+
*       1.6160250018E+00               0
GRID*              17660               07.5000000000E-01-3.653410032E-01+
*       1.6808737093E+00               0
GRID*              17661               07.5000000000E-01-2.225208981E-01+
*       1.7249277485E+00               0
GRID*              17662               07.5000000000E-01-7.473006491E-02+
*       1.7472033362E+00               0
GRID*              17663               07.5000000000E-017.4730064908E-02+
*       1.7472033362E+00               0
GRID*              17664               07.5000000000E-012.2252089812E-01+
*       1.7249277485E+00               0
GRID*              17665               07.5000000000E-013.6534100315E-01+
*       1.6808737093E+00               0
GRID*              17666               07.5000000000E-014.9999976045E-01+
*       1.6160250018E+00               0
GRID*              17667               07.5000000000E-016.2348948419E-01+
*       1.5318310740E+00               0
GRID*              17668               07.5000000000E-017.3305170754E-01+
*       1.4301725749E+00               0
GRID*              17669               07.5000000000E-018.2623878432E-01+
*       1.3133200653E+00               0
GRID*              17670               07.5000000000E-019.0096851398E-01+
*       1.1838835754E+00               0
GRID*              17671               07.5000000000E-019.5557230092E-01+
*       1.0447550156E+00               0
GRID*              17672               07.5000000000E-019.8883053259E-01+
*       8.9904221506E-01               0
GRID*              17673               07.5000000000E-01-9.308737000E-01+
*       1.1153409991E+00               0
GRID*              17674               07.5000000000E-01-9.749278071E-01+
*       9.7252091614E-01               0
GRID*              17675               07.5000000000E-01-9.972032962E-01+
*       8.2473006249E-01               0
GRID*              17676               07.5000000000E-01-8.660250150E-01+
*       1.2499997670E+00               0
GRID*              17677               07.5000000000E-01-2.947550070E-01+
*       1.7055722694E+00               0
GRID*              17678               07.5000000000E-01-7.818310630E-01+
*       1.3734894687E+00               0
GRID*              17679               07.5000000000E-01-6.801726019E-01+
*       1.4830517355E+00               0
GRID*              17680               07.5000000000E-01-5.633200489E-01+
*       1.5762387550E+00               0
GRID*              17681               07.5000000000E-01-4.338835717E-01+
*       1.6509685062E+00               0
GRID*              17682               07.5000000000E-012.9475500698E-01+
*       1.7055722694E+00               0
GRID*              17683               07.5000000000E-01-1.490422154E-01+
*       1.7388305739E+00               0
GRID*              17684               07.5000000000E-010.0000000000E+00+
*       1.7500000000E+00               0
GRID*              17685               07.5000000000E-011.4904221538E-01+
*       1.7388305739E+00               0
GRID*              17686               07.5000000000E-014.3388357169E-01+
*       1.6509685062E+00               0
GRID*              17687               07.5000000000E-015.6332004891E-01+
*       1.5762387550E+00               0
GRID*              17688               07.5000000000E-016.8017260185E-01+
*       1.4830517355E+00               0
GRID*              17689               07.5000000000E-017.8183106297E-01+
*       1.3734894687E+00               0
GRID*              17690               07.5000000000E-018.6602501503E-01+
*       1.2499997670E+00               0
GRID*              17691               07.5000000000E-019.3087370000E-01+
*       1.1153409991E+00               0
GRID*              17692               07.5000000000E-019.7492780711E-01+
*       9.7252091614E-01               0
GRID*              17693               07.5000000000E-019.9720329622E-01+
*       8.2473006249E-01               0
GRID*              17694               07.5000000000E-011.0000000000E+00+
*       6.0000000000E-01               0
GRID*              17695               07.5000000000E-011.0000000000E+00+
*       4.5000000000E-01               0
GRID*              17696               07.5000000000E-011.0000000000E+00+
*       3.0000000000E-01               0
GRID*              17697               07.5000000000E-011.0000000000E+00+
*       1.5000000000E-01               0
GRID*              17698               07.5000000000E-011.0000000000E+00+
*       2.2500000000E-01               0
GRID*              17699               07.5000000000E-011.0000000000E+00+
*       3.7500000000E-01               0
GRID*              17700               07.5000000000E-011.0000000000E+00+
*       5.2500000000E-01               0
GRID*              17701               07.5000000000E-011.0000000000E+00+
*       6.7500000000E-01               0
GRID*              17702               07.5000000000E-011.0000000000E+00+
*       7.5000000000E-02               0
GRID*              17703               01.0833333333E+00-1.000000000E+00+
*       0.0000000000E+00               0
GRID*              17704               09.1666666667E-01-1.000000000E+00+
*       0.0000000000E+00               0
GRID*              17705               01.1666666667E+00-1.000000000E+00+
*       0.0000000000E+00               0
GRID*              17706               01.0000000000E+00-1.000000000E+00+
*       0.0000000000E+00               0
GRID*              17707               08.3333333333E-01-1.000000000E+00+
*       0.0000000000E+00               0
GRID*              17708               09.2648731017E-01-6.489020002E-01+
*       0.0000000000E+00               0
GRID*              17709               08.8111497699E-01-7.113820383E-01+
*       0.0000000000E+00               0
GRID*              17710               08.8113750246E-01-7.886873436E-01+
*       0.0000000000E+00               0
GRID*              17711               09.2654642081E-01-8.511409535E-01+
*       0.0000000000E+00               0
GRID*              17712               01.0000729598E+00-8.749999787E-01+
*       0.0000000000E+00               0
GRID*              17713               01.0734903274E+00-8.511136982E-01+
*       0.0000000000E+00               0
GRID*              17714               01.1189005924E+00-7.885686657E-01+
*       0.0000000000E+00               0
GRID*              17715               01.1188779999E+00-7.113617896E-01+
*       0.0000000000E+00               0
GRID*              17716               01.0734311866E+00-6.488433430E-01+
*       0.0000000000E+00               0
GRID*              17717               01.0385997547E+00-6.311091733E-01+
*       0.0000000000E+00               0
GRID*              17718               09.6134426169E-01-6.311279136E-01+
*       0.0000000000E+00               0
GRID*              17719               08.9885568420E-01-6.765506291E-01+
*       0.0000000000E+00               0
GRID*              17720               08.7500000538E-01-7.500365708E-01+
*       0.0000000000E+00               0
GRID*              17721               08.9889858444E-01-8.235084236E-01+
*       0.0000000000E+00               0
GRID*              17722               09.6141382650E-01-8.688946966E-01+
*       0.0000000000E+00               0
GRID*              17723               01.0386691837E+00-8.688682181E-01+
*       0.0000000000E+00               0
GRID*              17724               01.1011493401E+00-8.234401800E-01+
*       0.0000000000E+00               0
GRID*              17725               01.1249999947E+00-7.499634810E-01+
*       0.0000000000E+00               0
GRID*              17726               01.1011063609E+00-6.765006107E-01+
*       0.0000000000E+00               0
GRID*              17727               09.2648731434E-018.5109799467E-01+
*       0.0000000000E+00               0
GRID*              17728               08.8111494422E-017.8861796541E-01+
*       0.0000000000E+00               0
GRID*              17729               08.8113753555E-017.1131266029E-01+
*       0.0000000000E+00               0
GRID*              17730               09.2654641674E-016.4885904146E-01+
*       0.0000000000E+00               0
GRID*              17731               01.0000729598E+006.2500002131E-01+
*       0.0000000000E+00               0
GRID*              17732               01.0734903196E+006.4888629616E-01+
*       0.0000000000E+00               0
GRID*              17733               01.1189005843E+007.1143131923E-01+
*       0.0000000000E+00               0
GRID*              17734               01.1188780081E+007.8863819539E-01+
*       0.0000000000E+00               0
GRID*              17735               01.0734311943E+008.5115665135E-01+
*       0.0000000000E+00               0
GRID*              17736               01.0385997500E+008.6889078462E-01+
*       0.0000000000E+00               0
GRID*              17737               09.6134426169E-018.6887208643E-01+
*       0.0000000000E+00               0
GRID*              17738               08.9885567603E-018.2344936951E-01+
*       0.0000000000E+00               0
GRID*              17739               08.7500000538E-017.4996342321E-01+
*       0.0000000000E+00               0
GRID*              17740               08.9889859277E-016.7649157515E-01+
*       0.0000000000E+00               0
GRID*              17741               09.6141382650E-016.3110530341E-01+
*       0.0000000000E+00               0
GRID*              17742               01.0386691883E+006.3113174010E-01+
*       0.0000000000E+00               0
GRID*              17743               01.1011493588E+006.7655978612E-01+
*       0.0000000000E+00               0
GRID*              17744               01.1249999947E+007.5003650317E-01+
*       0.0000000000E+00               0
GRID*              17745               01.1011063422E+008.2349935548E-01+
*       0.0000000000E+00               0
GRID*              17746               01.0833333333E+001.0000000000E+00+
*       0.0000000000E+00               0
GRID*              17747               09.1666666667E-011.0000000000E+00+
*       0.0000000000E+00               0
GRID*              17748               01.1666666667E+001.0000000000E+00+
*       0.0000000000E+00               0
GRID*              17749               01.0000000000E+001.0000000000E+00+
*       0.0000000000E+00               0
GRID*              17750               08.3333333333E-011.0000000000E+00+
*       0.0000000000E+00               0
GRID*              17751               01.2500000000E+00-1.000000000E+00+
*       -1.250000000E-01               0
GRID*              17752               01.2500000000E+00-1.000000000E+00+
*       -6.250000000E-02               0
GRID*              17753               01.2500000000E+00-1.000000000E+00+
*       -1.875000000E-01               0
GRID*              17754               01.2500000000E+00-8.461538462E-01+
*       -2.500000000E-01               0
GRID*              17755               01.2500000000E+00-6.923076923E-01+
*       -2.500000000E-01               0
GRID*              17756               01.2500000000E+00-5.384615385E-01+
*       -2.500000000E-01               0
GRID*              17757               01.2500000000E+00-3.846153846E-01+
*       -2.500000000E-01               0
GRID*              17758               01.2500000000E+00-2.307692308E-01+
*       -2.500000000E-01               0
GRID*              17759               01.2500000000E+00-7.692307692E-02+
*       -2.500000000E-01               0
GRID*              17760               01.2500000000E+007.6923076923E-02+
*       -2.500000000E-01               0
GRID*              17761               01.2500000000E+002.3076923077E-01+
*       -2.500000000E-01               0
GRID*              17762               01.2500000000E+003.8461538462E-01+
*       -2.500000000E-01               0
GRID*              17763               01.2500000000E+005.3846153846E-01+
*       -2.500000000E-01               0
GRID*              17764               01.2500000000E+006.9230769231E-01+
*       -2.500000000E-01               0
GRID*              17765               01.2500000000E+008.4615384615E-01+
*       -2.500000000E-01               0
GRID*              17766               01.2500000000E+00-6.153846154E-01+
*       -2.500000000E-01               0
GRID*              17767               01.2500000000E+007.6923076923E-01+
*       -2.500000000E-01               0
GRID*              17768               01.2500000000E+00-4.615384615E-01+
*       -2.500000000E-01               0
GRID*              17769               01.2500000000E+00-3.076923077E-01+
*       -2.500000000E-01               0
GRID*              17770               01.2500000000E+00-1.538461538E-01+
*       -2.500000000E-01               0
GRID*              17771               01.2500000000E+000.0000000000E+00+
*       -2.500000000E-01               0
GRID*              17772               01.2500000000E+001.5384615385E-01+
*       -2.500000000E-01               0
GRID*              17773               01.2500000000E+003.0769230769E-01+
*       -2.500000000E-01               0
GRID*              17774               01.2500000000E+006.1538461538E-01+
*       -2.500000000E-01               0
GRID*              17775               01.2500000000E+004.6153846154E-01+
*       -2.500000000E-01               0
GRID*              17776               01.2500000000E+009.2307692308E-01+
*       -2.500000000E-01               0
GRID*              17777               01.2500000000E+00-9.230769231E-01+
*       -2.500000000E-01               0
GRID*              17778               01.2500000000E+00-7.692307692E-01+
*       -2.500000000E-01               0
GRID*              17779               01.2500000000E+008.4615384615E-01+
*       0.0000000000E+00               0
GRID*              17780               01.2500000000E+006.9230769231E-01+
*       0.0000000000E+00               0
GRID*              17781               01.2500000000E+005.3846153846E-01+
*       0.0000000000E+00               0
GRID*              17782               01.2500000000E+003.8461538462E-01+
*       0.0000000000E+00               0
GRID*              17783               01.2500000000E+002.3076923077E-01+
*       0.0000000000E+00               0
GRID*              17784               01.2500000000E+007.6923076923E-02+
*       0.0000000000E+00               0
GRID*              17785               01.2500000000E+00-7.692307692E-02+
*       0.0000000000E+00               0
GRID*              17786               01.2500000000E+00-2.307692308E-01+
*       0.0000000000E+00               0
GRID*              17787               01.2500000000E+00-3.846153846E-01+
*       0.0000000000E+00               0
GRID*              17788               01.2500000000E+00-5.384615385E-01+
*       0.0000000000E+00               0
GRID*              17789               01.2500000000E+00-6.923076923E-01+
*       0.0000000000E+00               0
GRID*              17790               01.2500000000E+00-8.461538462E-01+
*       0.0000000000E+00               0
GRID*              17791               01.2500000000E+00-9.230769231E-01+
*       0.0000000000E+00               0
GRID*              17792               01.2500000000E+009.2307692308E-01+
*       0.0000000000E+00               0
GRID*              17793               01.2500000000E+00-7.692307692E-01+
*       0.0000000000E+00               0
GRID*              17794               01.2500000000E+00-4.615384615E-01+
*       0.0000000000E+00               0
GRID*              17795               01.2500000000E+00-6.153846154E-01+
*       0.0000000000E+00               0
GRID*              17796               01.2500000000E+006.1538461538E-01+
*       0.0000000000E+00               0
GRID*              17797               01.2500000000E+003.0769230769E-01+
*       0.0000000000E+00               0
GRID*              17798               01.2500000000E+004.6153846154E-01+
*       0.0000000000E+00               0
GRID*              17799               01.2500000000E+00-3.076923077E-01+
*       0.0000000000E+00               0
GRID*              17800               01.2500000000E+001.5384615385E-01+
*       0.0000000000E+00               0
GRID*              17801               01.2500000000E+000.0000000000E+00+
*       0.0000000000E+00               0
GRID*              17802               01.2500000000E+00-1.538461538E-01+
*       0.0000000000E+00               0
GRID*              17803               01.2500000000E+007.6923076923E-01+
*       0.0000000000E+00               0
GRID*              17804               01.2500000000E+001.0000000000E+00+
*       -1.250000000E-01               0
GRID*              17805               01.2500000000E+001.0000000000E+00+
*       -6.250000000E-02               0
GRID*              17806               01.2500000000E+001.0000000000E+00+
*       -1.875000000E-01               0
GRID*              17807               06.2500000000E-013.7999999523E-01+
*       7.5000000000E-01               0
GRID*              17808               06.8750000000E-013.7999999523E-01+
*       7.5000000000E-01               0
GRID*              17809               05.6250000000E-013.7999999523E-01+
*       7.5000000000E-01               0
GRID*              17810               0-6.250000000E-013.7999999523E-01+
*       7.5000000000E-01               0
GRID*              17811               0-6.875000000E-013.7999999523E-01+
*       7.5000000000E-01               0
GRID*              17812               0-5.625000000E-013.7999999523E-01+
*       7.5000000000E-01               0
GRID*              17813               0-1.000000000E+00-6.250000000E-01+
*       -1.666666667E-01               0
GRID*              17814               0-1.000000000E+00-6.250000000E-01+
*       -8.333333333E-02               0
GRID*              17815               0-1.000000000E+00-6.250000000E-01+
*       -4.166666667E-02               0
GRID*              17816               0-1.000000000E+00-6.250000000E-01+
*       -1.250000000E-01               0
GRID*              17817               0-1.000000000E+00-6.250000000E-01+
*       -2.083333333E-01               0
GRID*              17818               0-1.000000000E+008.7500000000E-01+
*       -1.666666667E-01               0
GRID*              17819               0-1.000000000E+008.7500000000E-01+
*       -8.333333333E-02               0
GRID*              17820               0-1.000000000E+008.7500000000E-01+
*       -4.166666667E-02               0
GRID*              17821               0-1.000000000E+008.7500000000E-01+
*       -1.250000000E-01               0
GRID*              17822               0-1.000000000E+008.7500000000E-01+
*       -2.083333333E-01               0
GRID*              17823               01.0000000000E+00-6.250000000E-01+
*       -1.666666667E-01               0
GRID*              17824               01.0000000000E+00-6.250000000E-01+
*       -8.333333333E-02               0
GRID*              17825               01.0000000000E+00-6.250000000E-01+
*       -4.166666667E-02               0
GRID*              17826               01.0000000000E+00-6.250000000E-01+
*       -1.250000000E-01               0
GRID*              17827               01.0000000000E+00-6.250000000E-01+
*       -2.083333333E-01               0
GRID*              17828               01.0000000000E+008.7500000000E-01+
*       -1.666666667E-01               0
GRID*              17829               01.0000000000E+008.7500000000E-01+
*       -8.333333333E-02               0
GRID*              17830               01.0000000000E+008.7500000000E-01+
*       -4.166666667E-02               0
GRID*              17831               01.0000000000E+008.7500000000E-01+
*       -1.250000000E-01               0
GRID*              17832               01.0000000000E+008.7500000000E-01+
*       -2.083333333E-01               0
GRID*              17833               0-1.073512684E+00-6.489019959E-01+
*       -2.500000000E-01               0
GRID*              17834               0-1.118885024E+00-7.113820155E-01+
*       -2.500000000E-01               0
GRID*              17835               0-1.118862471E+00-7.886872935E-01+
*       -2.500000000E-01               0
GRID*              17836               0-1.073453612E+00-8.511409296E-01+
*       -2.500000000E-01               0
GRID*              17837               0-9.999270805E-01-8.749999787E-01+
*       -2.500000000E-01               0
GRID*              17838               0-9.265097154E-01-8.511137077E-01+
*       -2.500000000E-01               0
GRID*              17839               0-8.810994640E-01-7.885686780E-01+
*       -2.500000000E-01               0
GRID*              17840               0-8.811220360E-01-7.113618176E-01+
*       -2.500000000E-01               0
GRID*              17841               0-9.265687998E-01-6.488433532E-01+
*       -2.500000000E-01               0
GRID*              17842               0-9.614002511E-01-6.311092117E-01+
*       -2.500000000E-01               0
GRID*              17843               0-8.988936575E-01-6.765006403E-01+
*       -2.500000000E-01               0
GRID*              17844               0-8.750000053E-01-7.499635035E-01+
*       -2.500000000E-01               0
GRID*              17845               0-8.988507090E-01-8.234401925E-01+
*       -2.500000000E-01               0
GRID*              17846               0-9.627465111E-01-8.645096946E-01+
*       -2.500000000E-01               0
GRID*              17847               0-1.038586211E+00-8.688946706E-01+
*       -2.500000000E-01               0
GRID*              17848               0-1.101101446E+00-8.235083944E-01+
*       -2.500000000E-01               0
GRID*              17849               0-1.124999995E+00-7.500365399E-01+
*       -2.500000000E-01               0
GRID*              17850               0-1.101144348E+00-6.765505915E-01+
*       -2.500000000E-01               0
GRID*              17851               0-1.038655750E+00-6.311278773E-01+
*       -2.500000000E-01               0
GRID*              17852               0-1.073512686E+008.5109799441E-01+
*       -2.500000000E-01               0
GRID*              17853               0-1.118885018E+007.8861795397E-01+
*       -2.500000000E-01               0
GRID*              17854               0-1.118862478E+007.1131267590E-01+
*       -2.500000000E-01               0
GRID*              17855               0-1.073453610E+006.4885906086E-01+
*       -2.500000000E-01               0
GRID*              17856               0-9.999270805E-016.2500002128E-01+
*       -2.500000000E-01               0
GRID*              17857               0-9.265096992E-016.4888628234E-01+
*       -2.500000000E-01               0
GRID*              17858               0-8.810994643E-017.1143130891E-01+
*       -2.500000000E-01               0
GRID*              17859               0-8.811220357E-017.8863816925E-01+
*       -2.500000000E-01               0
GRID*              17860               0-9.265688159E-018.5115663699E-01+
*       -2.500000000E-01               0
GRID*              17861               0-9.614002460E-018.6889080268E-01+
*       -2.500000000E-01               0
GRID*              17862               0-8.988936831E-018.2349933533E-01+
*       -2.500000000E-01               0
GRID*              17863               0-8.750000053E-017.5003648532E-01+
*       -2.500000000E-01               0
GRID*              17864               0-8.988506834E-016.7655978315E-01+
*       -2.500000000E-01               0
GRID*              17865               0-9.613308558E-016.3113176598E-01+
*       -2.500000000E-01               0
GRID*              17866               0-1.038586223E+006.3110527960E-01+
*       -2.500000000E-01               0
GRID*              17867               0-1.101101463E+006.7649157015E-01+
*       -2.500000000E-01               0
GRID*              17868               0-1.124999995E+007.4996343276E-01+
*       -2.500000000E-01               0
GRID*              17869               0-1.101144331E+008.2344937304E-01+
*       -2.500000000E-01               0
GRID*              17870               0-1.038655737E+008.6887207295E-01+
*       -2.500000000E-01               0
GRID*              17871               09.2648731017E-01-6.489020002E-01+
*       -2.500000000E-01               0
GRID*              17872               08.8111497699E-01-7.113820383E-01+
*       -2.500000000E-01               0
GRID*              17873               08.8113750246E-01-7.886873436E-01+
*       -2.500000000E-01               0
GRID*              17874               09.2654642081E-01-8.511409535E-01+
*       -2.500000000E-01               0
GRID*              17875               01.0000729598E+00-8.749999787E-01+
*       -2.500000000E-01               0
GRID*              17876               01.0734903274E+00-8.511136982E-01+
*       -2.500000000E-01               0
GRID*              17877               01.1189005924E+00-7.885686657E-01+
*       -2.500000000E-01               0
GRID*              17878               01.1188779999E+00-7.113617896E-01+
*       -2.500000000E-01               0
GRID*              17879               01.0734311866E+00-6.488433430E-01+
*       -2.500000000E-01               0
GRID*              17880               01.1011063609E+00-6.765006107E-01+
*       -2.500000000E-01               0
GRID*              17881               08.9885568420E-01-6.765506291E-01+
*       -2.500000000E-01               0
GRID*              17882               01.0385997547E+00-6.311091733E-01+
*       -2.500000000E-01               0
GRID*              17883               09.6134426169E-01-6.311279136E-01+
*       -2.500000000E-01               0
GRID*              17884               01.0386691837E+00-8.688682181E-01+
*       -2.500000000E-01               0
GRID*              17885               01.1011493401E+00-8.234401800E-01+
*       -2.500000000E-01               0
GRID*              17886               09.6141382650E-01-8.688946966E-01+
*       -2.500000000E-01               0
GRID*              17887               08.9889858444E-01-8.235084236E-01+
*       -2.500000000E-01               0
GRID*              17888               08.7500000538E-01-7.500365708E-01+
*       -2.500000000E-01               0
GRID*              17889               01.1249999947E+00-7.499634810E-01+
*       -2.500000000E-01               0
GRID*              17890               01.0734311943E+008.5115665135E-01+
*       -2.500000000E-01               0
GRID*              17891               01.1188780081E+007.8863819539E-01+
*       -2.500000000E-01               0
GRID*              17892               01.1189005843E+007.1143131923E-01+
*       -2.500000000E-01               0
GRID*              17893               01.0734903196E+006.4888629616E-01+
*       -2.500000000E-01               0
GRID*              17894               01.0000729598E+006.2500002131E-01+
*       -2.500000000E-01               0
GRID*              17895               09.2654641674E-016.4885904146E-01+
*       -2.500000000E-01               0
GRID*              17896               08.8113753555E-017.1131266029E-01+
*       -2.500000000E-01               0
GRID*              17897               08.8111494422E-017.8861796541E-01+
*       -2.500000000E-01               0
GRID*              17898               09.2648731434E-018.5109799467E-01+
*       -2.500000000E-01               0
GRID*              17899               08.9889859277E-016.7649157515E-01+
*       -2.500000000E-01               0
GRID*              17900               09.6141382650E-016.3110530341E-01+
*       -2.500000000E-01               0
GRID*              17901               01.1249999947E+007.5003650317E-01+
*       -2.500000000E-01               0
GRID*              17902               01.1011493588E+006.7655978612E-01+
*       -2.500000000E-01               0
GRID*              17903               01.0386691883E+006.3113174010E-01+
*       -2.500000000E-01               0
GRID*              17904               01.0385997500E+008.6889078462E-01+
*       -2.500000000E-01               0
GRID*              17905               01.1011063422E+008.2349935548E-01+
*       -2.500000000E-01               0
GRID*              17906               08.9885567603E-018.2344936951E-01+
*       -2.500000000E-01               0
GRID*              17907               08.7500000538E-017.4996342321E-01+
*       -2.500000000E-01               0
GRID*              17908               09.6134426169E-018.6887208643E-01+
*       -2.500000000E-01               0
GRID*              17909               0-1.250000000E+00-1.000000000E+00+
*       0.0000000000E+00               0
GRID*              17910               0-1.250000000E+00-1.000000000E+00+
*       -2.500000000E-01               0
GRID*              17911               0-1.250000000E+001.0000000000E+00+
*       -2.500000000E-01               0
GRID*              17912               0-1.250000000E+001.0000000000E+00+
*       0.0000000000E+00               0
GRID*              17913               0-7.500000000E-01-1.000000000E+00+
*       0.0000000000E+00               0
GRID*              17914               0-1.000000000E+00-6.250000000E-01+
*       0.0000000000E+00               0
GRID*              17915               0-1.000000000E+008.7500000000E-01+
*       0.0000000000E+00               0
GRID*              17916               0-7.500000000E-011.0000000000E+00+
*       0.0000000000E+00               0
GRID*              17917               0-7.500000000E-01-1.000000000E+00+
*       7.5000000000E-01               0
GRID*              17918               0-7.500000000E-013.7999999523E-01+
*       7.5000000000E-01               0
GRID*              17919               0-7.500000000E-011.0000000000E+00+
*       7.5000000000E-01               0
GRID*              17920               0-5.000000000E-01-1.000000000E+00+
*       7.5000000000E-01               0
GRID*              17921               0-5.000000000E-011.0000000000E+00+
*       7.5000000000E-01               0
GRID*              17922               0-5.000000000E-01-1.000000000E+00+
*       0.0000000000E+00               0
GRID*              17923               0-5.000000000E-013.7999999523E-01+
*       7.5000000000E-01               0
GRID*              17924               0-5.000000000E-011.0000000000E+00+
*       0.0000000000E+00               0
GRID*              17925               01.2500000000E+00-1.000000000E+00+
*       -2.500000000E-01               0
GRID*              17926               05.0000000000E-01-1.000000000E+00+
*       0.0000000000E+00               0
GRID*              17927               01.2500000000E+001.0000000000E+00+
*       -2.500000000E-01               0
GRID*              17928               05.0000000000E-011.0000000000E+00+
*       0.0000000000E+00               0
GRID*              17929               05.0000000000E-01-1.000000000E+00+
*       7.5000000000E-01               0
GRID*              17930               05.0000000000E-013.7999999523E-01+
*       7.5000000000E-01               0
GRID*              17931               05.0000000000E-011.0000000000E+00+
*       7.5000000000E-01               0
GRID*              17932               07.5000000000E-01-1.000000000E+00+
*       7.5000000000E-01               0
GRID*              17933               07.5000000000E-011.0000000000E+00+
*       7.5000000000E-01               0
GRID*              17934               07.5000000000E-01-1.000000000E+00+
*       0.0000000000E+00               0
GRID*              17935               07.5000000000E-013.7999999523E-01+
*       7.5000000000E-01               0
GRID*              17936               07.5000000000E-011.0000000000E+00+
*       0.0000000000E+00               0
GRID*              17937               01.2500000000E+00-1.000000000E+00+
*       0.0000000000E+00               0
GRID*              17938               01.0000000000E+00-6.250000000E-01+
*       0.0000000000E+00               0
GRID*              17939               01.0000000000E+008.7500000000E-01+
*       0.0000000000E+00               0
GRID*              17940               01.2500000000E+001.0000000000E+00+
*       0.0000000000E+00               0
GRID*              17941               0-1.000000000E+00-6.250000000E-01+
*       -2.500000000E-01               0
GRID*              17942               0-1.000000000E+008.7500000000E-01+
*       -2.500000000E-01               0
GRID*              17943               01.0000000000E+00-6.250000000E-01+
*       -2.500000000E-01               0
GRID*              17944               01.0000000000E+008.7500000000E-01+
*       -2.500000000E-01               0
$*
$* ELEMENT CARDS
$*
$*  Mesh Collector: RBE3 Collector(1)
$*  Mesh: connection_recipe_1_mesh
RBE3       10722               1  1234561.000000     123   15721   15722+
+          15723   15724   15725   15726   15727   15728   15729   15730+
+          15731   15732   15733   15734   15735   15736   15737   15738+
+          15739   15740   15741   15742   15743   15744   15745   15746+
+          15747   15748   15749   15750   15751   15752   15753   15754+
+          15755   15756   15757   15758   15759   15760   15761   15762+
+          15763   15764   15765   15766   15767   15768   15769   15770+
+          15771   15772   15773   15774   15775   15776   15777   15778+
+          15779   15780   15781   15782   15783   15784   15785   15786+
+          15787   15788   15789   15790   15791   15792   15793   15794+
+          15795   15796   15797   15798   15799   15800   15801   15802+
+          15803   15804   15805   15806   15807   15808   15809   15810+
+          15811   15812   15813   15814   15815   15816   15817   15818+
+          15819   15820   15821   15822   15823   15824   15825   15826+
+          15827   15828   15829   15830   15831   15832   15833   15834+
+          15835   15836   15837   15838   15839   15840   15841   15842+
+          15843   15844   15845   15846   15847   15848   15849   17452+
+          17453   17454   17455   17456   17457   17458   17459   17460+
+          17461   17462   17463   17464   17465   17466   17467   17468+
+          17469   17470   17471   17472   17473   17474   17475   17476+
+          17477   17478   17479   17480   17481   17482   17483   17484+
+          17485   17486   17487   17488   17489   17490   17491   17492+
+          17493   17494   17585   17586   17587   17588   17589   17590+
+          17591   17592   17593   17594   17595   17596   17597   17598+
+          17599   17600   17601   17602   17603   17604   17605   17606+
+          17607   17608   17609   17610   17611   17612   17613   17614+
+          17615   17616   17617   17618   17619   17620   17621   17622+
+          17623   17624   17625   17626   17627   17807   17808   17809+
+          17930   17935
$*  Mesh Collector: RBE3 Collector(2)
$*  Mesh: connection_recipe_2_mesh
RBE3       10725               2  1234561.000000     123   12601   12602+
+          12603   12604   12605   12606   12607   12608   12609   12610+
+          12611   12612   12613   12614   12615   12616   12617   12618+
+          12619   12620   12621   12622   12623   12624   12625   12626+
+          12627   12628   12629   12630   12631   12632   12633   12634+
+          12635   12636   12637   12638   12639   12640   12641   12642+
+          12643   12644   12645   12646   12647   12648   12649   12650+
+          12651   12652   12653   12654   12655   12656   12657   12658+
+          12659   12660   12661   12662   12663   12664   12665   12666+
+          12667   12668   12669   12670   12671   12672   12673   12674+
+          12675   12676   12677   12678   12679   12680   12681   12682+
+          12683   12684   12685   12686   12687   12688   12689   12690+
+          12691   12692   12693   12694   12695   12696   12697   12698+
+          12699   12700   12701   12702   12703   12704   12705   12706+
+          12707   12708   12709   12710   12711   12712   12713   12714+
+          12715   12716   12717   12718   12719   12720   12721   12722+
+          12723   12724   12725   12726   12727   12728   12729   17100+
+          17101   17102   17103   17104   17105   17106   17107   17108+
+          17109   17110   17111   17112   17113   17114   17115   17116+
+          17117   17118   17119   17120   17121   17122   17123   17124+
+          17125   17126   17127   17128   17129   17130   17131   17132+
+          17133   17134   17135   17136   17137   17138   17139   17140+
+          17141   17142   17233   17234   17235   17236   17237   17238+
+          17239   17240   17241   17242   17243   17244   17245   17246+
+          17247   17248   17249   17250   17251   17252   17253   17254+
+          17255   17256   17257   17258   17259   17260   17261   17262+
+          17263   17264   17265   17266   17267   17268   17269   17270+
+          17271   17272   17273   17274   17275   17810   17811   17812+
+          17918   17923
$*  Mesh Collector: RBE3 Collector(3)
$*  Mesh: connection_recipe_3_mesh
RBE3       10724               3  1234561.000000     123   16503   16504+
+          16505   16506   16507   16508   16509   16510   16511   16512+
+          16513   16514   16515   16516   16517   16518   16519   16520+
+          16521   16522   16523   16524   16525   16526   16527   16528+
+          16529   16530   16531   16532   16533   16534   16535   16536+
+          16537   16538   16539   16540   16541   16542   16543   16544+
+          16545   16546   16547   16548   16549   16550   16551   16552+
+          16553   16554   16555   16556   16557   16558   16559   16560+
+          16561   16562   16563   16564   16565   16566   16567   16568+
+          16569   16570   16571   16572   16573   16574   16575   16576+
+          16577   16578   16579   16580   16581   16582   16583   16584+
+          16585   16586   16587   16588   16589   16590   16591   16592+
+          16593   16594   16595   16596   16597   17708   17709   17710+
+          17711   17712   17713   17714   17715   17716   17717   17718+
+          17719   17720   17721   17722   17723   17724   17725   17726+
+          17823   17824   17825   17826   17827   17871   17872   17873+
+          17874   17875   17876   17877   17878   17879   17880   17881+
+          17882   17883   17884   17885   17886   17887   17888   17889+
+          17938   17943
$*  Mesh Collector: RBE3 Collector(4)
$*  Mesh: connection_recipe_4_mesh
RBE3       10726               4  1234561.000000     123   16598   16599+
+          16600   16601   16602   16603   16604   16605   16606   16607+
+          16608   16609   16610   16611   16612   16613   16614   16615+
+          16616   16617   16618   16619   16620   16621   16622   16623+
+          16624   16625   16626   16627   16628   16629   16630   16631+
+          16632   16633   16634   16635   16636   16637   16638   16639+
+          16640   16641   16642   16643   16644   16645   16646   16647+
+          16648   16649   16650   16651   16652   16653   16654   16655+
+          16656   16657   16658   16659   16660   16661   16662   16663+
+          16664   16665   16666   16667   16668   16669   16670   16671+
+          16672   16673   16674   16675   16676   16677   16678   16679+
+          16680   16681   16682   16683   16684   16685   16686   16687+
+          16688   16689   16690   16691   16692   17727   17728   17729+
+          17730   17731   17732   17733   17734   17735   17736   17737+
+          17738   17739   17740   17741   17742   17743   17744   17745+
+          17828   17829   17830   17831   17832   17890   17891   17892+
+          17893   17894   17895   17896   17897   17898   17899   17900+
+          17901   17902   17903   17904   17905   17906   17907   17908+
+          17939   17944
$*  Mesh Collector: RBE3 Collector(5)
$*  Mesh: connection_recipe_5_mesh
RBE3       10723               5  1234561.000000     123   11678   11679+
+          11680   11681   11682   11683   11684   11685   11686   11687+
+          11688   11689   11690   11691   11692   11693   11694   11695+
+          11696   11697   11698   11699   11700   11701   11702   11703+
+          11704   11705   11706   11707   11708   11709   11710   11711+
+          11712   11713   11714   11715   11716   11717   11718   11719+
+          11720   11721   11722   11723   11724   11725   11726   11727+
+          11728   11729   11730   11731   11732   11733   11734   11735+
+          11736   11737   11738   11739   11740   11741   11742   11743+
+          11744   11745   11746   11747   11748   11749   11750   11751+
+          11752   11753   11754   11755   11756   11757   11758   11759+
+          11760   11761   11762   11763   11764   11765   11766   11767+
+          11768   11769   11770   11771   11772   17048   17049   17050+
+          17051   17052   17053   17054   17055   17056   17057   17058+
+          17059   17060   17061   17062   17063   17064   17065   17066+
+          17813   17814   17815   17816   17817   17833   17834   17835+
+          17836   17837   17838   17839   17840   17841   17842   17843+
+          17844   17845   17846   17847   17848   17849   17850   17851+
+          17914   17941
$*  Mesh Collector: RBE3 Collector(6)
$*  Mesh: connection_recipe_6_mesh
RBE3       10721               6  1234561.000000     123   11773   11774+
+          11775   11776   11777   11778   11779   11780   11781   11782+
+          11783   11784   11785   11786   11787   11788   11789   11790+
+          11791   11792   11793   11794   11795   11796   11797   11798+
+          11799   11800   11801   11802   11803   11804   11805   11806+
+          11807   11808   11809   11810   11811   11812   11813   11814+
+          11815   11816   11817   11818   11819   11820   11821   11822+
+          11823   11824   11825   11826   11827   11828   11829   11830+
+          11831   11832   11833   11834   11835   11836   11837   11838+
+          11839   11840   11841   11842   11843   11844   11845   11846+
+          11847   11848   11849   11850   11851   11852   11853   11854+
+          11855   11856   11857   11858   11859   11860   11861   11862+
+          11863   11864   11865   11866   11867   17067   17068   17069+
+          17070   17071   17072   17073   17074   17075   17076   17077+
+          17078   17079   17080   17081   17082   17083   17084   17085+
+          17818   17819   17820   17821   17822   17852   17853   17854+
+          17855   17856   17857   17858   17859   17860   17861   17862+
+          17863   17864   17865   17866   17867   17868   17869   17870+
+          17915   17942
$*  Mesh Collector: Solid(1)
$*  Mesh: 3d_mesh(1)
CTETRA         1       1   17154       7       8       9    1240    1241+
+           1242    1243    1244    1245
CTETRA         2       1   17506      10      11      12    1246    1247+
+           1248    1249    1250    1251
CTETRA         3       1   13754      13   13755      10    1252    1253+
+          14475    1254    1255    1256
CTETRA         4       1   13752   13755      14      10   14500    1257+
+           1258    1259    1256    1260
CTETRA         5       1   13760   13761      15      10   14503    1261+
+           1262    1263    1264    1265
CTETRA         6       1   13752      14      16      10    1258    1266+
+           1267    1259    1260    1268
CTETRA         7       1   17505      15      16      10    1269    1270+
+           1271    1272    1265    1268
CTETRA         8       1   12141   12146      17      18   12424    1273+
+           1274    1275    1276    1277
CTETRA         9       1   12144      19      20      18    1278    1279+
+           1280    1281    1282    1283
CTETRA        10       1   17400   13614   13607      21   14015   14016+
+          13977    1284    1285    1286
CTETRA        11       1   17628      22      23      24    1287    1288+
+           1289    1290    1291    1292
CTETRA        12       1   13606   13615      22      24   14027    1293+
+           1294    1295    1296    1291
CTETRA        13       1   13614      25   13615      24    1297    1298+
+          14021    1299    1300    1296
CTETRA        14       1   17067   11781   17068      26   11851   11854+
+          17078    1301    1302    1303
CTETRA        15       1   13606      22      27      24    1294    1304+
+           1305    1295    1291    1306
CTETRA        16       1   17819      28   17915      29    1307    1308+
+          17820    1309    1310    1311
CTETRA        17       1   17819   17067   17915      28   11852   17077+
+          17820    1307    1312    1308
CTETRA        18       1   15984      30   16030      31    1313    1314+
+          16269    1315    1316    1317
CTETRA        19       1   17829   17939   17735      32   17830   17736+
+          16649    1318    1319    1320
CTETRA        20       1   15983   16017      33      31   16276    1321+
+           1322    1323    1324    1325
CTETRA        21       1   12963      34   12969      35    1326    1327+
+          13376    1328    1329    1330
CTETRA        22       1   12962      36   12963      35    1331    1332+
+          13344    1333    1334    1328
CTETRA        23       1   12969      34      37      35    1327    1335+
+           1336    1330    1329    1337
CTETRA        24       1   12601      37      35      38    1338    1337+
+           1339    1340    1341    1342
CTETRA        25       1   12601      35   12602      38    1339    1343+
+          12628    1340    1342    1344
CTETRA        26       1   17631      39      40      41    1345    1346+
+           1347    1348    1349    1350
CTETRA        27       1   12103      34      36      35    1351    1352+
+           1353    1354    1329    1334
CTETRA        28       1   16506   16516   16515      42   16535   16534+
+          16532    1355    1356    1357
CTETRA        29       1   12098      34   12103      35    1358    1351+
+          12260    1359    1329    1354
CTETRA        30       1   11678      43      44      45    1360    1361+
+           1362    1363    1364    1365
CTETRA        31       1   17779      46      47      48    1366    1367+
+           1368    1369    1370    1371
CTETRA        32       1   17152      49      50      43    1372    1373+
+           1374    1375    1376    1377
CTETRA        33       1   11678   11679      50      45   11698    1378+
+           1379    1363    1380    1381
CTETRA        34       1   17597      51   15729      52    1382    1383+
+          15833    1384    1385    1386
CTETRA        35       1   11678      50      43      45    1379    1377+
+           1360    1363    1381    1364
CTETRA        36       1   11687      43      50      53    1387    1377+
+           1388    1389    1390    1391
CTETRA        37       1   11876   11877      54      43   11955    1392+
+           1393    1394    1395    1396
CTETRA        38       1   11876      54      55      43    1393    1397+
+           1398    1394    1396    1399
CTETRA        39       1   17818   11781   17819      56   11849   11850+
+          17821    1400    1401    1402
CTETRA        40       1   17818   17819   11773      57   17821   11824+
+          11827    1403    1404    1405
CTETRA        41       1   12923   12928      58      59   13206    1406+
+           1407    1408    1409    1410
CTETRA        42       1   12082      60      61      59    1411    1412+
+           1413    1414    1415    1416
CTETRA        43       1   17284      62      63      64    1417    1418+
+           1419    1420    1421    1422
CTETRA        44       1   17151      62      49      63    1423    1424+
+           1425    1426    1418    1427
CTETRA        45       1   13649      62   13730      63    1428    1429+
+          14389    1430    1418    1431
CTETRA        46       1   13775      65      66      67    1432    1433+
+           1434    1435    1436    1437
CTETRA        47       1   13776      68      65      67    1438    1439+
+           1440    1441    1442    1436
CTETRA        48       1   13551      68   13776      67    1443    1438+
+          14563    1444    1442    1441
CTETRA        49       1   17502      69      66      67    1445    1446+
+           1447    1448    1449    1437
CTETRA        50       1   17501   14676      68      67   14816    1450+
+           1451    1452    1453    1442
CTETRA        51       1   14676      65      68      67    1454    1439+
+           1450    1453    1436    1442
CTETRA        52       1   17351      70      71      72    1455    1456+
+           1457    1458    1459    1460
CTETRA        53       1   12180      73   12181      74    1461    1462+
+          12562    1463    1464    1465
CTETRA        54       1   12181      75   12187      74    1466    1467+
+          12594    1465    1468    1469
CTETRA        55       1   12187      75      76      74    1467    1470+
+           1471    1469    1468    1472
CTETRA        56       1   12610      74      76      77    1473    1472+
+           1474    1475    1476    1477
CTETRA        57       1   11781      56   11790      78    1401    1478+
+          11822    1479    1480    1481
CTETRA        58       1   12609   12610      74      79   12653    1473+
+           1482    1483    1484    1485
CTETRA        59       1   12908   12909   12910      19   13145   13151+
+          13150    1486    1487    1488
CTETRA        60       1   16598   16608   16607      80   16618   16617+
+          16616    1489    1490    1491
CTETRA        61       1   17732      81   16601      82    1492    1493+
+          16686    1494    1495    1496
CTETRA        62       1   17911   13627   17412      83   14033   14030+
+          17421    1497    1498    1499
CTETRA        63       1   12885      75   12886      73    1500    1501+
+          13043    1502    1503    1504
CTETRA        64       1   17353   13404      84      85   13512    1505+
+           1506    1507    1508    1509
CTETRA        65       1   12880      75   12885      74    1510    1500+
+          13042    1511    1468    1512
CTETRA        66       1   17637      86      87      88    1513    1514+
+           1515    1516    1517    1518
CTETRA        67       1   16719      89   16721      86    1519    1520+
+          16836    1521    1522    1523
CTETRA        68       1   13582      86   13599      90    1524    1525+
+          13946    1526    1527    1528
CTETRA        69       1   13547      87   13583      86    1529    1530+
+          13861    1531    1514    1532
CTETRA        70       1   16719      86   16720      90    1521    1533+
+          16837    1534    1527    1535
CTETRA        71       1   17823   16520   16511      86   16578   16552+
+          16579    1536    1537    1538
CTETRA        72       1   17455   15737   15738      91   15795   15797+
+          15796    1539    1540    1541
CTETRA        73       1   17711   16508   16507      92   16587   16541+
+          16590    1542    1543    1544
CTETRA        74       1   17823   16520      86      93   16578    1537+
+           1536    1545    1546    1547
CTETRA        75       1   13599      86      89      90    1525    1522+
+           1548    1528    1527    1549
CTETRA        76       1   17782   16715      94      95   16814    1550+
+           1551    1552    1553    1554
CTETRA        77       1   11876   11877   11894      54   11955   12008+
+          12007    1393    1392    1555
CTETRA        78       1   16711      94      96      97    1556    1557+
+           1558    1559    1560    1561
CTETRA        79       1   16715      96      94      98    1562    1557+
+           1550    1563    1564    1565
CTETRA        80       1   16711   16712      94      97   16796    1566+
+           1556    1559    1567    1560
CTETRA        81       1   12944      99     100     101    1568    1569+
+           1570    1571    1572    1573
CTETRA        82       1   17284     102      62      64    1574    1575+
+           1417    1420    1576    1421
CTETRA        83       1   17087   15055   15054     103   15169   15171+
+          15170    1577    1578    1579
CTETRA        84       1   12861   12943     100     104   13264    1580+
+           1581    1582    1583    1584
CTETRA        85       1   13728     102   13733     105    1585    1586+
+          14402    1587    1588    1589
CTETRA        86       1   16993   13683   16994     106   14228   14230+
+          17010    1590    1591    1592
CTETRA        87       1   13725   13728   13733     105   14392   14402+
+          14401    1593    1587    1589
CTETRA        88       1   17283     107     105     108    1594    1595+
+           1596    1597    1598    1599
CTETRA        89       1   17937   13402   17703     109   13501   13498+
+          17705    1600    1601    1602
CTETRA        90       1   16997   13687   13684     110   14226   14225+
+          14202    1603    1604    1605
CTETRA        91       1   13726   13730   13728     105   14388   14396+
+          14391    1606    1607    1587
CTETRA        92       1   17283     105   17284     108    1596    1608+
+          17288    1597    1599    1609
CTETRA        93       1   16067     111   16078     112    1610    1611+
+          16441    1612    1613    1614
CTETRA        94       1   13756      84     113      13    1615    1616+
+           1617    1618    1619    1620
CTETRA        95       1   13546   13753   13757     113   14488   14481+
+          14487    1621    1622    1623
CTETRA        96       1   15200     112   15232     114    1624    1625+
+          15422    1626    1627    1628
CTETRA        97       1   13547   13583   13582      86   13861   13863+
+          13857    1531    1532    1524
CTETRA        98       1   15225     115     112     116    1629    1630+
+           1631    1632    1633    1634
CTETRA        99       1   16060   16067     112     117   16397    1612+
+           1635    1636    1637    1638
CTETRA       100       1   15200   15225   15232     112   15393   15423+
+          15422    1624    1631    1625
CTETRA       101       1   16067     111     112     117    1610    1613+
+           1612    1637    1639    1638
CTETRA       102       1   13576   13587      94      97   13893    1640+
+           1641    1642    1643    1560
CTETRA       103       1   16057     118     119     120    1644    1645+
+           1646    1647    1648    1649
CTETRA       104       1   17628   16057   16051     119   16367   16371+
+          16372    1650    1646    1651
CTETRA       105       1   13564     121      40      97    1652    1653+
+           1654    1655    1656    1657
CTETRA       106       1   13564   13588     121      97   13889    1658+
+           1652    1655    1659    1656
CTETRA       107       1   16703     121   16713      97    1660    1661+
+          16800    1662    1656    1663
CTETRA       108       1   16711   16715      96      94   16824    1562+
+           1558    1556    1550    1557
CTETRA       109       1   16703      40     121      97    1664    1653+
+           1660    1662    1657    1656
CTETRA       110       1   16713     121     122      97    1661    1665+
+           1666    1663    1656    1667
CTETRA       111       1   13682     123     124     125    1668    1669+
+           1670    1671    1672    1673
CTETRA       112       1   12960     126   12964     127    1674    1675+
+          13359    1676    1677    1678
CTETRA       113       1   16703   16704   16713     121   16789   16801+
+          16800    1660    1679    1661
CTETRA       114       1   12732     127     126     128    1680    1677+
+           1681    1682    1683    1684
CTETRA       115       1   12097      34     126     127    1685    1686+
+           1687    1688    1689    1677
CTETRA       116       1   12963      34     129     127    1326    1690+
+           1691    1692    1689    1693
CTETRA       117       1   15262     130   15271      31    1694    1695+
+          15561    1696    1697    1698
CTETRA       118       1   12963   12964      34     127   13351    1699+
+           1326    1692    1678    1689
CTETRA       119       1   15999     131     132     133    1700    1701+
+           1702    1703    1704    1705
CTETRA       120       1   15301     131     134     133    1706    1707+
+           1708    1709    1704    1710
CTETRA       121       1   15298     132   15302     133    1711    1712+
+          15697    1713    1705    1714
CTETRA       122       1   15298     132     133     135    1711    1705+
+           1713    1715    1716    1717
CTETRA       123       1   15301   15302     131     133   15689    1718+
+           1706    1709    1714    1704
CTETRA       124       1   13622   13632     136     137   14054    1719+
+           1720    1721    1722    1723
CTETRA       125       1   13661   13664     136     138   14136    1724+
+           1725    1726    1727    1728
CTETRA       126       1   17457   17458   15736     139   17491   15789+
+          15791    1729    1730    1731
CTETRA       127       1   13624   13661     136     140   14133    1725+
+           1732    1733    1734    1735
CTETRA       128       1   12097   12098   12119      34   12254   12333+
+          12334    1685    1358    1736
CTETRA       129       1   17457   15736   15737     141   15791   15793+
+          15792    1737    1738    1739
CTETRA       130       1   17144   17145     136     142   17160    1740+
+           1741    1742    1743    1744
CTETRA       131       1   17145     140     136     138    1745    1735+
+           1740    1746    1747    1728
CTETRA       132       1   17635   15990      69     143   16097    1748+
+           1749    1750    1751    1752
CTETRA       133       1   15259      69     144     143    1753    1754+
+           1755    1756    1752    1757
CTETRA       134       1   17564     145   15034     146    1758    1759+
+          15061    1760    1761    1762
CTETRA       135       1   17503     147     148     143    1763    1764+
+           1765    1766    1767    1768
CTETRA       136       1   14730     149     150     151    1769    1770+
+           1771    1772    1773    1774
CTETRA       137       1   17433   15051   15052     150   15158   15155+
+          15159    1775    1776    1777
CTETRA       138       1   17636     147   15989     143    1778    1779+
+          16093    1780    1767    1781
CTETRA       139       1   17405   17406   13636     152   17428   14076+
+          14078    1782    1783    1784
CTETRA       140       1   17502      69   15259     143    1445    1753+
+          15503    1785    1752    1756
CTETRA       141       1   17503   15256     147     143   15501    1786+
+           1763    1766    1787    1767
CTETRA       142       1   17221     153   15041     154    1788    1789+
+          15104    1790    1791    1792
CTETRA       143       1   13719     155     156       7    1793    1794+
+           1795    1796    1797    1798
CTETRA       144       1   17221   17919   15041     157   17222   15103+
+          15104    1799    1800    1801
CTETRA       145       1   17409   17410   13634     158   17425   14065+
+          14067    1802    1803    1804
CTETRA       146       1   15041     159     153     160    1805    1806+
+           1789    1807    1808    1809
CTETRA       147       1   17209   15040     159     161   15097    1810+
+           1811    1812    1813    1814
CTETRA       148       1   12113   12127     162     159   12364    1815+
+           1816    1817    1818    1819
CTETRA       149       1   17287     163     164     165    1820    1821+
+           1822    1823    1824    1825
CTETRA       150       1   14721   14726     150     166   15012    1826+
+           1827    1828    1829    1830
CTETRA       151       1   13729     163   13734     102    1831    1832+
+          14415    1833    1834    1835
CTETRA       152       1   17286     155     156     163    1836    1794+
+           1837    1838    1839    1840
CTETRA       153       1   17286     163     156     167    1838    1840+
+           1837    1841    1842    1843
CTETRA       154       1   13769     168   13770     169    1844    1845+
+          14555    1846    1847    1848
CTETRA       155       1   14651   14680     170     169   14832    1849+
+           1850    1851    1852    1853
CTETRA       156       1   13787   13788     170     169   14613    1854+
+           1855    1856    1857    1853
CTETRA       157       1   13787     171     170     172    1858    1859+
+           1855    1860    1861    1862
CTETRA       158       1   14645   14679     171     172   14837    1863+
+           1864    1865    1866    1861
CTETRA       159       1   13782     172     173     174    1867    1868+
+           1869    1870    1871    1872
CTETRA       160       1   14727   14729   14730     150   15020   15027+
+          15030    1873    1874    1771
CTETRA       161       1   11689       7   11690     175    1875    1876+
+          11707    1877    1878    1879
CTETRA       162       1   13765   13779     176     172   14571    1880+
+           1881    1882    1883    1884
CTETRA       163       1   14677     176      68     172    1885    1886+
+           1887    1888    1884    1889
CTETRA       164       1   17599   17600   15991     144   17622   16108+
+          16109    1890    1891    1892
CTETRA       165       1   17306   12746   12747     177   12831   12838+
+          12836    1893    1894    1895
CTETRA       166       1   17145     140     138     178    1745    1747+
+           1746    1896    1897    1898
CTETRA       167       1   17114   17115   12615     179   17134   12702+
+          12701    1899    1900    1901
CTETRA       168       1   17087     103   15054     180    1577    1579+
+          15170    1902    1903    1904
CTETRA       169       1   13678   13695   13696     178   14273   14281+
+          14283    1905    1906    1907
CTETRA       170       1   11785     140     181     182    1908    1909+
+           1910    1911    1912    1913
CTETRA       171       1   15990     183      69     144    1914    1915+
+           1748    1916    1917    1754
CTETRA       172       1   15196   15259     183     144   15518    1918+
+           1919    1920    1755    1917
CTETRA       173       1   17632     184   17633     185    1921    1922+
+          17648    1923    1924    1925
CTETRA       174       1   15990     144      69     143    1916    1754+
+           1748    1751    1757    1752
CTETRA       175       1   17599   15991   15988     144   16109   16107+
+          16110    1890    1892    1926
CTETRA       176       1   17633     184     186     185    1922    1927+
+           1928    1925    1924    1929
CTETRA       177       1   15727     187     144     188    1930    1931+
+           1932    1933    1934    1935
CTETRA       178       1   15988   15990   15989     144   16099   16098+
+          16100    1926    1916    1936
CTETRA       179       1   16505   16506   16515     189   16533   16532+
+          16531    1937    1938    1939
CTETRA       180       1   17053   11680   17054       8   11769   11768+
+          17064    1940    1941    1942
CTETRA       181       1   17351   13708      42      71   14326    1943+
+           1944    1457    1945    1946
CTETRA       182       1   15989     144   15990     143    1936    1916+
+          16098    1781    1757    1751
CTETRA       183       1   15256   15258   15257     144   15509   15512+
+          15511    1947    1948    1949
CTETRA       184       1   17925   13402     190     191   13504    1950+
+           1951    1952    1953    1954
CTETRA       185       1   13678     178     192     193    1905    1955+
+           1956    1957    1958    1959
CTETRA       186       1   17283     194     195     196    1960    1961+
+           1962    1963    1964    1965
CTETRA       187       1   16050   16052   16051     197   16347   16339+
+          16348    1966    1967    1968
CTETRA       188       1   17086   17087   15054     180   17090   15170+
+          15179    1969    1902    1904
CTETRA       189       1   12133   12152     198     194   12455    1970+
+           1971    1972    1973    1974
CTETRA       190       1   17221   17919     157     199   17222    1800+
+           1799    1975    1976    1977
CTETRA       191       1   17921   12733   17221     200   12764   12762+
+          17223    1978    1979    1980
CTETRA       192       1   12152      20     198     194    1981    1982+
+           1970    1973    1983    1974
CTETRA       193       1   17283     194     196     201    1960    1964+
+           1963    1984    1985    1986
CTETRA       194       1   17284     198     194     202    1987    1974+
+           1988    1989    1990    1991
CTETRA       195       1   17221   12733   17919     203   12762   12761+
+          17222    1992    1993    1994
CTETRA       196       1   17790     204     205     206    1995    1996+
+           1997    1998    1999    2000
CTETRA       197       1   13575      96   13584      98    2001    2002+
+          13877    2003    1564    2004
CTETRA       198       1   17925   13402   17751     190   13504   13502+
+          17753    1951    1950    2005
CTETRA       199       1   16710      40      96     207    2006    2007+
+           2008    2009    2010    2011
CTETRA       200       1   16710      40   16711      96    2006    2012+
+          16799    2008    2007    1558
CTETRA       201       1   16607     208     209     210    2013    2014+
+           2015    2016    2017    2018
CTETRA       202       1   13586      96      40     207    2019    2007+
+           2020    2021    2011    2010
CTETRA       203       1   17890   16607     208     209   16655    2013+
+           2022    2023    2015    2014
CTETRA       204       1   17828   17890   17944     211   16654   17904+
+          17832    2024    2025    2026
CTETRA       205       1   17828   16607   17890     209   16652   16655+
+          16654    2027    2015    2023
CTETRA       206       1   15290   15292   15294     212   15643   15647+
+          15646    2028    2029    2030
CTETRA       207       1   16715   16717      96      98   16825    2031+
+           1562    1563    2032    1564
CTETRA       208       1   13690      49      55      43    2033    2034+
+           2035    2036    1376    1399
CTETRA       209       1   17599   15727     144     213   15837    1932+
+           1890    2037    2038    2039
CTETRA       210       1   15726     144   15727     187    2040    1932+
+          15763    2041    1931    1930
CTETRA       211       1   15977   15991   15978     183   16103   16105+
+          16104    2042    2043    2044
CTETRA       212       1   13693      55      49      63    2045    2034+
+           2046    2047    2048    1427
CTETRA       213       1   13689   13690   13693      55   14249   14261+
+          14262    2049    2035    2045
CTETRA       214       1   17629     214      23      22    2050    2051+
+           2052    2053    2054    1288
CTETRA       215       1   12963   12965   12967     129   13345   13353+
+          13350    1691    2055    2056
CTETRA       216       1   17564   15032   15034     145   15059   15063+
+          15061    1758    2057    1759
CTETRA       217       1   17495   15244   15205     119   15467   15468+
+          15351    2058    2059    2060
CTETRA       218       1   11876      54   11892      55    1393    2061+
+          12005    1398    1397    2062
CTETRA       219       1   13689     215     124      55    2063    2064+
+           2065    2049    2066    2067
CTETRA       220       1   17221   15041     153     157   15104    1789+
+           1788    1799    1801    2068
CTETRA       221       1   12912     216     153     217    2069    2070+
+           2071    2072    2073    2074
CTETRA       222       1   12912     216   12959     153    2069    2075+
+          13331    2071    2070    2076
CTETRA       223       1   17921   17221     154     200   17223    1790+
+           2077    1978    1980    2078
CTETRA       224       1   14644     173   14706     218    2079    2080+
+          14931    2081    2082    2083
CTETRA       225       1   17305   12746     219     220   12830    2084+
+           2085    2086    2087    2088
CTETRA       226       1   17921   17221   15041     154   17223   15104+
+          15106    2077    1790    1792
CTETRA       227       1   13552   13553   13740     218   13969   14452+
+          14453    2089    2090    2091
CTETRA       228       1   17500   14643     221     222   14819    2092+
+           2093    2094    2095    2096
CTETRA       229       1   17389   13389     223     224   13441    2097+
+           2098    2099    2100    2101
CTETRA       230       1   17148     225   11882     226    2102    2103+
+          12026    2104    2105    2106
CTETRA       231       1   17287     163   14666     164    1820    2107+
+          14773    1822    1821    2108
CTETRA       232       1   17922   17287   14666     164   17293   14773+
+          14775    2109    1822    2108
CTETRA       233       1   17351   13402   17925     191   13503   13504+
+          17380    2110    1953    1952
CTETRA       234       1   13695     225     226     227    2111    2105+
+           2112    2113    2114    2115
CTETRA       235       1   17665   15864   17666     228   15936   15937+
+          17686    2116    2117    2118
CTETRA       236       1   13695   13697     225     227   14287    2119+
+           2111    2113    2120    2114
CTETRA       237       1   13700     225   13701     229    2121    2122+
+          14307    2123    2124    2125
CTETRA       238       1   13644   13669   13645     230   14177   14176+
+          14178    2126    2127    2128
CTETRA       239       1   13669     231     232     233    2129    2130+
+           2131    2132    2133    2134
CTETRA       240       1   15239   15240     234     235   15449    2135+
+           2136    2137    2138    2139
CTETRA       241       1   13682     124     236     125    1670    2140+
+           2141    1671    1673    2142
CTETRA       242       1   15295     212     237     238    2143    2144+
+           2145    2146    2147    2148
CTETRA       243       1   15296     239     212     240    2149    2150+
+           2151    2152    2153    2154
CTETRA       244       1   15295     237     212     241    2145    2144+
+           2143    2155    2156    2157
CTETRA       245       1   16068     242     111     117    2158    2159+
+           2160    2161    2162    1639
CTETRA       246       1   15292     212     243     244    2029    2163+
+           2164    2165    2166    2167
CTETRA       247       1   16064   16072     245     212   16419    2168+
+           2169    2170    2171    2172
CTETRA       248       1   15290   15294     245     212   15646    2173+
+           2174    2028    2030    2172
CTETRA       249       1   15294   15296     245     212   15661    2175+
+           2173    2030    2151    2172
CTETRA       250       1   17763     122   13576     246    2176    2177+
+          13850    2178    2179    2180
CTETRA       251       1   17579   16019   16015     247   16212   16216+
+          16214    2181    2182    2183
CTETRA       252       1   17445     130   13406     248    2184    2185+
+          13534    2186    2187    2188
CTETRA       253       1   17579   13409   17932     249   13540   13542+
+          17584    2189    2190    2191
CTETRA       254       1   12952   12956     250     251   13308    2192+
+           2193    2194    2195    2196
CTETRA       255       1   17072   11776   17073     252   11861   11864+
+          17083    2197    2198    2199
CTETRA       256       1   12949   12951   12955     253   13294   13313+
+          13311    2200    2201    2202
CTETRA       257       1   12153   12154     254     198   12463    2203+
+           2204    2205    2206    2207
CTETRA       258       1   12951     255     250     253    2208    2209+
+           2210    2201    2211    2212
CTETRA       259       1   13591   13595     256     257   13926    2213+
+           2214    2215    2216    2217
CTETRA       260       1   17634   17635      66     257   17641    2218+
+           2219    2220    2221    2222
CTETRA       261       1   12875   12876   12877     198   13026   13022+
+          13025    2223    2224    2225
CTETRA       262       1   12744   12745     251     258   12827    2226+
+           2227    2228    2229    2230
CTETRA       263       1   12161   12162     259     251   12486    2231+
+           2232    2233    2234    2235
CTETRA       264       1   17534     114   15232     260    2236    1628+
+          15425    2237    2238    2239
CTETRA       265       1   17365     261     262     263    2240    2241+
+           2242    2243    2244    2245
CTETRA       266       1   17175   12750     264     265   12852    2246+
+           2247    2248    2249    2250
CTETRA       267       1   17175   12750   12749     264   12852   12856+
+          12850    2247    2246    2251
CTETRA       268       1   12748     266     101     267    2252    2253+
+           2254    2255    2256    2257
CTETRA       269       1   12951   12952     250      99   13303    2193+
+           2210    2258    2259    2260
CTETRA       270       1   12749     264   12750     268    2251    2246+
+          12856    2261    2262    2263
CTETRA       271       1   12952     251      99     101    2194    2264+
+           2259    2265    2266    1572
CTETRA       272       1   17221     153     154     200    1788    1791+
+           1790    1980    2267    2078
CTETRA       273       1   17590     269   15736     270    2268    2269+
+          15819    2270    2271    2272
CTETRA       274       1   17187   12733   12732     271   12759   12760+
+          12754    2273    2274    2275
CTETRA       275       1   12744     101     251     272    2276    2266+
+           2227    2277    2278    2279
CTETRA       276       1   17636     273   17637     147    2280    2281+
+          17642    1778    2282    2283
CTETRA       277       1   15256     147     143     274    1786    1767+
+           1787    2284    2285    2286
CTETRA       278       1   16994     123   13682     125    2287    1668+
+          14231    2288    1672    1671
CTETRA       279       1   17022   11897   11896     275   12023   12025+
+          12024    2289    2290    2291
CTETRA       280       1   15256     143     144     274    1787    1757+
+           1947    2284    2286    2292
CTETRA       281       1   17637     276   15995     147    2293    2294+
+          16128    2283    2295    2296
CTETRA       282       1   17504     276     273     147    2297    2298+
+           2299    2300    2295    2282
CTETRA       283       1   17636     273     147     148    2280    2282+
+           1778    2301    2302    1764
CTETRA       284       1   17504   15253     276     147   15497    2303+
+           2297    2300    2304    2295
CTETRA       285       1   17502      66      65      67    1447    1433+
+           2305    1448    1437    1436
CTETRA       286       1   13778     170      65     172    2306    2307+
+           2308    2309    1862    2310
CTETRA       287       1   14676      68      65     172    1450    1439+
+           1454    2311    1889    2310
CTETRA       288       1   16031   16045   16044     277   16319   16323+
+          16321    2312    2313    2314
CTETRA       289       1   17637   16722   17638      87   16844   16843+
+          17644    1515    2315    2316
CTETRA       290       1   17016   11874   11875     278   11926   11931+
+          11930    2317    2318    2319
CTETRA       291       1   17708   16511   16510     279   16581   16553+
+          16584    2320    2321    2322
CTETRA       292       1   13550      66   13579      67    2323    2324+
+          13869    2325    1437    2326
CTETRA       293       1   17709     279   16510     280    2327    2322+
+          16583    2328    2329    2330
CTETRA       294       1   14685   14686     281     282   14869    2331+
+           2332    2333    2334    2335
CTETRA       295       1   13712     281   13733     283    2336    2337+
+          14400    2338    2339    2340
CTETRA       296       1   17824   16511   17938     284   16580   16582+
+          17825    2341    2342    2343
CTETRA       297       1   17938   16511   17708     285   16582   16581+
+          17718    2344    2345    2346
CTETRA       298       1   13769   13786     281     169   14602    2347+
+           2348    1846    2349    2350
CTETRA       299       1   15304     134     286     287    2351    2352+
+           2353    2354    2355    2356
CTETRA       300       1   17638      87   16730     113    2316    2357+
+          16889    2358    2359    2360
CTETRA       301       1   16519     113      87     288    2361    2359+
+           2362    2363    2364    2365
CTETRA       302       1   16518      84     113     289    2366    1616+
+           2367    2368    2369    2370
CTETRA       303       1   17639     113     290     291    2371    2372+
+           2373    2374    2375    2376
CTETRA       304       1   16509   16518      84     113   16544    2366+
+           2377    2378    2367    1616
CTETRA       305       1      25     214      23     292    2379    2051+
+           2380    2381    2382    2383
CTETRA       306       1   13709   13785   13768     293   14600   14592+
+          14596    2384    2385    2386
CTETRA       307       1   13709   13710   13785     293   14386   14598+
+          14600    2384    2387    2385
CTETRA       308       1   13548      88      90     148    2388    2389+
+           2390    2391    2392    2393
CTETRA       309       1   14647     293     282     294    2394    2395+
+           2396    2397    2398    2399
CTETRA       310       1   14647     282   14648     294    2396    2400+
+          14870    2397    2399    2401
CTETRA       311       1   17497     295     292     296    2402    2403+
+           2404    2405    2406    2407
CTETRA       312       1   13604     214   13613     292    2408    2409+
+          14008    2410    2382    2411
CTETRA       313       1   13645     293   13768     297    2412    2386+
+          14524    2413    2414    2415
CTETRA       314       1   13604     298     214     292    2416    2417+
+           2408    2410    2418    2382
CTETRA       315       1   13603     298     292     296    2419    2418+
+           2420    2421    2422    2407
CTETRA       316       1     214     298     120     292    2417    2423+
+           2424    2382    2418    2425
CTETRA       317       1   11781      56     299      26    1401    2426+
+           2427    1302    2428    2429
CTETRA       318       1   15867     300     301     302    2430    2431+
+           2432    2433    2434    2435
CTETRA       319       1   16083     303     300     301    2436    2437+
+           2438    2439    2440    2431
CTETRA       320       1   17351   13401     304     305   13496    2441+
+           2442    2443    2444    2445
CTETRA       321       1   17925   17754   13708     306   17777   14330+
+          14329    2446    2447    2448
CTETRA       322       1   17351     307      72     305    2449    2450+
+           1458    2443    2451    2452
CTETRA       323       1   16085   16086     300     308   16467    2453+
+           2454    2455    2456    2457
CTETRA       324       1   13623   13632   13631     136   14052   14053+
+          14049    2458    1719    2459
CTETRA       325       1   17143     309     310     311    2460    2461+
+           2462    2463    2464    2465
CTETRA       326       1   16083     312   16085     300    2466    2467+
+          16465    2438    2468    2454
CTETRA       327       1   17409   13634   13633     313   14067   14069+
+          14068    2469    2470    2471
CTETRA       328       1   17409   13633     314     313   14068    2472+
+           2473    2469    2471    2474
CTETRA       329       1   13615      25     214      22    1298    2379+
+           2475    1293    2476    2054
CTETRA       330       1   13610   13611   13612     315   13998   14010+
+          14006    2477    2478    2479
CTETRA       331       1   17402     315   13612     316    2480    2479+
+          14005    2481    2482    2483
CTETRA       332       1   17430   14724   14723     315   15000   14999+
+          14998    2484    2485    2486
CTETRA       333       1   13557     317     315     318    2487    2488+
+           2489    2490    2491    2492
CTETRA       334       1   17919   17209   15041     160   17213   15101+
+          15103    2493    2494    1807
CTETRA       335       1   17402   13610     315     319   14004    2477+
+           2480    2495    2496    2497
CTETRA       336       1   11789     320     321     322    2498    2499+
+           2500    2501    2502    2503
CTETRA       337       1   17430   14724     315     323   15000    2485+
+           2484    2504    2505    2506
CTETRA       338       1   12733     126     324     325    2507    2508+
+           2509    2510    2511    2512
CTETRA       339       1   15264   15266   15265     326   15547   15546+
+          15548    2513    2514    2515
CTETRA       340       1   15983     326   15984      31    2516    2517+
+          16113    1323    2518    1315
CTETRA       341       1   15264      30     327     326    2519    2520+
+           2521    2513    2522    2523
CTETRA       342       1   15728     328     326     329    2524    2525+
+           2526    2527    2528    2529
CTETRA       343       1   15984   15992      30     326   16117    2530+
+           1313    2517    2531    2522
CTETRA       344       1   15272     326     327     330    2532    2523+
+           2533    2534    2535    2536
CTETRA       345       1   17320   12733     324     325   12763    2509+
+           2537    2538    2510    2512
CTETRA       346       1   17320   12733   17921     324   12763   12764+
+          17322    2537    2509    2539
CTETRA       347       1   15254     330   15272     331    2540    2534+
+          15574    2541    2542    2543
CTETRA       348       1   15254     332     331     333    2544    2545+
+           2541    2546    2547    2548
CTETRA       349       1   15254   15257     326     334   15505    2549+
+           2550    2551    2552    2553
CTETRA       350       1   17632     335     184     336    2554    2555+
+           1921    2556    2557    2558
CTETRA       351       1   17001   13791   13627     337   14635   14634+
+          14034    2559    2560    2561
CTETRA       352       1   17632     185   17633     338    1923    1925+
+          17648    2562    2563    2564
CTETRA       353       1   16708   16716     207     184   16819    2565+
+           2566    2567    2568    2569
CTETRA       354       1   17342   15041   15040     159   15105   15102+
+          15100    2570    1805    1810
CTETRA       355       1   17320   12732   12733     128   12758   12760+
+          12763    2571    1682    2572
CTETRA       356       1   13585     184     207     335    2573    2569+
+           2574    2575    2555    2576
CTETRA       357       1   16708     207     339     184    2566    2577+
+           2578    2567    2569    2579
CTETRA       358       1   17634     256     257     340    2580    2217+
+           2220    2581    2582    2583
CTETRA       359       1   13585   13590     207     184   13911    2584+
+           2574    2573    2585    2569
CTETRA       360       1   13591     256     339     184    2214    2586+
+           2587    2588    2589    2579
CTETRA       361       1   17176   17177   12748     341   17202   12840+
+          12841    2590    2591    2592
CTETRA       362       1   12172   12175   12174     101   12533   12534+
+          12527    2593    2594    2595
CTETRA       363       1   12943   12945     101     266   13267    2596+
+           2597    2598    2599    2253
CTETRA       364       1   17174   12749     104     342   12849    2600+
+           2601    2602    2603    2604
CTETRA       365       1   17600   15726     183     144   15839    2605+
+           2606    1891    2040    1917
CTETRA       366       1   12861   12862   12943     104   13054   13263+
+          13264    1582    2607    1583
CTETRA       367       1   15725   15726     183     343   15760    2605+
+           2608    2609    2610    2611
CTETRA       368       1   17175   17176   12750     265   17203   12851+
+          12852    2248    2612    2249
CTETRA       369       1   15195     183   15259      69    2613    1918+
+          15517    2614    1915    1753
CTETRA       370       1   15977   15990     183      69   16096    1914+
+           2042    2615    1748    1915
CTETRA       371       1   13571   13596     344     345   13929    2616+
+           2617    2618    2619    2620
CTETRA       372       1   17026     346     347     348    2621    2622+
+           2623    2624    2625    2626
CTETRA       373       1   17790   16693   16694     349   16735   16737+
+          16736    2627    2628    2629
CTETRA       374       1   11683   11684   11693     350   11720   11719+
+          11718    2630    2631    2632
CTETRA       375       1   11684     347   11685     346    2633    2634+
+          11724    2635    2622    2636
CTETRA       376       1   16727     345     351     352    2637    2638+
+           2639    2640    2641    2642
CTETRA       377       1   16011     353     134     286    2643    2644+
+           2645    2646    2647    2352
CTETRA       378       1   17657   15855   15856     286   15894   15900+
+          15898    2648    2649    2650
CTETRA       379       1   15204     119   15243     197    2651    2652+
+          15466    2653    2654    2655
CTETRA       380       1   17657     286   15856     354    2648    2650+
+          15898    2656    2657    2658
CTETRA       381       1   16047   16053   16049     355   16344   16352+
+          16350    2659    2660    2661
CTETRA       382       1   15203   15215   15204     118   15357   15359+
+          15361    2662    2663    2664
CTETRA       383       1   16011     134   16012     286    2645    2665+
+          16197    2646    2352    2666
CTETRA       384       1   17502   17503      65     148   17507    2667+
+           2305    2668    1765    2669
CTETRA       385       1   17021   11880   11897     356   11987   12022+
+          12021    2670    2671    2672
CTETRA       386       1   17636      88     273     148    2673    2674+
+           2280    2301    2392    2302
CTETRA       387       1   13548     273      88     148    2675    2674+
+           2388    2391    2302    2392
CTETRA       388       1   15214     118   15215     120    2676    2663+
+          15360    2677    1648    2678
CTETRA       389       1   15214     119     118     120    2679    1645+
+           2676    2677    1649    1648
CTETRA       390       1   16027   16029   16028     130   16264   16265+
+          16263    2680    2681    2682
CTETRA       391       1   15985   15992   15997     327   16119   16140+
+          16139    2683    2684    2685
CTETRA       392       1   15986   15987   16025     357   16136   16247+
+          16248    2686    2687    2688
CTETRA       393       1   17070   11779   11778     358   11858   11815+
+          11857    2689    2690    2691
CTETRA       394       1   17504     359     273      16    2692    2693+
+           2299    2694    2695    2696
CTETRA       395       1   15985   15986   16028     327   16143   16260+
+          16261    2683    2697    2698
CTETRA       396       1   13772     273   13777     359    2699    2700+
+          14568    2701    2693    2702
CTETRA       397       1   17500   15195   17501     360   15313   15513+
+          17514    2703    2704    2705
CTETRA       398       1   14643     176   14644     218    2706    2707+
+          14827    2708    2709    2081
CTETRA       399       1   13741     173     218     361    2710    2082+
+           2711    2712    2713    2714
CTETRA       400       1   17502      65   14676      67    2305    1454+
+          14814    1448    1436    1453
CTETRA       401       1   13552     186   13567     221    2715    2716+
+          13797    2717    2718    2719
CTETRA       402       1   13777     273      65     359    2700    2720+
+           2721    2702    2693    2722
CTETRA       403       1   13709   13710     293     294   14386    2387+
+           2384    2723    2724    2398
CTETRA       404       1   17535   15231   15230     308   15429   15419+
+          15417    2725    2726    2727
CTETRA       405       1   15230     362     300     363    2728    2729+
+           2730    2731    2732    2733
CTETRA       406       1   15228   15230     300     363   15414    2730+
+           2734    2735    2731    2733
CTETRA       407       1   17535   15866   15865     308   15954   15953+
+          15950    2725    2736    2737
CTETRA       408       1   15225     312     308     116    2738    2739+
+           2740    1632    2741    2742
CTETRA       409       1   17536   15230   15228     363   15416   15414+
+          15407    2743    2731    2735
CTETRA       410       1   15202   15210     355     364   15335    2744+
+           2745    2746    2747    2748
CTETRA       411       1   15204   15215   15214     118   15359   15360+
+          15353    2664    2663    2676
CTETRA       412       1   16049   16056   16054     118   16362   16364+
+          16355    2749    2750    2751
CTETRA       413       1   15247     355     365     235    2752    2753+
+           2754    2755    2756    2757
CTETRA       414       1   15213   15214   15215     120   15364   15360+
+          15363    2758    2677    2678
CTETRA       415       1   16046     355     118     364    2759    2760+
+           2761    2762    2748    2763
CTETRA       416       1   17501   14676   14675      68   14816   14818+
+          14817    1451    1450    2764
CTETRA       417       1   13765   13782     172     173   14581    1867+
+           1882    2765    1869    1868
CTETRA       418       1   15202     355   15235     366    2745    2766+
+          15495    2767    2768    2769
CTETRA       419       1   15202   15235     367     366   15495    2770+
+           2771    2767    2769    2772
CTETRA       420       1   11789     321     320     368    2500    2499+
+           2498    2773    2774    2775
CTETRA       421       1   15235     355   15248     235    2766    2776+
+          15492    2777    2756    2778
CTETRA       422       1   11872   11886   11884     192   11966   11961+
+          11964    2779    2780    2781
CTETRA       423       1   16049     355   16053     197    2661    2660+
+          16352    2782    2783    2784
CTETRA       424       1   16046   16049     118     355   16351    2749+
+           2761    2759    2661    2760
CTETRA       425       1   13752      14   13773      16    1258    2785+
+          14543    1267    1266    2786
CTETRA       426       1   13751   13772     359      16   14541    2701+
+           2787    2788    2789    2695
CTETRA       427       1   17352   17353   13403     369   17381   13506+
+          13505    2790    2791    2792
CTETRA       428       1   16514     189   16515     370    2793    1939+
+          16530    2794    2795    2796
CTETRA       429       1   17505     276      14      16    2797    2798+
+           2799    1271    2800    1266
CTETRA       430       1   17351   17352   13401     371   17379   13497+
+          13496    2801    2802    2803
CTETRA       431       1   17147   17148   11882     226   17164   12026+
+          11979    2804    2104    2106
CTETRA       432       1   16510   16511   16520      87   16553   16552+
+          16551    2805    2806    2807
CTETRA       433       1   14658      15     359      16    2808    2809+
+           2810    2811    1270    2695
CTETRA       434       1   17871   16520      93     372   16576    1546+
+           2812    2813    2814    2815
CTETRA       435       1   16519     113     288     373    2361    2364+
+           2363    2816    2817    2818
CTETRA       436       1   12115     217      58      59    2819    2820+
+           2821    2822    2823    1410
CTETRA       437       1   12081   12082   12115      59   12211   12375+
+          12374    2824    1414    2822
CTETRA       438       1   12621     374      58     375    2825    2826+
+           2827    2828    2829    2830
CTETRA       439       1   13767   13785   13783     376   14591   14593+
+          14589    2831    2832    2833
CTETRA       440       1   17810      58   12621     377    2834    2827+
+          12688    2835    2836    2837
CTETRA       441       1   12744     101   12748     378    2276    2254+
+          12842    2838    2839    2840
CTETRA       442       1   12116   12119      37      58   12322    2841+
+           2842    2843    2844    2845
CTETRA       443       1   13710   13725     282     294   14379    2846+
+           2847    2724    2848    2399
CTETRA       444       1   17810      37      58     377    2849    2845+
+           2834    2835    2850    2836
CTETRA       445       1   12913   12922      37      58   13189    2851+
+           2852    2853    2854    2845
CTETRA       446       1   17875     379   16516     380    2855    2856+
+          16568    2857    2858    2859
CTETRA       447       1   12748   12750     265     267   12853    2249+
+           2860    2255    2861    2862
CTETRA       448       1   12744   12748     101     267   12842    2254+
+           2276    2863    2255    2257
CTETRA       449       1   12944   12952      99     101   13299    2259+
+           1568    1571    2265    1572
CTETRA       450       1   12738     259     381     382    2864    2865+
+           2866    2867    2868    2869
CTETRA       451       1   17179     383   12730     384    2870    2871+
+          12771    2872    2873    2874
CTETRA       452       1   12170   12174      99     101   12526    2875+
+           2876    2877    2595    1572
CTETRA       453       1   17180   12738     381     382   12788    2866+
+           2878    2879    2867    2869
CTETRA       454       1   11872   11875     192     385   11933    2880+
+           2779    2881    2882    2883
CTETRA       455       1   12174   12176      99     101   12541    2884+
+           2875    2595    2885    1572
CTETRA       456       1   17072     386   11776     252    2886    2887+
+          11861    2197    2888    2198
CTETRA       457       1   11776   11777     181     387   11805    2889+
+           2890    2891    2892    2893
CTETRA       458       1   13628     137     388     389    2894    2895+
+           2896    2897    2898    2899
CTETRA       459       1   11684     346   11693     350    2635    2900+
+          11719    2631    2901    2632
CTETRA       460       1   17276     137   17277     390    2902    2903+
+          17299    2904    2905    2906
CTETRA       461       1   11682     391   11683     392    2907    2908+
+          11714    2909    2910    2911
CTETRA       462       1   14727   14729     150     393   15020    1874+
+           1873    2912    2913    2914
CTETRA       463       1   11683     394   11692     395    2915    2916+
+          11716    2917    2918    2919
CTETRA       464       1   17026     348   11871     396    2624    2920+
+          11923    2921    2922    2923
CTETRA       465       1   17734   16599      46     397   16690    2924+
+           2925    2926    2927    2928
CTETRA       466       1     136     137     309     390    1723    2929+
+           2930    2931    2905    2932
CTETRA       467       1   16599     397   16600     398    2927    2933+
+          16624    2934    2935    2936
CTETRA       468       1   17780   16714   16729     399   16802   16883+
+          16884    2937    2938    2939
CTETRA       469       1   13632   13634     309     137   14071    2940+
+           2941    1722    2942    2929
CTETRA       470       1   17277     136   17278     142    2943    2944+
+          17298    2945    1744    2946
CTETRA       471       1   13753      87      14     113    2947    2948+
+           2949    1622    2359    2950
CTETRA       472       1   16510      87     113     280    2805    2359+
+           2951    2330    2952    2953
CTETRA       473       1   17823     400      86     401    2954    2955+
+           1536    2956    2957    2958
CTETRA       474       1   13622     388   13629     137    2959    2960+
+          14056    1721    2895    2961
CTETRA       475       1   17852   17853   11790     402   17869   11845+
+          11846    2962    2963    2964
CTETRA       476       1   13628   13633   13629     137   14059   14062+
+          14064    2894    2965    2961
CTETRA       477       1   15980   16073     403     239   16417    2966+
+           2967    2968    2969    2970
CTETRA       478       1   13628   13629     388     137   14064    2960+
+           2896    2894    2961    2895
CTETRA       479       1   15738     242   15739     404    2971    2972+
+          15800    2973    2974    2975
CTETRA       480       1   16068     242   16075     111    2158    2976+
+          16432    2160    2159    2977
CTETRA       481       1   15290     405     406     212    2978    2979+
+           2980    2028    2981    2982
CTETRA       482       1   15289   15290   15294     245   15641   15646+
+          15648    2983    2174    2173
CTETRA       483       1   16071     403     245     405    2984    2985+
+           2986    2987    2988    2989
CTETRA       484       1   16075     242     405     111    2976    2990+
+           2991    2977    2159    2992
CTETRA       485       1   15198     242   15227     111    2993    2994+
+          15395    2995    2159    2996
CTETRA       486       1   17533   15200   15232     114   15426   15422+
+          15424    2997    1626    1628
CTETRA       487       1   15864     228     112     407    2117    2998+
+           2999    3000    3001    3002
CTETRA       488       1   15227     111     242     117    2996    2159+
+           2994    3003    1639    2162
CTETRA       489       1   14701     293     408     376    3004    3005+
+           3006    3007    3008    3009
CTETRA       490       1   14701     408   14702     376    3006    3010+
+          14917    3007    3009    3011
CTETRA       491       1   14646     171   14647     376    3012    3013+
+          14867    3014    3015    3016
CTETRA       492       1   13766     408     376     173    3017    3009+
+           3018    3019    3020    3021
CTETRA       493       1   13783   13785     171     376   14593    3022+
+           3023    2833    2832    3015
CTETRA       494       1   11876   11892   11891      55   12005   12006+
+          12001    1398    2062    3024
CTETRA       495       1   17595   15732   15731     409   15830   15778+
+          15829    3025    3026    3027
CTETRA       496       1   13691     410      54      55    3028    3029+
+           3030    3031    3032    1397
CTETRA       497       1   11686      54     410     411    3033    3029+
+           3034    3035    3036    3037
CTETRA       498       1   17589   15737     412     413   15817    3038+
+           3039    3040    3041    3042
CTETRA       499       1   13650      49   13690      43    3043    2033+
+          14252    3044    1376    2036
CTETRA       500       1   17520     414   15297     415    3045    3046+
+          15666    3047    3048    3049
CTETRA       501       1   17929   17570     416     414   17572    3050+
+           3051    3052    3053    3054
CTETRA       502       1   12127     162     159     217    1815    1819+
+           1818    3055    3056    3057
CTETRA       503       1   17813      54   11687     417    3058    3059+
+          11733    3060    3061    3062
CTETRA       504       1   11892      54   11894     410    2061    1555+
+          12002    3063    3029    3064
CTETRA       505       1   11876      55      49      43    1398    2034+
+           3065    1394    1399    1376
CTETRA       506       1   13783     173     376     418    3066    3021+
+           2833    3067    3068    3069
CTETRA       507       1   17210   15038     162     419   15092    3070+
+           3071    3072    3073    3074
CTETRA       508       1   13783     376     171     418    2833    3015+
+           3023    3067    3069    3075
CTETRA       509       1   13740   13765     176     173   14537    1881+
+           3076    3077    2765    3078
CTETRA       510       1   13741   13742     173     420   14471    3079+
+           2710    3080    3081    3082
CTETRA       511       1   13741     173     361     421    2710    2713+
+           2712    3083    3084    3085
CTETRA       512       1   13766     376   13783     173    3018    2833+
+          14590    3019    3021    3066
CTETRA       513       1   14702     376     408     173    3011    3009+
+           3010    3086    3021    3020
CTETRA       514       1   17434   14729   14728     422   15024   15022+
+          15023    3087    3088    3089
CTETRA       515       1   13636     150     422     423    3090    3091+
+           3092    3093    3094    3095
CTETRA       516       1   14650   14678   14676     170   14823   14825+
+          14815    3096    3097    3098
CTETRA       517       1   14644     176   14677     173    2707    1885+
+          14828    2079    3078    3099
CTETRA       518       1   13764     176   13779      68    3100    1880+
+          14570    3101    1886    3102
CTETRA       519       1   17632   17633   16041     424   17648   16286+
+          16285    3103    3104    3105
CTETRA       520       1   14675   14677     176      68   14829    1885+
+           3106    2764    1887    1886
CTETRA       521       1   14677     176     172     173    1885    1884+
+           1888    3099    3078    1868
CTETRA       522       1   13588     122   13589     121    3107    3108+
+          13897    1658    1665    3109
CTETRA       523       1   16611     122     121     425    3110    1665+
+           3111    3112    3113    3114
CTETRA       524       1   17502   14650   14676      65   14732   14815+
+          14814    2305    3115    1454
CTETRA       525       1   13713     283     426     427    3116    3117+
+           3118    3119    3120    3121
CTETRA       526       1   13734     428     163     223    3122    3123+
+           1832    3124    3125    3126
CTETRA       527       1   13731   13732   13739     426   14410   14435+
+          14437    3127    3128    3129
CTETRA       528       1   12126   12127   12128      61   12363   12369+
+          12368    3130    3131    3132
CTETRA       529       1   12925   12932   12933     162   13222   13226+
+          13225    3133    3134    3135
CTETRA       530       1   12924     162   12933      61    3136    3135+
+          13223    3137    3138    3139
CTETRA       531       1   16603   16612   16611     121   16636   16635+
+          16633    3140    3141    3111
CTETRA       532       1   13636   13641     150     393   14101    3142+
+           3090    3143    3144    2914
CTETRA       533       1   12158   12183      73     429   12559    3145+
+           3146    3147    3148    3149
CTETRA       534       1   13636     393     150     423    3143    2914+
+           3090    3093    3150    3094
CTETRA       535       1   13636   13640     393     423   14096    3151+
+           3143    3093    3152    3150
CTETRA       536       1   14718     430   14719     393    3153    3154+
+          14981    3155    3156    3157
CTETRA       537       1   13618   13619     430     393   14109    3158+
+           3159    3160    3161    3156
CTETRA       538       1   12888   12891   12893      73   13073   13080+
+          13082    3162    3163    3164
CTETRA       539       1   17154     155     431     432    3165    3166+
+           3167    3168    3169    3170
CTETRA       540       1   12906     433     431     434    3171    3172+
+           3173    3174    3175    3176
CTETRA       541       1   17154   12155     431     155   12465    3177+
+           3167    3165    3178    3166
CTETRA       542       1   12155     431     155     254    3177    3166+
+           3178    3179    3180    3181
CTETRA       543       1   12153   12154   12155     254   12463   12467+
+          12466    2204    2203    3179
CTETRA       544       1   12905     431   12906     433    3182    3173+
+          13133    3183    3172    3171
CTETRA       545       1   17285     156     254     435    3184    3185+
+           3186    3187    3188    3189
CTETRA       546       1   17287     431   12867     155    3190    3191+
+          13013    3192    3166    3193
CTETRA       547       1   12932   12933     162     436   13226    3135+
+           3134    3194    3195    3196
CTETRA       548       1   12144   12147     437      19   12449    3197+
+           3198    1278    3199    3200
CTETRA       549       1   12866   12877   12876     437   13021   13022+
+          13015    3201    3202    3203
CTETRA       550       1   12876     437   12877     198    3203    3202+
+          13022    2224    3204    2225
CTETRA       551       1   17285      62     435     438    3205    3206+
+           3187    3207    3208    3209
CTETRA       552       1   15039     436     162     439    3210    3196+
+           3211    3212    3213    3214
CTETRA       553       1   11783     440     310     441    3215    3216+
+           3217    3218    3219    3220
CTETRA       554       1   17285   17286   12876     254   17292   13017+
+          13018    3186    3221    3222
CTETRA       555       1   15249   15262   15250     442   15539   15534+
+          15540    3223    3224    3225
CTETRA       556       1   16996   13687   16997     443   14227   14226+
+          17003    3226    3227    3228
CTETRA       557       1   12083     444   12126      61    3229    3230+
+          12359    3231    3232    3130
CTETRA       558       1   12165     100   12176     104    3233    3234+
+          12539    3235    1584    3236
CTETRA       559       1   17174     104   12747     445    2601    3237+
+          12845    3238    3239    3240
CTETRA       560       1   12126      61     444     436    3130    3232+
+           3230    3241    3242    3243
CTETRA       561       1   12084   12126     444     436   12358    3230+
+           3244    3245    3241    3243
CTETRA       562       1   12929     444      61     436    3246    3232+
+           3247    3248    3243    3242
CTETRA       563       1   12162     250     446     259    3249    3250+
+           3251    2231    3252    3253
CTETRA       564       1   17236   12949   12938     253   13291   13286+
+          13292    3254    2200    3255
CTETRA       565       1   12938   12948   12939     447   13284   13282+
+          13287    3256    3257    3258
CTETRA       566       1   12123     162   12126     436    3259    3260+
+          12360    3261    3196    3241
CTETRA       567       1   12101   12102   12107     447   12267   12283+
+          12285    3262    3263    3264
CTETRA       568       1   17819   17915   11773      29   17820   11825+
+          11824    1309    1311    3265
CTETRA       569       1   11685   11686   11695     448   11728   11727+
+          11726    3266    3267    3268
CTETRA       570       1   17049   11685     449     450   11758    3269+
+           3270    3271    3272    3273
CTETRA       571       1   11685     451     449     448    3274    3275+
+           3269    3266    3276    3277
CTETRA       572       1   17050   11685   11684     347   11761   11724+
+          11760    3278    2634    2633
CTETRA       573       1   17630     214     452     453    3279    3280+
+           3281    3282    3283    3284
CTETRA       574       1   17629   16705   16706     452   16776   16781+
+          16780    3285    3286    3287
CTETRA       575       1   13560   13564   13568     121   13819   13810+
+          13821    3288    1652    3289
CTETRA       576       1   17150     215     454      63    3290    3291+
+           3292    3293    3294    3295
CTETRA       577       1   17283     455      63     196    3296    3297+
+           3298    1963    3299    3300
CTETRA       578       1   16602     456     121     457    3301    3302+
+           3303    3304    3305    3306
CTETRA       579       1   17150   11891     215      63   12000    3307+
+           3290    3293    3308    3294
CTETRA       580       1   11891      55     215      63    3024    2066+
+           3307    3308    2048    3294
CTETRA       581       1   11892     124   11901     215    3309    3310+
+          12046    3311    2064    3312
CTETRA       582       1   15226   15229   15231     312   15411   15418+
+          15420    3313    3314    3315
CTETRA       583       1   15229     300   15230     308    3316    2730+
+          15415    3317    2457    2727
CTETRA       584       1   11891   11892     215      55   12006    3311+
+           3307    3024    2062    2066
CTETRA       585       1   17668     308   15866     458    3318    2736+
+          15951    3319    3320    3321
CTETRA       586       1   16060   16061   16085     308   16379   16462+
+          16461    3322    3323    2455
CTETRA       587       1   13693   13699     215     454   14312    3324+
+           3325    3326    3327    3291
CTETRA       588       1   13745     459     460     461    3328    3329+
+           3330    3331    3332    3333
CTETRA       589       1   15224   15228   15229     300   15409   15413+
+          15412    3334    2734    3316
CTETRA       590       1   16516   16517     380     462   16538    3335+
+           2859    3336    3337    3338
CTETRA       591       1   14690     459   14691     461    3339    3340+
+          14912    3341    3332    3342
CTETRA       592       1   17352     379     380     463    3343    2858+
+           3344    3345    3346    3347
CTETRA       593       1   13745   13748     459     461   14463    3348+
+           3328    3331    3349    3332
CTETRA       594       1   13668   13669     464     231   14169    3350+
+           3351    3352    2129    3353
CTETRA       595       1   14710     465   14719     466    3354    3355+
+          14986    3356    3357    3358
CTETRA       596       1   14711   14713     466     231   14964    3359+
+           3360    3361    3362    3363
CTETRA       597       1   13648     455   13694      63    3364    3365+
+          14268    3366    3297    3367
CTETRA       598       1   17150     454     455      63    3292    3368+
+           3369    3293    3295    3297
CTETRA       599       1   13669     464     231     233    3350    3353+
+           2129    2132    3370    2133
CTETRA       600       1   13693     454     215      63    3326    3291+
+           3325    2047    3295    3294
CTETRA       601       1   13699   13703     467     454   14313    3371+
+           3372    3327    3373    3374
CTETRA       602       1   16717      96      98     207    2031    1564+
+           2032    3375    2011    3376
CTETRA       603       1   13585   13592     184     335   13905    3377+
+           2573    2575    3378    2555
CTETRA       604       1   17634     186     184     468    3379    1927+
+           3380    3381    3382    3383
CTETRA       605       1   16707   16708     339     184   16818    2578+
+           3384    3385    2567    2579
CTETRA       606       1   13590     339   13594     207    3386    3387+
+          13918    2584    2577    3388
CTETRA       607       1   14689     459   14690     460    3389    3339+
+          14925    3390    3329    3391
CTETRA       608       1   13745     460     459     469    3330    3329+
+           3328    3392    3393    3394
CTETRA       609       1   17403   17404   13557     470   17417   14002+
+          14001    3395    3396    3397
CTETRA       610       1   17402   17403   13610     319   17418   14003+
+          14004    2495    3398    2496
CTETRA       611       1   13617   13639   13618     471   14094   14105+
+          14107    3399    3400    3401
CTETRA       612       1   13701   13703     229     467   14302    3402+
+           2125    3403    3371    3404
CTETRA       613       1   13701     229     225     467    2125    2124+
+           2122    3403    3404    3405
CTETRA       614       1   17149     472     455     454    3406    3407+
+           3408    3409    3410    3368
CTETRA       615       1   15249     247   15262     442    3411    3412+
+          15539    3223    3413    3224
CTETRA       616       1   11900     215     467     454    3414    3415+
+           3416    3417    3291    3374
CTETRA       617       1   17148   11899     225     229   12028    3418+
+           2102    3419    3420    2124
CTETRA       618       1   17579   13408     247     473   13536    3421+
+           2181    3422    3423    3424
CTETRA       619       1   13697   13698     225     474   14289    3425+
+           2119    3426    3427    3428
CTETRA       620       1   17578   16015   16027     130   16215   16257+
+          16256    3429    3430    2680
CTETRA       621       1   13658   13663   13659     232   14148   14147+
+          14149    3431    3432    3433
CTETRA       622       1   15250     442   15262     475    3225    3224+
+          15534    3434    3435    3436
CTETRA       623       1   13681   13698     474     467   14294    3427+
+           3437    3438    3439    3440
CTETRA       624       1   13681   13699     467     236   14293    3372+
+           3438    3441    3442    3443
CTETRA       625       1   11898     474   11899     467    3444    3445+
+          12033    3446    3440    3447
CTETRA       626       1   17356   13396   13400     476   13491   13494+
+          13492    3448    3449    3450
CTETRA       627       1   17149   11900   11899     229   12037   12035+
+          12034    3451    3452    3420
CTETRA       628       1   12177   12179     477     478   12553    3453+
+           3454    3455    3456    3457
CTETRA       629       1   11899     229   11900     467    3420    3452+
+          12035    3447    3404    3416
CTETRA       630       1   12902   12903     478     479   13121    3458+
+           3459    3460    3461    3462
CTETRA       631       1   13703     229     467     454    3402    3404+
+           3371    3373    3463    3374
CTETRA       632       1   12901   12902   12904     478   13111   13124+
+          13123    3464    3459    3465
CTETRA       633       1   17278     480     466     231    3466    3467+
+           3468    3469    3470    3363
CTETRA       634       1   13668     464     466     231    3351    3471+
+           3472    3352    3353    3363
CTETRA       635       1   17154   12155   12149     431   12465   12469+
+          12470    3167    3177    3473
CTETRA       636       1   17278     480   14710     466    3466    3474+
+          14944    3468    3467    3356
CTETRA       637       1   13662   13668     466     231   14162    3472+
+           3475    3476    3352    3363
CTETRA       638       1   17153     155     156     254    3477    1794+
+           3478    3479    3181    3185
CTETRA       639       1   17154   11878       7       9   11943    3480+
+           1240    1243    3481    1244
CTETRA       640       1   17286   12867   12876     254   13012   13014+
+          13017    3221    3482    3222
CTETRA       641       1   13750     481   13763     482    3483    3484+
+          14518    3485    3486    3487
CTETRA       642       1   17319   12731   12732     483   12756   12755+
+          12757    3488    3489    3490
CTETRA       643       1   13713     481     168     427    3491    3492+
+           3493    3119    3494    3495
CTETRA       644       1   14657     481   14660     168    3496    3497+
+          14749    3498    3492    3499
CTETRA       645       1   13713     481   13749     168    3491    3500+
+          14522    3493    3492    3501
CTETRA       646       1   14660     481   14667     168    3497    3502+
+          14777    3499    3492    3503
CTETRA       647       1   12750     264     265     268    2246    2250+
+           2249    2263    2262    3504
CTETRA       648       1   12861   12889   12887     484   13056   13059+
+          13053    3505    3506    3507
CTETRA       649       1   17500   14675   14643     176   14821   14822+
+          14819    3508    3106    2706
CTETRA       650       1   12166   12167   12173     485   12503   12529+
+          12530    3509    3510    3511
CTETRA       651       1   12939   12948   12947     446   13282   13283+
+          13278    3512    3513    3514
CTETRA       652       1   12946   12947   12958     486   13276   13321+
+          13322    3515    3516    3517
CTETRA       653       1   13552   13740     176     218   14453    3076+
+           3518    2089    2091    2709
CTETRA       654       1   14675   14676   14677      68   14818   14830+
+          14829    2764    1450    1887
CTETRA       655       1   13778      68   13779     172    3519    3102+
+          14574    2309    1889    1883
CTETRA       656       1   17634     186      66      69    3379    3520+
+           2219    3521    3522    1446
CTETRA       657       1   17500     186      67     487    3523    3524+
+           3525    3526    3527    3528
CTETRA       658       1   17500   17501      68      67   17514    1451+
+           3529    3525    1452    1442
CTETRA       659       1   11683     392     391     395    2911    2910+
+           2908    2917    3530    3531
CTETRA       660       1   11681   11682     488     489   11710    3532+
+           3533    3534    3535    3536
CTETRA       661       1   17144   17145   11887     140   17160   11969+
+          11968    3537    1745    3538
CTETRA       662       1   11681   11682   11690     262   11710   11709+
+          11708    3539    3540    3541
CTETRA       663       1   11682   11691   11690     261   11712   11711+
+          11709    3542    3543    3544
CTETRA       664       1   17500      67      68     487    3525    1442+
+           3529    3526    3528    3545
CTETRA       665       1   17500      68     176     487    3529    1886+
+           3508    3526    3545    3546
CTETRA       666       1   14656     428   14665     223    3547    3548+
+          14759    3549    3125    3550
CTETRA       667       1   17789   17790   16701     206   17793   16761+
+          16760    3551    1998    3552
CTETRA       668       1   15204   15205   15243     119   15354   15465+
+          15466    2651    2060    2652
CTETRA       669       1   13735   13736     428     223   14424    3553+
+           3554    3555    3556    3125
CTETRA       670       1   13732     428   13739     426    3557    3558+
+          14435    3128    3559    3129
CTETRA       671       1   13734   13735     428     223   14417    3554+
+           3122    3124    3555    3125
CTETRA       672       1   17363     490   13394     491    3560    3561+
+          13462    3562    3563    3564
CTETRA       673       1     214     120      23     292    2424    3565+
+           2051    2382    2425    2383
CTETRA       674       1   15213     120   15215     492    2758    2678+
+          15363    3566    3567    3568
CTETRA       675       1   15215     120     118     492    2678    1648+
+           2663    3568    3567    3569
CTETRA       676       1   17212   15039     439     493   15083    3212+
+           3570    3571    3572    3573
CTETRA       677       1   16054   16056   16055     118   16364   16365+
+          16361    2751    2750    3574
CTETRA       678       1   13409     442     249     494    3575    3576+
+           2190    3577    3578    3579
CTETRA       679       1   13394     490       7     491    3561    3580+
+           3581    3564    3563    3582
CTETRA       680       1   15270   15271     130     495   15564    1695+
+           3583    3584    3585    3586
CTETRA       681       1   17578   13406     130     496   13531    2185+
+           3429    3587    3588    3589
CTETRA       682       1   17445   13408   13406     130   13538   13537+
+          13534    2184    3590    2185
CTETRA       683       1   17154       7     155     497    1240    1797+
+           3165    3591    3592    3593
CTETRA       684       1   16015   16019   16016     247   16216   16218+
+          16217    2183    2182    3594
CTETRA       685       1   13720      50   13723       7    3595    3596+
+          14361    3597    3598    3599
CTETRA       686       1   13717     156   13719     163    3600    1795+
+          14344    3601    1840    3602
CTETRA       687       1   13717   13720   13719     156   14346   14347+
+          14344    3600    3603    1795
CTETRA       688       1   17632   17633     221     338   17648    3604+
+           3605    2562    2564    3606
CTETRA       689       1   17577   13406   17578     496   13530   13531+
+          17582    3607    3588    3587
CTETRA       690       1   17500     360     221     424    2703    3608+
+           2093    3609    3610    3611
CTETRA       691       1   17499     221   14643     218    3612    2092+
+          14820    3613    3614    2708
CTETRA       692       1   13552     218     176     498    2089    2709+
+           3518    3615    3616    3617
CTETRA       693       1   17634   17635   15990      69   17641   16097+
+          16094    3521    1749    1748
CTETRA       694       1   17501   15259   17502      69   15504   15503+
+          17512    3618    1753    1445
CTETRA       695       1   17502   15259   15256     143   15503   15508+
+          15502    1785    1756    1787
CTETRA       696       1   13552     221   13553     218    2717    3619+
+          13969    2089    3614    2090
CTETRA       697       1   15297     499     132     442    3620    3621+
+           3622    3623    3624    3625
CTETRA       698       1   15250     499     442     475    3626    3624+
+           3225    3434    3627    3435
CTETRA       699       1   17460     500   15733     501    3628    3629+
+          15782    3630    3631    3632
CTETRA       700       1   17929   17570   13409     416   17572   13543+
+          13545    3051    3050    3633
CTETRA       701       1   15250     499   15297     442    3626    3620+
+          15669    3225    3624    3623
CTETRA       702       1   17570     442     416     414    3634    3635+
+           3050    3053    3636    3054
CTETRA       703       1   12150   12151     502     503   12444    3637+
+           3638    3639    3640    3641
CTETRA       704       1   16015   16016   16029     247   16217   16267+
+          16266    2183    3594    3642
CTETRA       705       1   12895   12909     502     504   13146    3643+
+           3644    3645    3646    3647
CTETRA       706       1   11773     310   11782     505    3648    3649+
+          11791    3650    3651    3652
CTETRA       707       1   17093   12150   12143     502   12439   12440+
+          12416    3653    3638    3654
CTETRA       708       1   17505      16      14      10    1271    1266+
+           2799    1272    1268    1260
CTETRA       709       1   13752      16   13761      10    1267    3655+
+          14505    1259    1268    1264
CTETRA       710       1   15256     144   15257     506    1947    1949+
+          15511    3656    3657    3658
CTETRA       711       1   16510      87   16519     113    2805    2362+
+          16548    2951    2359    2361
CTETRA       712       1      14     113     507      10    2950    3659+
+           3660    1260    3661    3662
CTETRA       713       1   17467   15726   15727     187   15761   15763+
+          15762    3663    2041    1930
CTETRA       714       1   15225   15226     312     117   15398    3313+
+           2738    3664    3665    3666
CTETRA       715       1   16085   16086   16087     300   16467   16474+
+          16473    2454    2453    3667
CTETRA       716       1   17504     276   17505      16    2297    2797+
+          17508    2694    2800    1271
CTETRA       717       1   13547   13753      87      88   14539    2947+
+           1529    3668    3669    1518
CTETRA       718       1   13753      14      87      88    2949    2948+
+           2947    3669    3670    1518
CTETRA       719       1   13753   13773      14      88   14544    2785+
+           2949    3669    3671    3670
CTETRA       720       1   17628      23     119     508    1289    3672+
+           1650    3673    3674    3675
CTETRA       721       1   15032     119   15034     145    3676    3677+
+          15063    2057    3678    1759
CTETRA       722       1   17628   16057     119      23   16367    1646+
+           1650    1289    3679    3672
CTETRA       723       1   16057     119      23     120    1646    3672+
+           3679    1647    1649    3565
CTETRA       724       1   15034     145     119     146    1759    3678+
+           3677    1762    1761    3680
CTETRA       725       1   17495     119   15205      23    2058    2060+
+          15351    3681    3672    3682
CTETRA       726       1   12181      75      73     509    1466    1503+
+           1462    3683    3684    3685
CTETRA       727       1   12743     509     510     511    3686    3687+
+           3688    3689    3690    3691
CTETRA       728       1   12181      73   12183     509    1462    3145+
+          12563    3683    3685    3692
CTETRA       729       1   12183   12184     509     429   12565    3693+
+           3692    3148    3694    3695
CTETRA       730       1   16031   16032     512     235   16322    3696+
+           3697    3698    3699    3700
CTETRA       731       1   16081     303     513     234    3701    3702+
+           3703    3704    3705    3706
CTETRA       732       1   16044     277     365     235    2314    3707+
+           3708    3709    3710    2757
CTETRA       733       1   17629   16055   16057     120   16359   16368+
+          16366    3711    3712    1647
CTETRA       734       1   15234     277   15237     235    3713    3714+
+          15436    3715    3710    3716
CTETRA       735       1   17353   13706   13756      84   14335   14485+
+          14478    1506    3717    1615
CTETRA       736       1   17639      84     514     515    3718    3719+
+           3720    3721    3722    3723
CTETRA       737       1   16044     365     355     235    3708    2753+
+           3724    3709    2757    2756
CTETRA       738       1   16031     277   16044     235    2312    2314+
+          16321    3698    3710    3709
CTETRA       739       1   16033   16043     367     235   16311    3725+
+           3726    3727    3728    3729
CTETRA       740       1   16518      84     289     516    2366    2369+
+           2368    3730    3731    3732
CTETRA       741       1   17873   16517   16518     516   16571   16542+
+          16572    3733    3734    3730
CTETRA       742       1   13647   13726   13727     107   14372   14374+
+          14377    3735    3736    3737
CTETRA       743       1   13710   13711   13784     282   14380   14599+
+          14597    2847    3738    3739
CTETRA       744       1   16044     355   16047     235    3724    2659+
+          16325    3709    2756    3740
CTETRA       745       1   15235     235     367     366    2777    3729+
+           2770    2769    3741    2772
CTETRA       746       1   14652   14657     168     169   14741    3498+
+           3742    3743    3744    1847
CTETRA       747       1   14650      65     359     517    3115    2722+
+           3745    3746    3747    3748
CTETRA       748       1   14650   14651     170     517   14743    1850+
+           3096    3746    3749    3750
CTETRA       749       1   13680     474   13697     227    3751    3426+
+          14288    3752    3753    2120
CTETRA       750       1   11881   11889   11890     227   11985   11998+
+          11994    3754    3755    3756
CTETRA       751       1   11881   11890   11882     227   11994   11993+
+          11995    3754    3756    3757
CTETRA       752       1   13582   13583   13599      86   13863   13947+
+          13946    1524    1532    1525
CTETRA       753       1   13546   13547   13753      87   13862   14539+
+          14488    3758    1529    2947
CTETRA       754       1   17637      87   17638      14    1515    2316+
+          17644    3759    2948    3760
CTETRA       755       1   17823   17943   16520      93   17827   16577+
+          16578    1545    3761    1546
CTETRA       756       1   17871   17872   16519     288   17881   16574+
+          16575    3762    3763    2363
CTETRA       757       1   13771     359   13777     517    3764    2702+
+          14578    3765    3748    3766
CTETRA       758       1   14658   14659     359     517   14736    3767+
+           2810    3768    3769    3748
CTETRA       759       1   13625   13630   13634     310   14047   14070+
+          14066    3770    3771    3772
CTETRA       760       1   16021   16022     499     475   16231    3773+
+           3774    3775    3776    3627
CTETRA       761       1   16021     499      33     475    3774    3777+
+           3778    3775    3627    3779
CTETRA       762       1   16610     518     122     519    3780    3781+
+           3782    3783    3784    3785
CTETRA       763       1   16600     399     520     521    3786    3787+
+           3788    3789    3790    3791
CTETRA       764       1   17893     518   16610     519    3792    3780+
+          16661    3793    3784    3783
CTETRA       765       1   11692     522     523     524    3794    3795+
+           3796    3797    3798    3799
CTETRA       766       1   17366   13392   13391     525   13450   13446+
+          13443    3800    3801    3802
CTETRA       767       1   12918   12920   12919     526   13171   13174+
+          13173    3803    3804    3805
CTETRA       768       1   17318     127   12731     527    3806    3807+
+          12765    3808    3809    3810
CTETRA       769       1   15261   15266      33      31   15544    3811+
+           3812    3813    3814    1325
CTETRA       770       1   17185   12108   12100     127   12286   12288+
+          12246    3815    3816    3817
CTETRA       771       1   17319   12732     128     483   12757    1682+
+           3818    3488    3490    3819
CTETRA       772       1   16029     130     475      31    2681    3820+
+           3821    3822    1697    3823
CTETRA       773       1   16029     130     247     475    2681    3824+
+           3642    3821    3820    3825
CTETRA       774       1   12896     504   12899     528    3826    3827+
+          13098    3828    3829    3830
CTETRA       775       1   12129     504   12142     528    3831    3832+
+          12419    3833    3829    3834
CTETRA       776       1   12144      20   12146      18    1280    3835+
+          12427    1281    1283    1276
CTETRA       777       1   12909      19     528      18    1487    3836+
+           3837    3838    1282    3839
CTETRA       778       1   12896   12909     504     528   13147    3646+
+           3826    3828    3837    3829
CTETRA       779       1   16028     130      30     495    2682    3840+
+           3841    3842    3586    3843
CTETRA       780       1   16025     130   16028     495    3844    2682+
+          16262    3845    3586    3842
CTETRA       781       1   13407     130     495     529    3846    3586+
+           3847    3848    3849    3850
CTETRA       782       1   13622   13632   13623     136   14054   14052+
+          14057    1720    1719    2458
CTETRA       783       1   13666     138     232     231    3851    3852+
+           3853    3854    3855    2130
CTETRA       784       1   17814   11686   17048     411   11755   11756+
+          11757    3856    3035    3857
CTETRA       785       1   17814   17048   17914     530   11757   17058+
+          17815    3858    3859    3860
CTETRA       786       1   16610     531     518     532    3861    3862+
+           3780    3863    3864    3865
CTETRA       787       1   17279     533     138     232    3866    3867+
+           3868    3869    3870    3852
CTETRA       788       1   13576     122      94     246    2177    3871+
+           1641    2180    2179    3872
CTETRA       789       1   13575      94      96      98    3873    1557+
+           2001    2003    1565    1564
CTETRA       790       1   17763   16909   16912     122   16941   16940+
+          16942    2176    3874    3875
CTETRA       791       1   13658     534   13669     232    3876    3877+
+          14170    3431    3878    2131
CTETRA       792       1   13663   13666     232     231   14152    3853+
+           3432    3879    3854    2130
CTETRA       793       1   13658   13659     533     232   14149    3880+
+           3881    3431    3433    3870
CTETRA       794       1   12969      37   12971      35    1336    3882+
+          13377    1330    1337    3883
CTETRA       795       1   12098   12119      34      37   12333    1736+
+           1358    3884    2841    1335
CTETRA       796       1   12961   12964     126      34   13366    1675+
+           3885    3886    1699    1686
CTETRA       797       1   17762   13576   13575      94   13846   13845+
+          13844    3887    1641    3873
CTETRA       798       1   12097     126   12100     127    1687    3888+
+          12249    1688    1677    3817
CTETRA       799       1   14657   14661     481     517   14751    3889+
+           3496    3890    3891    3892
CTETRA       800       1   17495     535      23     536    3893    3894+
+           3681    3895    3896    3897
CTETRA       801       1   12930   12932   12931     436   13227   13219+
+          13228    3898    3194    3899
CTETRA       802       1   17629   16706   17630     452   16780   16782+
+          17650    3285    3287    3281
CTETRA       803       1   17496     120   17497     292    3900    3901+
+          17516    3902    2425    2404
CTETRA       804       1   17915   17075   11773     537   17076   11826+
+          11825    3903    3904    3905
CTETRA       805       1   17498     120     538     539    3906    3907+
+           3908    3909    3910    3911
CTETRA       806       1   13615     214   13616      22    2475    3912+
+          14023    1293    2054    3913
CTETRA       807       1   16510   16511      87     279   16553    2806+
+           2805    2322    2321    3914
CTETRA       808       1   13772   13773     273      16   14542    3915+
+           2699    2789    2786    2696
CTETRA       809       1   14653   14682     168     283   14842    3916+
+           3917    3918    3919    3920
CTETRA       810       1   17871   16519   16520     288   16575   16550+
+          16576    3762    2363    3921
CTETRA       811       1   11780   11790   11789     322   11821   11820+
+          11818    3922    3923    2501
CTETRA       812       1   17522   15305   15304     540   15700   15692+
+          15699    3924    3925    3926
CTETRA       813       1   17656   15854     541     542   15887    3927+
+           3928    3929    3930    3931
CTETRA       814       1   15854     134     541     542    3932    3933+
+           3927    3930    3934    3931
CTETRA       815       1   14668     481     543     544    3935    3936+
+           3937    3938    3939    3940
CTETRA       816       1   13750     517     481     545    3941    3892+
+           3483    3942    3943    3944
CTETRA       817       1   13780     170   13788     169    3945    1854+
+          14617    3946    1853    1857
CTETRA       818       1   13786     169   13787     546    2349    1856+
+          14606    3947    3948    3949
CTETRA       819       1   14657   14661   14660     481   14751   14750+
+          14749    3496    3889    3497
CTETRA       820       1   14652   14653   14682     168   14747   14842+
+          14841    3742    3917    3916
CTETRA       821       1   14680   14682     281     169   14843    3950+
+           3951    1852    3952    2350
CTETRA       822       1   13573     547     339     351    3953    3954+
+           3955    3956    3957    3958
CTETRA       823       1   15241     513     234     512    3959    3706+
+           3960    3961    3962    3963
CTETRA       824       1   17784   16910   16908     547   16923   16922+
+          16921    3964    3965    3966
CTETRA       825       1   15239   15240   15242     234   15449   15462+
+          15461    2136    2135    3967
CTETRA       826       1   17628     119   16051     508    1650    1651+
+          16372    3673    3675    3968
CTETRA       827       1   15032   15034     119     548   15063    3677+
+           3676    3969    3970    3971
CTETRA       828       1   16050   16051   16057     197   16348   16371+
+          16370    1966    1968    3972
CTETRA       829       1   17760     547   13573     549    3973    3953+
+          13838    3974    3975    3976
CTETRA       830       1   13584   13594      98     207   13917    3977+
+           2004    3978    3388    3376
CTETRA       831       1   17303   12743   17304     550   12816   12814+
+          17333    3979    3980    3981
CTETRA       832       1   17628      23     508     551    1289    3674+
+           3673    3982    3983    3984
CTETRA       833       1   17928     145   15244     552    3985    3986+
+          15469    3987    3988    3989
CTETRA       834       1   15034     146     119     553    1762    3680+
+           3677    3990    3991    3992
CTETRA       835       1   17697   15034   15032     548   15064   15063+
+          15065    3993    3970    3969
CTETRA       836       1   13573   13594     339     547   13920    3387+
+           3955    3953    3994    3954
CTETRA       837       1   17760   16908   16910     547   16927   16922+
+          16925    3973    3966    3965
CTETRA       838       1   13636   13637   13640     423   14077   14095+
+          14096    3093    3995    3152
CTETRA       839       1   17434     149   14730     151    3996    1769+
+          15028    3997    1773    1772
CTETRA       840       1   14726   14727   14730     150   15014   15030+
+          15031    1826    1873    1771
CTETRA       841       1   17434   14728   17435     554   15023   15018+
+          17440    3998    3999    4000
CTETRA       842       1   13714   13737     543     544   14431    4001+
+           4002    4003    4004    3940
CTETRA       843       1   14664     426   14667     544    4005    4006+
+          14779    4007    4008    4009
CTETRA       844       1   13739     426     428     544    3129    3559+
+           3558    4010    4008    4011
CTETRA       845       1   13769     281     168     169    2348    4012+
+           1844    1846    2350    1847
CTETRA       846       1   13769     168     281     283    1844    4012+
+           2348    4013    3920    2339
CTETRA       847       1   14647     171   14681     282    3013    4014+
+          14864    2396    4015    4016
CTETRA       848       1   13738     426   13739     544    4017    3129+
+          14438    4018    4008    4010
CTETRA       849       1   14664   14665     428     544   14763    3548+
+           4019    4007    4020    4011
CTETRA       850       1   13645     555     556     297    4021    4022+
+           4023    2413    4024    4025
CTETRA       851       1   13709     293     556     294    2384    4026+
+           4027    2723    2398    4028
CTETRA       852       1   13734     163     428     102    1832    3123+
+           3122    1835    1834    4029
CTETRA       853       1   17286   14656   17287     163   14811   14774+
+          17291    1838    4030    1820
CTETRA       854       1   14695     556     294     107    4031    4028+
+           4032    4033    4034    4035
CTETRA       855       1   14656     163   14673     428    4030    4036+
+          14813    3547    3123    4037
CTETRA       856       1   14664     428     426     544    4019    3559+
+           4005    4007    4011    4008
CTETRA       857       1   17154     155     432     497    3165    3169+
+           3168    3591    3593    4038
CTETRA       858       1   13394     155     163     491    4039    1839+
+           4040    3564    4041    4042
CTETRA       859       1   13657     534     472     556    4043    4044+
+           4045    4046    4047    4048
CTETRA       860       1   17282     472     556     557    4049    4048+
+           4050    4051    4052    4053
CTETRA       861       1   12149     431   12155     503    3473    3177+
+          12469    4054    4055    4056
CTETRA       862       1   17143   12124   12085     558   12347   12348+
+          12231    4057    4058    4059
CTETRA       863       1   17285   12876   12875     198   13018   13026+
+          13008    4060    2224    2223
CTETRA       864       1   12866   12867   12905     431   13016   13127+
+          13128    4061    3191    3182
CTETRA       865       1   12866   12867     431     254   13016    3191+
+           4061    4062    3482    3180
CTETRA       866       1   17282     556     107     557    4050    4034+
+           4063    4051    4053    4064
CTETRA       867       1   15852     132     133     559    4065    1705+
+           4066    4067    4068    4069
CTETRA       868       1   13725     282     294     105    2846    2399+
+           2848    1593    4070    4071
CTETRA       869       1   15854     134   15855     541    3932    4072+
+          15895    3927    3933    4073
CTETRA       870       1   16006   16011     353     134   16194    2643+
+           4074    4075    2645    2644
CTETRA       871       1   15301     353   15303     134    4076    4077+
+          15683    1708    2644    4078
CTETRA       872       1   15305     133     134     560    4079    1710+
+           4080    4081    4082    4083
CTETRA       873       1   13555     460   13744     295    4084    4085+
+          14442    4086    4087    4088
CTETRA       874       1   16060     312   16082     117    4089    4090+
+          16459    1636    3666    4091
CTETRA       875       1   13618   13619   13642     430   14109   14159+
+          14160    3159    3158    4092
CTETRA       876       1   13617   13618   13745     460   14107   14445+
+          14447    4093    4094    3330
CTETRA       877       1   15199     111   15227     117    4095    2996+
+          15394    4096    1639    3003
CTETRA       878       1   15199     112     111     117    4097    1613+
+           4095    4096    1638    1639
CTETRA       879       1   13610     317   13611     315    4098    4099+
+          13998    2477    2488    2478
CTETRA       880       1   13557     317   13610     315    2487    4098+
+          13999    2489    2488    2477
CTETRA       881       1   15738     242     561     562    2971    4100+
+           4101    4102    4103    4104
CTETRA       882       1   13575   13587      96      94   13887    4105+
+           2001    3873    1640    1557
CTETRA       883       1   13586      40      96      97    2020    2007+
+           2019    4106    1657    1561
CTETRA       884       1   16060   16067   16062     112   16397   16395+
+          16378    1635    1612    4107
CTETRA       885       1   17893   16610     518     532   16661    3780+
+           3792    4108    3863    3865
CTETRA       886       1   16602   16611   16610     122   16632   16631+
+          16629    4109    3110    3782
CTETRA       887       1   13576   13577   13589     122   13851   13900+
+          13899    2177    4110    3108
CTETRA       888       1   16067   16068     111     117   16403    2160+
+           1610    1637    2161    1639
CTETRA       889       1   13576   13589   13588     122   13899   13897+
+          13894    2177    3108    3107
CTETRA       890       1   15283     406     563     564    4111    4112+
+           4113    4114    4115    4116
CTETRA       891       1   15859   15862     406     565   15930    4117+
+           4118    4119    4120    4121
CTETRA       892       1   16611     425     121     566    3112    3114+
+           3111    4122    4123    4124
CTETRA       893       1   17910     567   13392     568    4125    4126+
+          13451    4127    4128    4129
CTETRA       894       1   15282   15290     405     406   15637    2978+
+           4130    4131    2980    2979
CTETRA       895       1   16076   16078     405     406   16443    4132+
+           4133    4134    4135    2979
CTETRA       896       1   16072   16076     405     406   16428    4133+
+           4136    4137    4134    2979
CTETRA       897       1   11692     523     522     569    3796    3795+
+           3794    4138    4139    4140
CTETRA       898       1   14710     388   14720     465    4141    4142+
+          14985    3354    4143    4144
CTETRA       899       1   11682   11690     262     261   11709    3541+
+           3540    3542    3544    2241
CTETRA       900       1   13667     430     466     464    4145    4146+
+           4147    4148    4149    3471
CTETRA       901       1   13621     465     388     480    4150    4143+
+           4151    4152    4153    4154
CTETRA       902       1   17365   17366   13391     570   17369   13443+
+          13444    4155    4156    4157
CTETRA       903       1   11682     571     488     489    4158    4159+
+           3532    3535    4160    3536
CTETRA       904       1   17043   13393   13391     572   13454   13453+
+          13452    4161    4162    4163
CTETRA       905       1   13618   13639   13641     393   14105   14104+
+          14106    3160    4164    3144
CTETRA       906       1   17148   12088   12075     573   12192   12194+
+          12193    4165    4166    4167
CTETRA       907       1   14719     466     465     393    3358    3357+
+           3355    3157    4168    4169
CTETRA       908       1   13621   13638     388     465   14085    4170+
+           4151    4150    4171    4143
CTETRA       909       1   12888      73     574     484    3162    4172+
+           4173    4174    4175    4176
CTETRA       910       1   17280   17281   12921     573   17296   13166+
+          13165    4177    4178    4179
CTETRA       911       1   12158      73   12180     484    3146    1461+
+          12557    4180    4175    4181
CTETRA       912       1   17147     226   11882     227    2804    2106+
+          11979    4182    2115    3757
CTETRA       913       1   13678   13679     227     193   14221    4183+
+           4184    1957    4185    4186
CTETRA       914       1   13698   13701     225     467   14309    2122+
+           3425    3439    3403    3405
CTETRA       915       1   11881   11882     225     227   11995    2103+
+           4187    3754    3757    2114
CTETRA       916       1   13557     318     315     470    2490    2492+
+           2489    3397    4188    4189
CTETRA       917       1   13695     225   13700     226    2111    2121+
+          14296    2112    2105    4190
CTETRA       918       1   17634     184     256     340    3380    2589+
+           2580    2581    4191    2582
CTETRA       919       1   15203   15204   15246     118   15361   15478+
+          15479    2662    2664    4192
CTETRA       920       1   17304     550   12743     575    3981    3980+
+          12814    4193    4194    4195
CTETRA       921       1   17304   17305   12892     575   17332   13079+
+          13078    4193    4196    4197
CTETRA       922       1   16724     256     576     257    4198    4199+
+           4200    4201    2217    4202
CTETRA       923       1   13595   13596     256     576   13931    4203+
+           2213    4204    4205    4199
CTETRA       924       1   17022   11897     275     356   12023    2290+
+           2289    4206    2672    4207
CTETRA       925       1   16725     339     351     256    4208    3958+
+           4209    4210    2586    4211
CTETRA       926       1   16707     339   16725     256    3384    4208+
+          16863    4212    2586    4210
CTETRA       927       1   16724     256   16728     576    4198    4213+
+          16875    4200    4199    4214
CTETRA       928       1   15220     301     513     577    4215    4216+
+           4217    4218    4219    4220
CTETRA       929       1   17303   12742     510     578   12806    4221+
+           4222    4223    4224    4225
CTETRA       930       1   16081   16084     513     303   16486    4226+
+           3703    3701    4227    3702
CTETRA       931       1   16032     234   16079     512    4228    4229+
+          16451    3696    3963    4230
CTETRA       932       1   15241     513     512     579    3959    3962+
+           3961    4231    4232    4233
CTETRA       933       1   15241     513   15242     234    3959    4234+
+          15464    3960    3706    3967
CTETRA       934       1   15216     580     513     581    4235    4236+
+           4237    4238    4239    4240
CTETRA       935       1   15256   15259     144     143   15508    1755+
+           1947    1787    1756    1757
CTETRA       936       1   17636     148     147     143    2301    1764+
+           1778    1780    1768    1767
CTETRA       937       1   17501     186     360      69    4241    4242+
+           2705    3618    3522    4243
CTETRA       938       1   17635   15989   15990     143   16092   16098+
+          16097    1750    1781    1751
CTETRA       939       1   17501      69   17502      67    3618    1445+
+          17512    1452    1449    1448
CTETRA       940       1   17501     186      69      67    4241    3522+
+           3618    1452    3524    1449
CTETRA       941       1   17279     138     533     582    3868    3867+
+           3866    4244    4245    4246
CTETRA       942       1   17146     582   12087     583    4247    4248+
+          12191    4249    4250    4251
CTETRA       943       1   17117     584   12619     585    4252    4253+
+          12696    4254    4255    4256
CTETRA       944       1   17278   12915     142     582   13159    4257+
+           2946    4258    4259    4260
CTETRA       945       1   17119     586   12092     587    4261    4262+
+          12220    4263    4264    4265
CTETRA       946       1   17146     533     582     583    4266    4246+
+           4247    4249    4267    4250
CTETRA       947       1   16079     234     513     512    4229    3706+
+           4268    4230    3963    3962
CTETRA       948       1   12078   12162     250     446   12489    3249+
+           4269    4270    3251    3250
CTETRA       949       1   12861   12943   12944     100   13264   13268+
+          13270    1581    1580    1570
CTETRA       950       1   12078     250     447     446    4269    4271+
+           4272    4270    3250    4273
CTETRA       951       1   12169   12174   12173      99   12528   12532+
+          12531    4274    2875    4275
CTETRA       952       1   17308   12749   12750     268   12847   12856+
+          12855    4276    2261    2263
CTETRA       953       1   17307   12747   12749     588   12837   12848+
+          12846    4277    4278    4279
CTETRA       954       1   17279   12918     582     583   13163    4280+
+           4244    4281    4282    4250
CTETRA       955       1   16720      90      86      88    1535    1527+
+           1533    4283    2389    1517
CTETRA       956       1   17111   17112   12612     589   17137   12708+
+          12707    4284    4285    4286
CTETRA       957       1   13582      86      90      88    1524    1527+
+           1526    4287    1517    2389
CTETRA       958       1   12114   12120   12115     217   12326   12328+
+          12330    4288    4289    2819
CTETRA       959       1   13548   13582      90      88   13856    1526+
+           2390    2388    4287    2389
CTETRA       960       1   12165     100     104     484    3233    1584+
+           3235    4290    4291    4292
CTETRA       961       1   12157     485   12166     484    4293    3509+
+          12500    4294    4295    4296
CTETRA       962       1   12601      37     590     591    1338    4297+
+           4298    4299    4300    4301
CTETRA       963       1   12157   12180   12188     484   12558   12587+
+          12586    4294    4181    4302
CTETRA       964       1   12861     100   12889     484    1581    4303+
+          13056    3505    4291    3506
CTETRA       965       1   12747     574     104     177    4304    4305+
+           3237    1895    4306    4307
CTETRA       966       1   12115   12119      58     217   12323    2844+
+           2821    2819    4308    2820
CTETRA       967       1   12864   12872      19      20   12997    4309+
+           4310    4311    4312    1279
CTETRA       968       1   12912   12913   12961     216   13194   13338+
+          13337    2069    4313    4314
CTETRA       969       1   12912   12913     216     217   13194    4313+
+           2069    2072    4315    2073
CTETRA       970       1   11678      43      54      44    1360    1396+
+           4316    1362    1361    4317
CTETRA       971       1   12887   12894     104     574   13085    4318+
+           4319    4320    4321    4305
CTETRA       972       1   17814     530   17914     592    3858    3860+
+          17815    4322    4323    4324
CTETRA       973       1   17814      54   11686     411    4325    3033+
+          11755    3856    3036    3035
CTETRA       974       1   12887     574     104     484    4320    4305+
+           4319    3507    4176    4292
CTETRA       975       1   17285   17286     156     167   17292    1837+
+           3184    4326    1841    1843
CTETRA       976       1   13716   13729      62     156   14393    4327+
+           4328    4329    4330    4331
CTETRA       977       1   13716     156      62      49    4329    4331+
+           4328    4332    4333    1424
CTETRA       978       1   17153     155   17154       7    3477    3165+
+          17157    4334    1797    1240
CTETRA       979       1   11681   11690   11689       7   11708   11707+
+          11705    4335    1876    1875
CTETRA       980       1   12865   12866   12908     437   13023   13140+
+          13141    4336    3201    4337
CTETRA       981       1   17286   17287     155     163   17291    3192+
+           1836    1838    1820    1839
CTETRA       982       1   17153     156     155       7    3478    1794+
+           3477    4334    1798    1797
CTETRA       983       1   17052   11681   17053     593   11767   11766+
+          17063    4338    4339    4340
CTETRA       984       1   13720   13721   13723      50   14351   14359+
+          14361    3595    4341    3596
CTETRA       985       1   17015     594     595     596    4342    4343+
+           4344    4345    4346    4347
CTETRA       986       1   17506     507     357     597    4348    4349+
+           4350    4351    4352    4353
CTETRA       987       1   17761      98   13574     598    4354    4355+
+          13841    4356    4357    4358
CTETRA       988       1   17762   16911   16909      94   16930   16932+
+          16931    3887    4359    4360
CTETRA       989       1   17782   16715   16712      94   16814   16816+
+          16815    1551    1550    1566
CTETRA       990       1   17639     357     507     599    4361    4349+
+           4362    4363    4364    4365
CTETRA       991       1   13383   13407     357     600   13526    4366+
+           4367    4368    4369    4370
CTETRA       992       1   17506   15275     357     507   15585    4371+
+           4350    4348    4372    4349
CTETRA       993       1   13407     357     495     601    4366    4373+
+           3847    4374    4375    4376
CTETRA       994       1   17639     357   15987     507    4361    2687+
+          16133    4362    4349    4377
CTETRA       995       1   13786     171     281     602    4378    4379+
+           2347    4380    4381    4382
CTETRA       996       1   16718     344     345     603    4383    2620+
+           4384    4385    4386    4387
CTETRA       997       1   13782     171     172     174    4388    1861+
+           1867    1870    4389    1871
CTETRA       998       1   17787   16699     344     604   16763    4390+
+           4391    4392    4393    4394
CTETRA       999       1   12144   12145   12147      19   12428   12448+
+          12449    1278    4395    3199
CTETRA      1000       1   13564   13565   13586      40   13820   13884+
+          13885    1654    4396    2020
CTETRA      1001       1   16603     452     121     605    4397    4398+
+           3140    4399    4400    4401
CTETRA      1002       1   14645   14679   14646     171   14837   14844+
+          14845    1864    1863    3012
CTETRA      1003       1   17210   17211   15038     419   17217   15091+
+          15092    3072    4402    3073
CTETRA      1004       1   13782     171   13787     172    4388    1858+
+          14609    1867    1861    1860
CTETRA      1005       1   12951     250   12955     253    2210    4403+
+          13313    2201    2212    2202
CTETRA      1006       1   12604     253     447     606    4404    4405+
+           4406    4407    4408    4409
CTETRA      1007       1   17823   17943     400     401   17827    4410+
+           2954    2956    4411    2957
CTETRA      1008       1   12604     606     447     607    4407    4409+
+           4406    4412    4413    4414
CTETRA      1009       1   15280     608     609     610    4415    4416+
+           4417    4418    4419    4420
CTETRA      1010       1   17659     611   15857     612    4421    4422+
+          15907    4423    4424    4425
CTETRA      1011       1   12077     447   12078     253    4426    4272+
+          12281    4427    4405    4428
CTETRA      1012       1   12938   12949     447     253   13286    4429+
+           3256    3255    2200    4405
CTETRA      1013       1   17593   15734   15733     613   15826   15784+
+          15825    4430    4431    4432
CTETRA      1014       1   17044     391     614     615    4433    4434+
+           4435    4436    4437    4438
CTETRA      1015       1   15733     500     616     501    3629    4439+
+           4440    3632    3631    4441
CTETRA      1016       1   15301     353     131     616    4076    4442+
+           1706    4443    4444    4445
CTETRA      1017       1   12950     255   12951     253    4446    2208+
+          13293    4447    2211    2201
CTETRA      1018       1   17237     253   12605     617    4448    4449+
+          12638    4450    4451    4452
CTETRA      1019       1   15733     616   15734     501    4440    4453+
+          15784    3632    4441    4454
CTETRA      1020       1   12168   12171     255     253   12514    4455+
+           4456    4457    4458    2211
CTETRA      1021       1   12605     255     253     618    4459    2211+
+           4449    4460    4461    4462
CTETRA      1022       1   17111     589   12612     619    4284    4286+
+          12707    4463    4464    4465
CTETRA      1023       1   17285     254   12876     198    3186    3222+
+          13018    4060    2207    2224
CTETRA      1024       1   17592   15734   17593     613   15823   15826+
+          17615    4466    4431    4430
CTETRA      1025       1   17284   17285   12875     198   17290   13008+
+          13007    1987    4060    2223
CTETRA      1026       1   12868     620   12869     194    4467    4468+
+          12980    4469    4470    4471
CTETRA      1027       1   16508      92      84     621    1543    4472+
+           4473    4474    4475    4476
CTETRA      1028       1   17152   12153     254     198   12456    2204+
+           4477    4478    2205    2207
CTETRA      1029       1   13643     430   13667     464    4479    4145+
+          14165    4480    4149    4148
CTETRA      1030       1   14708   14711     430     461   14948    4481+
+           4482    4483    4484    4485
CTETRA      1031       1   14726     393     150     166    4486    2914+
+           1826    1829    4487    1830
CTETRA      1032       1   14690   14708   14717     461   14947   14966+
+          14965    3341    4483    4488
CTETRA      1033       1   12135   12146   12144      20   12431   12427+
+          12429    4489    3835    1280
CTETRA      1034       1   13642   13667   13643     430   14161   14165+
+          14166    4092    4145    4479
CTETRA      1035       1   17460   15733   15734     501   15782   15784+
+          15783    3630    3632    4454
CTETRA      1036       1   14709     430   14711     466    4490    4481+
+          14950    4491    4146    3360
CTETRA      1037       1   13619   13620     430     393   14111    4492+
+           3158    3161    4493    3156
CTETRA      1038       1   17461   17462   15732     622   17487   15777+
+          15779    4494    4495    4496
CTETRA      1039       1   17462   15731   15732     623   15776   15778+
+          15777    4497    4498    4499
CTETRA      1040       1   13639   13641     393     166   14104    3144+
+           4164    4500    4501    4487
CTETRA      1041       1   17538   15220   15216     577   15365   15367+
+          15370    4502    4218    4503
CTETRA      1042       1   17537     301   15220     624    4504    4215+
+          15366    4505    4506    4507
CTETRA      1043       1   17405   15052   15051     150   15154   15155+
+          15148    4508    1777    1776
CTETRA      1044       1   17343   15040   15038     162   15099   15098+
+          15095    4509    4510    3070
CTETRA      1045       1   15039     439     162     625    3212    3214+
+           3211    4511    4512    4513
CTETRA      1046       1   15038   15039     162     419   15093    3211+
+           3070    3073    4514    3074
CTETRA      1047       1   13636     626     150     152    4515    4516+
+           3090    1784    4517    4518
CTETRA      1048       1   17405   13636     150     152   14078    3090+
+           4508    1782    1784    4518
CTETRA      1049       1   14689   14690   14717     460   14925   14965+
+          14967    3390    3391    4519
CTETRA      1050       1   15978   16041     183     627   16300    4520+
+           2044    4521    4522    4523
CTETRA      1051       1   15977     183   16041     360    2042    4520+
+          16299    4524    4525    4526
CTETRA      1052       1   16038   16041     627     424   16290    4522+
+           4527    4528    3105    4529
CTETRA      1053       1   14688   14716   14715     471   14970   14972+
+          14971    4530    4531    4532
CTETRA      1054       1   13617   13745   13744     460   14447   14448+
+          14443    4093    3330    4085
CTETRA      1055       1   13554   13555   13744     295   13971   14442+
+          14444    4533    4086    4088
CTETRA      1056       1   14655   14664   14665     428   14760   14763+
+          14757    4534    4019    3548
CTETRA      1057       1   17388   13397     628     629   13473    4535+
+           4536    4537    4538    4539
CTETRA      1058       1   15195     360   15208     627    2704    4540+
+          15314    4541    4542    4543
CTETRA      1059       1   12613      20     630     631    4544    4545+
+           4546    4547    4548    4549
CTETRA      1060       1   15208     627     360     424    4543    4542+
+           4540    4550    4529    3610
CTETRA      1061       1   14655   14665   14656     428   14757   14759+
+          14758    4534    3548    3547
CTETRA      1062       1   17872   16519     288     373   16574    2363+
+           3763    4551    2816    2818
CTETRA      1063       1   17638      14      87     113    3760    2948+
+           2316    2358    2950    2359
CTETRA      1064       1   12075   12089     632     526   12201    4552+
+           4553    4554    4555    4556
CTETRA      1065       1   13755   13756     113      13   14476    1617+
+           4557    1253    1618    1620
CTETRA      1066       1   12858   12921     632     526   13180    4558+
+           4559    4560    4561    4556
CTETRA      1067       1   16509   16510   16519     113   16549   16548+
+          16547    2378    2951    2361
CTETRA      1068       1   13546      87   13753     113    3758    2947+
+          14488    1621    2359    1622
CTETRA      1069       1   17639     113      84      13    2371    1616+
+           3718    4562    1620    1619
CTETRA      1070       1   12918   12921     526     583   13170    4561+
+           3803    4282    4563    4564
CTETRA      1071       1   12088     526     573     583    4565    4566+
+           4166    4567    4564    4568
CTETRA      1072       1   17353      84   13403     369    1506    4569+
+          13506    2791    4570    2792
CTETRA      1073       1   17281     472     534     556    4571    4044+
+           4572    4573    4048    4047
CTETRA      1074       1   12142     502      19     528    4574    4575+
+           4576    3834    4577    3836
CTETRA      1075       1   14667     481   14668     544    3502    3935+
+          14786    4009    3939    3938
CTETRA      1076       1   13386     503     431     633    4578    4055+
+           4579    4580    4581    4582
CTETRA      1077       1     472     534     226     573    4044    4583+
+           4584    4585    4586    4587
CTETRA      1078       1   13672     534     533     226    4588    4589+
+           4590    4591    4583    4592
CTETRA      1079       1   17239   17240   12883     634   17261   13048+
+          13040    4593    4594    4595
CTETRA      1080       1   13736   13739     428     544   14440    3558+
+           3553    4596    4010    4011
CTETRA      1081       1   13645   13669   13657     556   14176   14171+
+          14173    4023    4597    4046
CTETRA      1082       1   15986     327     357     495    2697    4598+
+           2686    4599    4600    4373
CTETRA      1083       1   13713     426   13738     427    3118    4017+
+          14427    3119    3121    4601
CTETRA      1084       1   13738     544     481     635    4018    3939+
+           4602    4603    4604    4605
CTETRA      1085       1   14684     102     283     426    4606    4607+
+           4608    4609    4610    3117
CTETRA      1086       1   17578     130   13408     473    3429    3590+
+          13535    4611    4612    3423
CTETRA      1087       1   12142     502   12151      19    4574    3637+
+          12441    4576    4575    4613
CTETRA      1088       1   13407     495     357     636    3847    4373+
+           4366    4614    4615    4616
CTETRA      1089       1   15267     327      30     495    4617    2520+
+           4618    4619    4600    3843
CTETRA      1090       1   11683   11692   11691     392   11716   11715+
+          11713    2911    4620    4621
CTETRA      1091       1   15985     327   16028      30    2683    2698+
+          16261    4622    2520    3841
CTETRA      1092       1   16028      30     327     495    3841    2520+
+           2698    3842    3843    4600
CTETRA      1093       1   11690     261   11691     637    3544    3543+
+          11711    4623    4624    4625
CTETRA      1094       1   11692     523     567     524    3796    4626+
+           4627    3797    3799    4628
CTETRA      1095       1   17910   13705   16990     638   14320   14321+
+          17014    4629    4630    4631
CTETRA      1096       1   14648     282   14685     105    2400    2333+
+          14859    4632    4070    4633
CTETRA      1097       1   15986   16028     327     495   16260    2698+
+           2697    4599    3842    4600
CTETRA      1098       1   12937     558     444     436    4634    4635+
+           4636    4637    4638    3243
CTETRA      1099       1   12931     558   12937     436    4639    4634+
+          13251    3899    4638    4637
CTETRA      1100       1   12084     558   12123     436    4640    4641+
+          12346    3245    4638    3261
CTETRA      1101       1   14717     430   14725     460    4642    4643+
+          15004    4519    4644    4645
CTETRA      1102       1   14708   14709   14718     430   14949   14980+
+          14978    4482    4490    3153
CTETRA      1103       1   14709   14719     430     466   14982    3154+
+           4490    4491    3358    4146
CTETRA      1104       1   13619   13641   13640     393   14108   14102+
+          14110    3161    3144    3151
CTETRA      1105       1   12937     444     558     142    4636    4635+
+           4634    4646    4647    4648
CTETRA      1106       1   14690   14717     460     461   14965    4519+
+           3391    3341    4488    3333
CTETRA      1107       1   12897     528      17      18    4649    4650+
+           4651    4652    3839    1277
CTETRA      1108       1   12083   12090     444      61   12217    4653+
+           3229    3231    4654    3232
CTETRA      1109       1   12929   12930     444     436   13233    4655+
+           3246    3248    3898    3243
CTETRA      1110       1   13618   13639     393     639   14105    4164+
+           3160    4656    4657    4658
CTETRA      1111       1   13689     124   13691      55    2065    4659+
+          14247    2049    2067    3031
CTETRA      1112       1   13683   13691     124     410   14244    4659+
+           4660    4661    3028    4662
CTETRA      1113       1   13598     576      90     344    4663    4664+
+           4665    4666    4667    4668
CTETRA      1114       1   11892     410     124      55    3063    4662+
+           3309    2062    3032    2067
CTETRA      1115       1   11898     474     467     236    3444    3440+
+           3446    4669    4670    3443
CTETRA      1116       1   11891   11892   11901     215   12006   12046+
+          12045    3307    3311    3312
CTETRA      1117       1   11900     215   11901     236    3414    3312+
+          12040    4671    4672    4673
CTETRA      1118       1   12940   12941     640     641   13259    4674+
+           4675    4676    4677    4678
CTETRA      1119       1   12105   12106     641     642   12278    4679+
+           4680    4681    4682    4683
CTETRA      1120       1   12736     640     641     643    4684    4678+
+           4685    4686    4687    4688
CTETRA      1121       1   12737     486     641     644    4689    4690+
+           4691    4692    4693    4694
CTETRA      1122       1   12955     447     250     446    4695    4271+
+           4403    4696    4273    3250
CTETRA      1123       1   17236   12604     253     645   12635    4404+
+           3254    4697    4698    4699
CTETRA      1124       1   17343     162   12925     646    4509    3133+
+          13198    4700    4701    4702
CTETRA      1125       1   12123   12125   12126     162   12357   12361+
+          12360    3259    4703    3260
CTETRA      1126       1   14711     466     430     464    3360    4146+
+           4481    4704    3471    4149
CTETRA      1127       1   13644     464     408     461    4705    4706+
+           4707    4708    4709    4710
CTETRA      1128       1   14708     430   14717     461    4482    4642+
+          14966    4483    4485    4488
CTETRA      1129       1   14674   14685   14684     102   14861   14863+
+          14862    4711    4712    4606
CTETRA      1130       1   14674   14685     102     105   14861    4712+
+           4711    4713    4633    1588
CTETRA      1131       1   17286   14673     163     102   14812    4036+
+           1838    4714    4715    1834
CTETRA      1132       1   17168   12740   12741     647   12799   12798+
+          12797    4716    4717    4718
CTETRA      1133       1   17301   12741     648     649   12802    4719+
+           4720    4721    4722    4723
CTETRA      1134       1   17301   17920   12741     649   17330   12803+
+          12802    4721    4724    4722
CTETRA      1135       1   13733     102     283     650    1586    4607+
+           2340    4725    4726    4727
CTETRA      1136       1   12740     477   12741     647    4728    4729+
+          12798    4717    4730    4718
CTETRA      1137       1   13732   13734     428     102   14434    3122+
+           3557    4731    1835    4029
CTETRA      1138       1   12621      58     651     652    2827    4732+
+           4733    4734    4735    4736
CTETRA      1139       1   12924      61   12927      59    3137    4737+
+          13205    4738    1416    4739
CTETRA      1140       1   17761   16910   16911      98   16926   16929+
+          16928    4354    4740    4741
CTETRA      1141       1   12619      60   12620     653    4742    4743+
+          12683    4744    4745    4746
CTETRA      1142       1   16711   16715   16717      96   16824   16825+
+          16826    1558    1562    2031
CTETRA      1143       1   13587      96      94      97    4105    1557+
+           1640    1643    1561    1560
CTETRA      1144       1   13584      98      96     207    2004    1564+
+           2002    3978    3376    2011
CTETRA      1145       1   17119   17120   12621     651   17123   12689+
+          12692    4747    4748    4733
CTETRA      1146       1   16710      40     207     335    2006    2010+
+           2009    4749    4750    2576
CTETRA      1147       1   16019     442   16022     475    4751    4752+
+          16229    4753    3435    3776
CTETRA      1148       1   17119   12621   12620     651   12692   12686+
+          12691    4747    4733    4754
CTETRA      1149       1   15262     442     247     475    3224    3413+
+           3412    3436    3435    3825
CTETRA      1150       1   17446     247   13408     654    4755    3421+
+          13539    4756    4757    4758
CTETRA      1151       1   13408     130     247     473    3590    3824+
+           3421    3423    4612    3424
CTETRA      1152       1   17048     411   11686     655    3857    3035+
+          11756    4759    4760    4761
CTETRA      1153       1   17025   11895   11903     656   12009   12054+
+          12055    4762    4763    4764
CTETRA      1154       1   17579   13408   13409     247   13536   13541+
+          13540    2181    3421    4765
CTETRA      1155       1   17074   11774   17075     657   11865   11867+
+          17085    4766    4767    4768
CTETRA      1156       1   17086   15054     658     180   15179    4769+
+           4770    1969    1904    4771
CTETRA      1157       1   17579     247   13409     249    2181    4765+
+          13540    2189    4772    2190
CTETRA      1158       1   15249     247     442     494    3411    3413+
+           3223    4773    4774    3578
CTETRA      1159       1   11685   11686     448     450   11728    3267+
+           3266    3272    4775    4776
CTETRA      1160       1   11893     410   11895     659    4777    4778+
+          12013    4779    4780    4781
CTETRA      1161       1   11893   11894   11895     410   12004   12014+
+          12013    4777    3064    4778
CTETRA      1162       1   11686     410   11695     660    3034    4782+
+          11727    4783    4784    4785
CTETRA      1163       1   17446     247   15249     494    4755    3411+
+          15538    4786    4774    4773
CTETRA      1164       1   12141      17     528      18    1274    4650+
+           4787    1275    1277    3839
CTETRA      1165       1   12130   12131     478     528   12412    4788+
+           4789    4790    4791    4792
CTETRA      1166       1   12863      18      17     661    4793    1277+
+           4794    4795    4796    4797
CTETRA      1167       1   12612      17     661     662    4798    4797+
+           4799    4800    4801    4802
CTETRA      1168       1   16068   16069   16075     242   16405   16431+
+          16432    2158    4803    2976
CTETRA      1169       1   13582   13599   13600      90   13946   13943+
+          13945    1526    1528    4804
CTETRA      1170       1   12611   12612      17     663   12659    4798+
+           4805    4806    4807    4808
CTETRA      1171       1   12141   12145   12146      18   12422   12426+
+          12424    1275    4809    1276
CTETRA      1172       1   12898   12901      76      17   13104    4810+
+           4811    4812    4813    4814
CTETRA      1173       1   12131   12140      76      17   12407    4815+
+           4816    4817    4818    4814
CTETRA      1174       1   17758   13572     345     664   13834    4819+
+           4820    4821    4822    4823
CTETRA      1175       1   16718   16719   16728     344   16840   16880+
+          16879    4383    4824    4825
CTETRA      1176       1   12611      76      17     665    4826    4814+
+           4805    4827    4828    4829
CTETRA      1177       1   16084     513     303     301    4226    3702+
+           4227    4830    4216    2440
CTETRA      1178       1   15237     512   15240     235    4831    4832+
+          15447    3716    3700    2138
CTETRA      1179       1   16081     666     303     234    4833    4834+
+           3701    3704    4835    3705
CTETRA      1180       1   12612     630   12613     662    4836    4546+
+          12662    4800    4837    4838
CTETRA      1181       1   16720   16721   16722      86   16838   16848+
+          16847    1533    1523    4839
CTETRA      1182       1   17933   16031   16079     512   16449   16450+
+          16447    4840    3697    4230
CTETRA      1183       1   17639     113      13     507    2371    1620+
+           4562    4362    3659    4841
CTETRA      1184       1   15240     512     234     235    4832    3963+
+           2135    2138    3700    2139
CTETRA      1185       1   12857     632   12921     573    4842    4558+
+          13179    4843    4844    4179
CTETRA      1186       1   17149     573   12075     195    4845    4167+
+          12393    4846    4847    4848
CTETRA      1187       1   17147   12088     573     583   12195    4166+
+           4849    4850    4567    4568
CTETRA      1188       1   17281     534     472     573    4572    4044+
+           4571    4178    4586    4585
CTETRA      1189       1   16046   16049   16054     118   16351   16355+
+          16354    2761    2749    2751
CTETRA      1190       1   16036     364   16054     538    4851    4852+
+          16356    4853    4854    4855
CTETRA      1191       1   15300   15309   15308     616   15711   15712+
+          15707    4856    4857    4858
CTETRA      1192       1   17710   16509   16508      92   16585   16545+
+          16588    4859    4860    1543
CTETRA      1193       1   15732   15733     616     667   15781    4440+
+           4861    4862    4863    4864
CTETRA      1194       1   17280     573   12921     583    4177    4179+
+          13165    4865    4568    4563
CTETRA      1195       1   13676   13677     181     192   14204    4866+
+           4867    4868    4869    4870
CTETRA      1196       1   13674     140   13675     181    4871    4872+
+          14195    4873    1909    4874
CTETRA      1197       1   11884     192     181     178    2781    4870+
+           4875    4876    1955    4877
CTETRA      1198       1   11884   11886     181     192   11961    4878+
+           4875    2781    2780    4870
CTETRA      1199       1   15731     668   15732     623    4879    4880+
+          15778    4498    4881    4499
CTETRA      1200       1   16000   16001   16020     668   16167   16233+
+          16234    4882    4883    4884
CTETRA      1201       1   11885   11887     140     181   11972    3538+
+           4885    4886    4887    1909
CTETRA      1202       1   13674     140     181     178    4871    1909+
+           4873    4888    1897    4877
CTETRA      1203       1   17500   15208     360     424   15312    4540+
+           2703    3609    4550    3610
CTETRA      1204       1   17501     360   15195      69    2705    2704+
+          15513    3618    4243    2614
CTETRA      1205       1   17593   15733   17594     669   15825   15828+
+          17616    4889    4890    4891
CTETRA      1206       1   17634   15977     360      69   16095    4524+
+           4892    3521    2615    4243
CTETRA      1207       1   17633     360   16041     424    4893    4526+
+          16286    3104    3610    3105
CTETRA      1208       1   17594   15732   17595     409   15827   15830+
+          17617    4894    3026    3025
CTETRA      1209       1   17500     360     186     221    2703    4242+
+           3523    2093    3608    2718
CTETRA      1210       1   17500   17501     186     360   17514    4241+
+           3523    2703    2705    4242
CTETRA      1211       1   17458   15276   17459     670   15630   15709+
+          17492    4895    4896    4897
CTETRA      1212       1   17459   15734   15735     670   15785   15787+
+          15786    4897    4898    4899
CTETRA      1213       1   12891      73     509     429    3163    3685+
+           4900    4901    3149    3695
CTETRA      1214       1   12181     509   12185     510    3683    4902+
+          12568    4903    3687    4904
CTETRA      1215       1   12739     429     509     671    4905    3695+
+           4906    4907    4908    4909
CTETRA      1216       1   12180     484      73      74    4181    4175+
+           1461    1463    4910    1464
CTETRA      1217       1   12181      73      75      74    1462    1503+
+           1466    1465    1464    1468
CTETRA      1218       1   11872   11873   11886     192   11939   11967+
+          11966    2779    4911    2780
CTETRA      1219       1   13678     192   13686     193    1956    4912+
+          14211    1957    1959    4913
CTETRA      1220       1   17458   15287   15276     672   15629   15624+
+          15630    4914    4915    4916
CTETRA      1221       1   11883     192   11884     193    4917    2781+
+          11965    4918    1959    4919
CTETRA      1222       1   15987     357   15996     507    2687    4920+
+          16134    4377    4349    4921
CTETRA      1223       1   17638   15996     276     507   16137    4922+
+           4923    4924    4921    4925
CTETRA      1224       1   17500     222     186     487    2094    4926+
+           3523    3526    4927    3527
CTETRA      1225       1   15195   15209     183     627   15321    4928+
+           2613    4541    4929    4523
CTETRA      1226       1   15195     360     183      69    2704    4525+
+           2613    2614    4243    1915
CTETRA      1227       1   17635      69      66     143    1749    1446+
+           2218    1750    1752    4930
CTETRA      1228       1   17638     276      14     507    4923    2798+
+           3760    4924    4925    3660
CTETRA      1229       1   13579      66     186      67    2324    3520+
+           4931    2326    1437    3524
CTETRA      1230       1   17633   17634     186     184   17649    3379+
+           1928    1922    3380    1927
CTETRA      1231       1   17505     276   15275     507    2797    4932+
+          15584    4933    4925    4372
CTETRA      1232       1   13550   13551   13776      67   13870   14563+
+          14565    2325    1444    1441
CTETRA      1233       1   16518     113   16519     289    2367    2361+
+          16546    2368    2370    4934
CTETRA      1234       1   17639     507      13     599    4362    4841+
+           4562    4363    4365    4935
CTETRA      1235       1   17506     507      13      10    4348    4841+
+           4936    1246    3662    1255
CTETRA      1236       1   12902     479     478     528    3460    3462+
+           3459    4937    4938    4792
CTETRA      1237       1   15256     144     673     274    1947    4939+
+           4940    2284    2292    4941
CTETRA      1238       1   17634   15990   15977      69   16094   16096+
+          16095    3521    1748    2615
CTETRA      1239       1   12130     478   12177     479    4789    3455+
+          12549    4942    3462    4943
CTETRA      1240       1   17917   12741   17218     479   12800   12801+
+          17219    4944    4945    4946
CTETRA      1241       1   17917   17218   13388     479   17219   13431+
+          13433    4944    4946    4947
CTETRA      1242       1   17501   15195   15259      69   15513   15517+
+          15504    3618    2614    1753
CTETRA      1243       1   12130     478     479     528    4789    3462+
+           4942    4790    4792    4938
CTETRA      1244       1   17536     362   15230     363    4948    2728+
+          15416    2743    2732    2731
CTETRA      1245       1   17635     148      66     257    4949    4950+
+           2218    2221    4951    2222
CTETRA      1246       1   13549      66   13775     148    4952    1434+
+          14560    4953    4950    4954
CTETRA      1247       1   13548      90   13581     148    2390    4955+
+          13859    2391    2393    4956
CTETRA      1248       1   13549   13580      66     257   13865    4957+
+           4952    4958    4959    2222
CTETRA      1249       1   13581      90     576     257    4955    4664+
+           4960    4961    4962    4202
CTETRA      1250       1   12870   12871     632     620   12986    4963+
+           4964    4965    4966    4967
CTETRA      1251       1   12616     620     632     674    4968    4967+
+           4969    4970    4971    4972
CTETRA      1252       1   17281   12857   12921     573   13175   13179+
+          13166    4178    4843    4179
CTETRA      1253       1   12870     620     632     195    4965    4967+
+           4964    4973    4974    4975
CTETRA      1254       1   17408     314   13633     675    4976    2472+
+          14060    4977    4978    4979
CTETRA      1255       1   12139     632     620     195    4980    4967+
+           4981    4982    4975    4974
CTETRA      1256       1   17281   12857     573     195   13175    4843+
+           4178    4983    4984    4847
CTETRA      1257       1   17916   17143     311     676   17155    2463+
+           4985    4986    4987    4988
CTETRA      1258       1   13633     137     314     313    2965    4989+
+           2472    2471    4990    2474
CTETRA      1259       1   17916   15056     310     677   15190    4991+
+           4992    4993    4994    4995
CTETRA      1260       1   12076   12139     632     620   12398    4980+
+           4996    4997    4981    4967
CTETRA      1261       1   17410   15057   15056     310   15183   15185+
+          15177    4998    4999    4991
CTETRA      1262       1   13557     166     317     318    5000    5001+
+           2487    2490    5002    2491
CTETRA      1263       1   17402   13610   13612     315   14004   14006+
+          14005    2480    2477    2479
CTETRA      1264       1   13556   13610   13557     317   13997   13999+
+          14000    5003    4098    2487
CTETRA      1265       1   17211   15039   15038     419   15084   15093+
+          15091    4402    4514    3073
CTETRA      1266       1   17210   12113   12125     162   12313   12355+
+          12354    3071    1816    4703
CTETRA      1267       1   14722     166     317     471    5004    5001+
+           5005    5006    5007    5008
CTETRA      1268       1   13611     315     317     678    2478    2488+
+           4099    5009    5010    5011
CTETRA      1269       1   13611     678     317     679    5009    5011+
+           4099    5012    5013    5014
CTETRA      1270       1   17496      23     120     292    5015    3565+
+           3900    3902    2383    2425
CTETRA      1271       1   13611     295     292     679    5016    2403+
+           5017    5012    5018    5019
CTETRA      1272       1   17276     680   17924     681    5020    5021+
+          17300    5022    5023    5024
CTETRA      1273       1   17924     554   14728     682    5025    3999+
+          15017    5026    5027    5028
CTETRA      1274       1   13639     471     166     683    3400    5007+
+           4500    5029    5030    5031
CTETRA      1275       1   13619   13620   13667     430   14111   14156+
+          14158    3158    4492    4145
CTETRA      1276       1   14715     471     317     295    4532    5008+
+           5032    5033    5034    5035
CTETRA      1277       1   13555   13556   13617     471   13995   14092+
+          14093    5036    5037    3399
CTETRA      1278       1   14719     430     466     393    3154    4146+
+           3358    3157    3156    4168
CTETRA      1279       1   13555   13611   13556     317   13993   13996+
+          13995    5038    4099    5003
CTETRA      1280       1   13556     317     166     471    5003    5001+
+           5039    5037    5008    5007
CTETRA      1281       1   17496   14687   14714     292   14889   14974+
+          14973    3902    5040    5041
CTETRA      1282       1   13611   13613      25     292   14009    5042+
+           5043    5017    2411    2381
CTETRA      1283       1   14715   14722     317     471   14990    5005+
+           5032    4532    5006    5008
CTETRA      1284       1   12730   12738     259     381   12790    2864+
+           5044    5045    2866    2865
CTETRA      1285       1   17893   16609   16610     532   16660   16625+
+          16661    4108    5046    3863
CTETRA      1286       1   12162   12163   12170     251   12487   12518+
+          12517    2234    5047    5048
CTETRA      1287       1   12730     259     251     383    5044    2235+
+           5049    2871    5050    5051
CTETRA      1288       1   12617     526   12618     684    5052    5053+
+          12677    5054    5055    5056
CTETRA      1289       1   13408     247     130     654    3421    3824+
+           3590    4758    4757    5057
CTETRA      1290       1   12079     486   12080     259    5058    5059+
+          12272    5060    5061    5062
CTETRA      1291       1   12955   12958     446     259   13320    5063+
+           4696    5064    5065    3253
CTETRA      1292       1   12169     255     250      99    5066    2209+
+           5067    4274    5068    2260
CTETRA      1293       1   12079   12162     446     259   12488    3251+
+           5069    5060    2231    3253
CTETRA      1294       1   17445   13408     130     654   13538    3590+
+           2184    5070    4758    5057
CTETRA      1295       1   13736   14665     428     223    5071    3548+
+           3553    3556    3550    3125
CTETRA      1296       1   15263   15270   15271     130   15560   15564+
+          15563    5072    3583    1695
CTETRA      1297       1   17577   13407   13406     496   13525   13532+
+          13530    3607    5073    3588
CTETRA      1298       1   13718   13734     163     223   14416    1832+
+           5074    5075    3124    3126
CTETRA      1299       1   17287   14656   14666     163   14774   14772+
+          14773    1820    4030    2107
CTETRA      1300       1   12602     685      35     686    5076    5077+
+           1343    5078    5079    5080
CTETRA      1301       1   13390     223     163     687    5081    3126+
+           5082    5083    5084    5085
CTETRA      1302       1   17389   14666   14665     223   14771   14770+
+          14769    2098    5086    3550
CTETRA      1303       1   17361   13735   13718     223   14411   14413+
+          14339    5087    3555    5075
CTETRA      1304       1   17389     223   13390     687    2098    5081+
+          13442    5088    5084    5083
CTETRA      1305       1   17235   12603     688     689   12632    5089+
+           5090    5091    5092    5093
CTETRA      1306       1   17361     223   13389     690    5087    2097+
+          13436    5094    5095    5096
CTETRA      1307       1   12603      35     447     689    5097    5098+
+           5099    5092    5100    5101
CTETRA      1308       1   17234     685   12602     686    5102    5076+
+          12629    5103    5079    5078
CTETRA      1309       1   12102     642     447      35    5104    5105+
+           3263    5106    5107    5098
CTETRA      1310       1   12078   12101   12107     447   12280   12285+
+          12275    4272    3262    3264
CTETRA      1311       1   13777   13778   13780      65   14577   14586+
+          14580    2721    2308    5108
CTETRA      1312       1   13774   13777     273      65   14569    2700+
+           5109    5110    2721    2720
CTETRA      1313       1   12078   12107   12079     446   12275   12274+
+          12276    4270    5111    5069
CTETRA      1314       1   11773   11774   11782     310   11793   11792+
+          11791    3648    5112    3649
CTETRA      1315       1   12084   12085   12123     558   12234   12345+
+          12346    4640    4059    4641
CTETRA      1316       1   13781   13787   13788     170   14614   14613+
+          14615    5113    1855    1854
CTETRA      1317       1   17313   12730     691     692   12791    5114+
+           5115    5116    5117    5118
CTETRA      1318       1   14678     170   14679     172    3097    5119+
+          14839    5120    1862    1866
CTETRA      1319       1   17314   12738     486     693   12793    5121+
+           5122    5123    5124    5125
CTETRA      1320       1   12078   12079   12162     446   12276   12488+
+          12489    4270    5069    3251
CTETRA      1321       1   13786   13787     171     546   14606    1858+
+           4378    3947    3949    5126
CTETRA      1322       1   17020   11889   11880     694   11988   11983+
+          11986    5127    5128    5129
CTETRA      1323       1   14682     168     281     169    3916    4012+
+           3950    3952    1847    2350
CTETRA      1324       1   12738     259     486     693    2864    5061+
+           5121    5124    5130    5125
CTETRA      1325       1   13770     517   13780     169    5131    5132+
+          14616    1848    5133    3946
CTETRA      1326       1   12887   12888     574     484   13060    4173+
+           4320    3507    4174    4176
CTETRA      1327       1   12946   12958   12957     259   13322   13324+
+          13326    5134    5065    5135
CTETRA      1328       1   12946     486   12958     259    3515    3517+
+          13322    5134    5061    5065
CTETRA      1329       1     429     220     574     695    5136    5137+
+           5138    5139    5140    5141
CTETRA      1330       1   12158   12159     429     574   12477    5142+
+           3147    5143    5144    5138
CTETRA      1331       1   12938   12949   12948     447   13286   13285+
+          13284    3256    4429    3257
CTETRA      1332       1   12939     447   12948     446    3258    3257+
+          13282    3512    4273    3513
CTETRA      1333       1   12158   12165     574     484   12495    5145+
+           5143    4180    4290    4176
CTETRA      1334       1   12943     100     104     696    1580    1584+
+           1583    5146    5147    5148
CTETRA      1335       1   12747     177     104     697    1895    4307+
+           3237    5149    5150    5151
CTETRA      1336       1   13635     150   13641     166    5152    3142+
+          14103    5153    1830    4501
CTETRA      1337       1   15251   15307   15299     668   15701   15703+
+          15676    5154    5155    5156
CTETRA      1338       1   14721     166     150     698    1828    1830+
+           1827    5157    5158    5159
CTETRA      1339       1   16509   16510     113     280   16549    2951+
+           2378    5160    2330    2953
CTETRA      1340       1   17404   15050     166     699   15146    5161+
+           5162    5163    5164    5165
CTETRA      1341       1   14716     460   14725     471    5166    4645+
+          15006    4531    5167    5168
CTETRA      1342       1   13555     317   13556     471    5038    5003+
+          13995    5036    5008    5037
CTETRA      1343       1   17433   14726   14730     150   15026   15031+
+          15029    1775    1826    1771
CTETRA      1344       1   17301   12741   12740     648   12802   12798+
+          12795    4720    4719    5169
CTETRA      1345       1   17285     102   17286     167    5170    4714+
+          17292    4326    5171    1841
CTETRA      1346       1   13649   13716   13730      62   14343   14390+
+          14389    1428    4328    1429
CTETRA      1347       1   17151   12133     198     194   12376    1971+
+           5172    5173    1972    1974
CTETRA      1348       1   12872   12877     437     198   13020    3202+
+           5174    5175    2225    3204
CTETRA      1349       1   12872     437      20     198    5174    5176+
+           4312    5175    3204    1982
CTETRA      1350       1   17404   13635   13557     166   14081   14082+
+          14002    5162    5153    5000
CTETRA      1351       1   12872   12875   12877     198   13024   13025+
+          13020    5175    2223    2225
CTETRA      1352       1   13557     166     318     699    5000    5002+
+           2490    5177    5165    5178
CTETRA      1353       1   17309   12750   12748     267   12854   12853+
+          12844    5179    2861    2255
CTETRA      1354       1   13556     317   13557     166    5003    2487+
+          14000    5039    5001    5000
CTETRA      1355       1   13556   13557   13639     166   14000   14089+
+          14091    5039    5000    4500
CTETRA      1356       1   17668   15865   15866     308   15947   15953+
+          15951    3318    2737    2736
CTETRA      1357       1   17177   12748     341     378   12840    2592+
+           2591    5180    2840    5181
CTETRA      1358       1   12943     700     701     696    5182    5183+
+           5184    5146    5185    5186
CTETRA      1359       1   17173   17174   12747     445   17195   12845+
+          12839    5187    3238    3240
CTETRA      1360       1   15229   15231     312     308   15418    3315+
+           3314    3317    2726    2739
CTETRA      1361       1   16060   16085     312     308   16461    2467+
+           4089    3322    2455    2739
CTETRA      1362       1   12109     129   12110     640    5188    5189+
+          12295    5190    5191    5192
CTETRA      1363       1   12924     217      61      59    5193    5194+
+           3137    4738    2823    1416
CTETRA      1364       1   12119     216      58     217    5195    5196+
+           2844    4308    2073    2820
CTETRA      1365       1   12965   12966     129     640   13347    5197+
+           2055    5198    5199    5191
CTETRA      1366       1   17316   12966   12941     640   13348   13346+
+          13256    5200    5199    4674
CTETRA      1367       1   12109   12111      36     640   12298    5201+
+           5202    5190    5203    5204
CTETRA      1368       1   17118   12619     584     586   12693    4253+
+           5205    5206    5207    5208
CTETRA      1369       1   17316   12736     640     702   12781    4684+
+           5200    5209    5210    5211
CTETRA      1370       1   13775   13776      65      67   14566    1440+
+           1432    1435    1441    1436
CTETRA      1371       1   17236   17237   12949     253   17258   13289+
+          13291    3254    4448    2200
CTETRA      1372       1   17634      66     468     703    2219    5212+
+           3381    5213    5214    5215
CTETRA      1373       1   17237   12605   12606     617   12638   12640+
+          12639    4450    4452    5216
CTETRA      1374       1   12181   12182      75     510   12569    5217+
+           1466    4903    5218    5219
CTETRA      1375       1   12182   12185   12186     510   12570   12574+
+          12573    5218    4904    5220
CTETRA      1376       1   12178   12182   12186     477   12577   12573+
+          12575    5221    5222    5223
CTETRA      1377       1   17634     257      66     703    2220    2222+
+           2219    5213    5224    5214
CTETRA      1378       1   17634      66     186     468    2219    3520+
+           3379    3381    5212    3382
CTETRA      1379       1   16507   16508   16517     704   16541   16540+
+          16539    5225    5226    5227
CTETRA      1380       1   17636   16723      90     257   16854    5228+
+           5229    5230    5231    4962
CTETRA      1381       1   13773      88     273      16    3671    2674+
+           3915    2786    5232    2696
CTETRA      1382       1   17810     377   17918     705    2835    5233+
+          17811    5234    5235    5236
CTETRA      1383       1   13549     148   13581     257    4953    4956+
+          13864    4958    4951    4961
CTETRA      1384       1   12116   12119   12118      37   12322   12325+
+          12319    2842    2841    5237
CTETRA      1385       1   17019     193   11889     706    5238    5239+
+          11989    5240    5241    5242
CTETRA      1386       1   16507   16517   16516     462   16539   16538+
+          16536    5243    3337    3336
CTETRA      1387       1   12097     126      34     216    1687    1686+
+           1685    5244    5245    5246
CTETRA      1388       1   17634   16724   17635     257   16855   16857+
+          17641    2220    4201    2221
CTETRA      1389       1   16507     707     708     709    5247    5248+
+           5249    5250    5251    5252
CTETRA      1390       1   13550   13775      66      67   14561    1434+
+           2323    2325    1435    1437
CTETRA      1391       1     186      66      69      67    3520    1446+
+           3522    3524    1437    1449
CTETRA      1392       1   13630   13631   13634     309   14051   14072+
+          14070    5253    5254    2940
CTETRA      1393       1   16508      84   16517     704    4473    5255+
+          16540    5226    5256    5227
CTETRA      1394       1   12621     375      58     710    2828    2830+
+           2827    5257    5258    5259
CTETRA      1395       1   17807   15721     367     711   15743    5260+
+           5261    5262    5263    5264
CTETRA      1396       1   15236   15239     666     367   15442    5265+
+           5266    5267    5268    5269
CTETRA      1397       1   16043   16047     367     235   16324    5270+
+           3725    3728    3740    3729
CTETRA      1398       1   17807     666     367     712    5271    5269+
+           5261    5272    5273    5274
CTETRA      1399       1   17813   11686      54     410   11754    3033+
+           3058    5275    3034    3029
CTETRA      1400       1   11682   11683   11691     392   11714   11713+
+          11712    2909    2911    4621
CTETRA      1401       1   11685   11694     713     448   11723    5276+
+           5277    3266    5278    5279
CTETRA      1402       1   16033   16042     666     367   16309    5280+
+           5281    3726    5282    5269
CTETRA      1403       1   17049   11686   11685     450   11759   11728+
+          11758    3271    4775    3272
CTETRA      1404       1   15301     131   15307     616    1706    5283+
+          15714    4443    4445    5284
CTETRA      1405       1   15300     353   15301     616    5285    4076+
+          15682    4856    4444    4443
CTETRA      1406       1   15307     131     668     616    5283    5286+
+           5155    5284    4445    5287
CTETRA      1407       1   15732     668     616     622    4880    5287+
+           4861    4496    5288    5289
CTETRA      1408       1   11685   11695   11694     448   11726   11725+
+          11723    3266    3268    5278
CTETRA      1409       1   11684   11685   11694     346   11724   11723+
+          11722    2635    2636    5290
CTETRA      1410       1   17049   11685   17050     449   11758   11761+
+          17060    3270    3269    5291
CTETRA      1411       1   16513     714     715     716    5292    5293+
+           5294    5295    5296    5297
CTETRA      1412       1   17755   13562   13789     717   13793   14620+
+          14621    5298    5299    5300
CTETRA      1413       1   15732     616   15733     500    4861    4440+
+          15781    5301    4439    3629
CTETRA      1414       1   11685     448     449     450    3266    3277+
+           3269    3272    4776    3273
CTETRA      1415       1   17729   16603   17730     605   16683   16682+
+          17740    5302    4399    5303
CTETRA      1416       1   16005     131     353     616    5304    4442+
+           5305    5306    4445    4444
CTETRA      1417       1   17730   16603   16602     456   16682   16634+
+          16685    5307    5308    3301
CTETRA      1418       1   17872   16518   16519     289   16573   16546+
+          16574    5309    2368    4934
CTETRA      1419       1   16000     131   16005     616    5310    5304+
+          16162    5311    4445    5306
CTETRA      1420       1   17170   12186   12185     510   12578   12574+
+          12580    5312    5220    4904
CTETRA      1421       1   17303   12890   12882     510   13068   13070+
+          13028    4222    5313    5314
CTETRA      1422       1   12879      75     477     510    5315    5316+
+           5317    5318    5219    5319
CTETRA      1423       1   12879     477   12882     510    5317    5320+
+          13031    5318    5319    5314
CTETRA      1424       1   12182   12186     477     510   12573    5223+
+           5222    5218    5220    5319
CTETRA      1425       1   17520   15297   15298     718   15666   15671+
+          15670    5321    5322    5323
CTETRA      1426       1   12742     510     477     719    4221    5319+
+           5324    5325    5326    5327
CTETRA      1427       1   12940     640      36     641    4675    5204+
+           5328    4676    4678    5329
CTETRA      1428       1   12737     641     486     720    4691    4690+
+           4689    5330    5331    5332
CTETRA      1429       1   12947     446   12958     486    3514    5063+
+          13321    3516    5333    3517
CTETRA      1430       1   12105   12112     486     641   12303    5334+
+           5335    4680    5336    4690
CTETRA      1431       1   12105     486     446     642    5335    5333+
+           5337    4681    5338    5339
CTETRA      1432       1   12079     446   12105     486    5069    5337+
+          12271    5058    5333    5335
CTETRA      1433       1   17459     721   15734     670    5340    5341+
+          15785    4897    5342    4898
CTETRA      1434       1   17592   15735   15734     722   15824   15787+
+          15823    5343    5344    5345
CTETRA      1435       1   17593     723   15733     669    5346    5347+
+          15825    4889    5348    4890
CTETRA      1436       1   17495      23      25     536    3681    2380+
+           5349    3895    3897    5350
CTETRA      1437       1      25      23      22      24    2380    1288+
+           2476    1300    1292    1291
CTETRA      1438       1   12133   12136   12134     194   12378   12380+
+          12379    1972    5351    5352
CTETRA      1439       1   13620   13640     465     393   14100    5353+
+           5354    4493    3151    4169
CTETRA      1440       1   15214      23     119     120    5355    3672+
+           2679    2677    3565    1649
CTETRA      1441       1   17496      23   15214     120    5015    5355+
+          15355    3900    3565    2677
CTETRA      1442       1   17629      23     214     120    2052    2051+
+           2050    3711    3565    2424
CTETRA      1443       1   17629   16057      23     120   16366    3679+
+           2052    3711    1647    3565
CTETRA      1444       1   15733     723     616     669    5347    5356+
+           4440    4890    5348    5357
CTETRA      1445       1   15202     364     355     724    2746    2748+
+           2745    5358    5359    5360
CTETRA      1446       1   17592   15734     613     722   15823    4431+
+           4466    5343    5345    5361
CTETRA      1447       1   15202     364     724     725    2746    5359+
+           5358    5362    5363    5364
CTETRA      1448       1   15736     403     672     270    5365    5366+
+           5367    2272    5368    5369
CTETRA      1449       1   15210     364     538     726    2747    4854+
+           5370    5371    5372    5373
CTETRA      1450       1   12860   12944   12953     100   13271   13298+
+          13297    5374    1570    5375
CTETRA      1451       1   16046     118   16054     364    2761    2751+
+          16354    2762    2763    4852
CTETRA      1452       1   15722     364   15723     727    5376    5377+
+          15751    5378    5379    5380
CTETRA      1453       1   15723     728     364     729    5381    5382+
+           5377    5383    5384    5385
CTETRA      1454       1   16036   16039     364     538   16287    5386+
+           4851    4853    5387    4854
CTETRA      1455       1   12944   12952   12953      99   13299   13301+
+          13298    1568    2259    5388
CTETRA      1456       1   13548   13774     273     148   14557    5109+
+           2675    2391    5389    2302
CTETRA      1457       1   11688     730      50     731    5390    5391+
+           5392    5393    5394    5395
CTETRA      1458       1   11786     181     192     732    5396    4870+
+           5397    5398    5399    5400
CTETRA      1459       1   13773      14      88      16    2785    3670+
+           3671    2786    1266    5232
CTETRA      1460       1   16080   16084   16088     301   16479   16475+
+          16477    5401    4830    5402
CTETRA      1461       1   15253   15272   15273     276   15575   15579+
+          15578    2303    5403    5404
CTETRA      1462       1   16083     300   16087     301    2438    3667+
+          16470    2439    2431    5405
CTETRA      1463       1   15272     276     147     733    5403    2295+
+           5406    5407    5408    5409
CTETRA      1464       1   15216   15217   15242     513   15368   15460+
+          15463    4237    5410    4234
CTETRA      1465       1   15254     331     147     333    2541    5411+
+           5412    2546    2548    5413
CTETRA      1466       1   17503   15253   17504     147   15496   15497+
+          17509    1763    2304    2300
CTETRA      1467       1   17639      84     113     291    3718    1616+
+           2371    2374    5414    2375
CTETRA      1468       1   13647     455   13726     107    5415    5416+
+          14372    3735    5417    3736
CTETRA      1469       1   17537   15220   17538     624   15366   15365+
+          17540    4505    4507    5418
CTETRA      1470       1   17539   15216   15241     579   15371   15458+
+          15457    5419    5420    4231
CTETRA      1471       1   15868     301   15869     734    5421    5422+
+          15968    5423    5424    5425
CTETRA      1472       1   13647   13670     455     107   14183    5426+
+           5415    3735    5427    5417
CTETRA      1473       1   17282     107     455     557    4063    5417+
+           5428    4051    4064    5429
CTETRA      1474       1   17282   14695   14694     107   14877   14879+
+          14878    4063    4033    5430
CTETRA      1475       1   17499   15207   15208     424   15310   15316+
+          15315    5431    5432    4550
CTETRA      1476       1   15206   15207   15211     538   15318   15348+
+          15343    5433    5434    5435
CTETRA      1477       1   17282   17283     455     107   17289    3296+
+           5428    4063    1594    5417
CTETRA      1478       1   13678   13695     178     227   14273    1906+
+           1905    4184    2113    5436
CTETRA      1479       1   13674   13677   13696     181   14278   14284+
+          14285    4873    4866    5437
CTETRA      1480       1   13695     533     178     226    5438    5439+
+           1906    2112    4592    5440
CTETRA      1481       1   13633     314     137     675    2472    4989+
+           2965    4979    4978    5441
CTETRA      1482       1   13633   13634     137     313   14069    2942+
+           2965    2471    2470    4990
CTETRA      1483       1   17147     178     533     226    5442    5439+
+           5443    2804    5440    4592
CTETRA      1484       1   17916   17143     676     735   17155    4987+
+           4986    5444    5445    5446
CTETRA      1485       1   17408   13633   13628     389   14060   14059+
+          14058    5447    5448    2897
CTETRA      1486       1   13637     465   13640     736    5449    5353+
+          14095    5450    5451    5452
CTETRA      1487       1   13620     465     480     466    5354    4153+
+           5453    5454    3357    3467
CTETRA      1488       1   13620     466     430     393    5454    4146+
+           4492    4493    4168    3156
CTETRA      1489       1   17276     388     137     681    5455    2895+
+           2902    5022    5456    5457
CTETRA      1490       1   11900     467     215     236    3416    3415+
+           3414    4671    3443    4672
CTETRA      1491       1   14720   14728   14729     465   15016   15022+
+          15021    4144    5458    5459
CTETRA      1492       1   13660     533     138     178    5460    3867+
+           5461    5462    5439    1898
CTETRA      1493       1   17146     533   17147     178    4266    5443+
+          17161    5463    5439    5442
CTETRA      1494       1   17694   15036     277     737   15081    5464+
+           5465    5466    5467    5468
CTETRA      1495       1   15870     513     512     738    5469    3962+
+           5470    5471    5472    5473
CTETRA      1496       1   17694   16045   16031     277   16317   16319+
+          16320    5465    2313    2312
CTETRA      1497       1   15035     277     365     739    5474    3707+
+           5475    5476    5477    5478
CTETRA      1498       1   13637     388     465     740    5479    4143+
+           5449    5480    5481    5482
CTETRA      1499       1   17276   17924   14728     681   17300   15017+
+          15015    5022    5024    5483
CTETRA      1500       1   16509   16519   16518     113   16547   16546+
+          16544    2378    2361    2367
CTETRA      1501       1   15247     365     277     235    2754    3707+
+           5484    2755    2757    3710
CTETRA      1502       1   15234   15247     277     235   15485    5484+
+           3713    3715    2755    3710
CTETRA      1503       1   14719   14729   14727     393   15019   15020+
+          15009    3157    2913    2912
CTETRA      1504       1   15233   15247     365     277   15484    2754+
+           5485    5486    5484    3707
CTETRA      1505       1   13753      14   13755     113    2949    1257+
+          14480    1622    2950    4557
CTETRA      1506       1   15296     239     245     212    2149    5487+
+           2175    2151    2150    2172
CTETRA      1507       1   17712     741   16507     709    5488    5489+
+          16589    5490    5491    5250
CTETRA      1508       1   16064     245   16073     239    2169    5492+
+          16418    5493    5487    2969
CTETRA      1509       1   13728   13730     102     105   14396    5494+
+           1585    1587    1607    1588
CTETRA      1510       1   17284   14674   17285     102   14805   14808+
+          17290    1574    4711    5170
CTETRA      1511       1   17284   14649   14674     105   14807   14806+
+          14805    1608    5495    4713
CTETRA      1512       1   17285   14673   17286     102   14809   14812+
+          17292    5170    4715    4714
CTETRA      1513       1   12156   12167   12166     485   12504   12503+
+          12502    5496    3510    3509
CTETRA      1514       1   17285   14674   14673     102   14808   14810+
+          14809    5170    4711    4715
CTETRA      1515       1   14673   14674   14684     102   14810   14862+
+          14852    4715    4711    4606
CTETRA      1516       1   17657     354   15856     742    2656    2658+
+          15898    5497    5498    5499
CTETRA      1517       1   17284   17285      62     102   17290    3205+
+           1417    1574    5170    1575
CTETRA      1518       1   17283   17284     194     201   17288    1988+
+           1960    1984    5500    1985
CTETRA      1519       1   17283   17284      63     743   17288    1419+
+           3298    5501    5502    5503
CTETRA      1520       1   13648   13649   13730      63   14267   14389+
+          14387    3366    1430    1431
CTETRA      1521       1   17151   12133   17152     198   12376   12377+
+          17158    5172    1971    4478
CTETRA      1522       1   16009     239     672     744    5504    5505+
+           5506    5507    5508    5509
CTETRA      1523       1   17284   17285     198     202   17290    4060+
+           1987    1989    5510    1990
CTETRA      1524       1   17151      62   17152      49    1423    5511+
+          17158    1425    1424    1372
CTETRA      1525       1   14655     428     102     426    4534    4029+
+           5512    5513    3559    4610
CTETRA      1526       1   13729   13730      62     102   14395    1429+
+           4327    1833    5494    1575
CTETRA      1527       1   15980     672   16009     239    5514    5506+
+          16177    2968    5505    5504
CTETRA      1528       1   12176     100      99     101    3234    1569+
+           2884    2885    1573    1572
CTETRA      1529       1   12944      99   12953     100    1568    5388+
+          13298    1570    1569    5375
CTETRA      1530       1   13692      55      54      43    5515    1397+
+           5516    5517    1399    1396
CTETRA      1531       1   17858   17859   11784     745   17863   11833+
+          11834    5518    5519    5520
CTETRA      1532       1   12167     255   12173     485    5521    5522+
+          12529    3510    5523    3511
CTETRA      1533       1   17823     401      89     746    2956    5524+
+           5525    5526    5527    5528
CTETRA      1534       1   12166     485   12173     100    3509    3511+
+          12530    5529    5530    5531
CTETRA      1535       1   12953      99     255     100    5388    5068+
+           5532    5375    1569    5533
CTETRA      1536       1   17637   16722      87      86   16844    2315+
+           1515    1513    4839    1514
CTETRA      1537       1   12860     485   12889     100    5534    5535+
+          13057    5374    5530    4303
CTETRA      1538       1   17823   17943     401     746   17827    4411+
+           2956    5526    5536    5527
CTETRA      1539       1   16082   16090     117     747   16489    5537+
+           4091    5538    5539    5540
CTETRA      1540       1   16078     111     405     406    1611    2992+
+           4132    4135    5541    2979
CTETRA      1541       1   15282     405   15291     111    4130    5542+
+          15636    5543    2992    5544
CTETRA      1542       1   17443   17444   13407     636   17448   13529+
+          13528    5545    5546    4614
CTETRA      1543       1   17444   13406   13407     248   13533   13532+
+          13529    5547    2188    5548
CTETRA      1544       1   12948   12955   12958     446   13312   13320+
+          13319    3513    4696    5063
CTETRA      1545       1   15739     242     747     748    2972    5549+
+           5550    5551    5552    5553
CTETRA      1546       1   12105     446   12107     642    5337    5111+
+          12277    4681    5339    5554
CTETRA      1547       1   17666     228   15864     407    2118    2117+
+          15937    5555    3001    3000
CTETRA      1548       1   12730     383     251     384    2871    5051+
+           5049    2874    2873    5556
CTETRA      1549       1   12942   12947   12946     486   13275   13276+
+          13273    5557    3516    3515
CTETRA      1550       1   16075     405   16078     111    2991    4132+
+          16440    2977    2992    1611
CTETRA      1551       1   17526   15280     609     610   15592    4417+
+           5558    5559    4418    4420
CTETRA      1552       1   12163   12172   12170     251   12522   12523+
+          12518    5047    5560    5048
CTETRA      1553       1   17178     749   12744     750    5561    5562+
+          12825    5563    5564    5565
CTETRA      1554       1   17526   15280   15284     609   15592   15611+
+          15610    5558    4417    5566
CTETRA      1555       1   17525     608   15280     610    5567    4415+
+          15591    5568    4419    4418
CTETRA      1556       1   15284     609     751     752    5566    5569+
+           5570    5571    5572    5573
CTETRA      1557       1   12748     101     341     378    2254    5574+
+           2592    2840    2839    5181
CTETRA      1558       1   15981     609     239     744    5575    5576+
+           5577    5578    5579    5508
CTETRA      1559       1   12081   12092   12082      60   12210   12209+
+          12211    5580    5581    1411
CTETRA      1560       1   15857     608     609     611    5582    4416+
+           5583    4422    5584    5585
CTETRA      1561       1   15285     609     608     744    5586    4416+
+           5587    5588    5579    5589
CTETRA      1562       1   17119     651   12620     587    4747    4754+
+          12691    4263    5590    5591
CTETRA      1563       1   16007   16014     609     608   16205    5592+
+           5593    5594    5595    4416
CTETRA      1564       1   12081   12092      60     753   12210    5581+
+           5580    5596    5597    5598
CTETRA      1565       1   12926   12927      61      59   13210    4737+
+           5599    5600    4739    1416
CTETRA      1566       1   12878     478   12903     479    5601    3458+
+          13120    5602    3462    3461
CTETRA      1567       1   13576      94     122      97    1641    3871+
+           2177    1642    1560    1667
CTETRA      1568       1   12741     477     479     754    4729    5603+
+           4945    5604    5605    5606
CTETRA      1569       1   12081      60   12082      59    5580    1411+
+          12211    2824    1415    1414
CTETRA      1570       1   17120   12621     651     652   12689    4733+
+           4748    5607    4734    4736
CTETRA      1571       1   12741     479     477     648    4945    5603+
+           4729    4719    5608    5609
CTETRA      1572       1   12901     478      76      17    3464    5610+
+           4810    4813    5611    4814
CTETRA      1573       1   12928      58      59     374    1406    1410+
+           1409    5612    2826    5613
CTETRA      1574       1   17920     479   12741     649    5614    4945+
+          12803    4724    5615    4722
CTETRA      1575       1   12082   12083   12128      61   12216   12366+
+          12367    1413    3231    3132
CTETRA      1576       1   15291     242     405     755    5616    2990+
+           5542    5617    5618    5619
CTETRA      1577       1   15197   15291     403     756   15633    5620+
+           5621    5622    5623    5624
CTETRA      1578       1   16072     405     245     212    4136    2989+
+           2168    2171    2981    2172
CTETRA      1579       1   12131   12140   12132      76   12407   12406+
+          12410    4816    4815    5625
CTETRA      1580       1   17101     757   12602     758    5626    5627+
+          12727    5628    5629    5630
CTETRA      1581       1   17101   12602   12601     591   12727   12628+
+          12729    5631    5632    4299
CTETRA      1582       1   15289     245     403     405    2983    2985+
+           5633    5634    2989    2988
CTETRA      1583       1   16072   16074   16076     406   16425   16429+
+          16428    4137    5635    4134
CTETRA      1584       1   15289   15290     245     405   15641    2174+
+           2983    5634    2978    2989
CTETRA      1585       1   16071     245   16072     405    2986    2168+
+          16423    2987    2989    4136
CTETRA      1586       1   14695     293   14698     294    5636    5637+
+          14899    4032    2398    5638
CTETRA      1587       1   17117   12618     759     760   12695    5639+
+           5640    5641    5642    5643
CTETRA      1588       1   17283     455     107     108    3296    5417+
+           1594    1597    5644    1598
CTETRA      1589       1   17283      63     455     743    3298    3297+
+           3296    5501    5503    5645
CTETRA      1590       1   17284      63      62     202    1419    1418+
+           1417    1989    5646    5647
CTETRA      1591       1   13694     472     229     454    5648    5649+
+           5650    5651    3410    3463
CTETRA      1592       1   11880     474   11898     236    5652    3444+
+          12029    5653    4670    4669
CTETRA      1593       1   13670     472   13694     455    5654    5648+
+          14271    5426    3407    3365
CTETRA      1594       1   13725   13727   13726     105   14375   14374+
+          14376    1593    5655    1606
CTETRA      1595       1   17283      63   17284     201    3298    1419+
+          17288    1984    5656    5500
CTETRA      1596       1   17071   11777   17072     387   11859   11862+
+          17082    5657    2892    5658
CTETRA      1597       1   17072   11777   11776     387   11862   11805+
+          11861    5658    2892    2891
CTETRA      1598       1   16998   13686     761     762   14219    5659+
+           5660    5661    5662    5663
CTETRA      1599       1   16708   16716   16717     207   16819   16832+
+          16828    2566    2565    3375
CTETRA      1600       1   13681     474   13688     763    3437    5664+
+          14238    5665    5666    5667
CTETRA      1601       1   16709   16717   16715      98   16827   16825+
+          16812    5668    2032    1563
CTETRA      1602       1   13576     122   13588      97    2177    3107+
+          13894    1642    1667    1659
CTETRA      1603       1   13584   13587   13586      96   13886   13888+
+          13882    2002    4105    2019
CTETRA      1604       1   13755      13     113      10    1253    1620+
+           4557    1256    1255    3661
CTETRA      1605       1   16508   16509   16518      84   16545   16544+
+          16543    4473    2377    2366
CTETRA      1606       1   17283     455     108     743    3296    5644+
+           1597    5501    5645    5669
CTETRA      1607       1   13648   13694   13693      63   14268   14269+
+          14266    3366    3367    2047
CTETRA      1608       1   13693   13694     454      63   14269    5651+
+           3326    2047    3367    3295
CTETRA      1609       1   17149   17150     455     195   17166    3369+
+           3408    4846    5670    5671
CTETRA      1610       1   13687     694     193     443    5672    5673+
+           5674    3227    5675    5676
CTETRA      1611       1   17872   17873   16518     289   17888   16572+
+          16573    5309    5677    2368
CTETRA      1612       1   16996   13688   13687     694   14235   14234+
+          14227    5678    5679    5672
CTETRA      1613       1   13680   13688     474     694   14236    5664+
+           3751    5680    5679    5681
CTETRA      1614       1   13659   13666     138     232   14140    3851+
+           5682    3433    3853    3852
CTETRA      1615       1   17600     183   15991     144    2606    2043+
+          16108    1891    1917    1892
CTETRA      1616       1   15977   15978   16041     183   16104   16300+
+          16299    2042    2044    4520
CTETRA      1617       1   17278     466   14713     231    3468    3359+
+          14961    3469    3363    3362
CTETRA      1618       1   13662   13668   13667     466   14162   14164+
+          14157    3475    3472    4147
CTETRA      1619       1   15978   16040   16041     627   16303   16292+
+          16300    4521    5683    4522
CTETRA      1620       1   13667     466   13668     464    4147    3472+
+          14164    4148    3471    3351
CTETRA      1621       1   16007   16013   16014     608   16203   16209+
+          16205    5594    5684    5595
CTETRA      1622       1   17524     286   15279     764    5685    5686+
+          15594    5687    5688    5689
CTETRA      1623       1   13663     232   13669     231    3432    2131+
+          14168    3879    2130    2129
CTETRA      1624       1   15278   15280   15279     608   15596   15595+
+          15597    5690    4415    5691
CTETRA      1625       1   17279     232   17280     583    3869    5692+
+          17295    4281    5693    4865
CTETRA      1626       1   14711     464   14712     231    4704    5694+
+          14956    3361    3353    5695
CTETRA      1627       1   13663   13669   13668     231   14168   14169+
+          14163    3879    2129    3352
CTETRA      1628       1   17759   16916   16908     351   16964   16959+
+          16963    5696    5697    5698
CTETRA      1629       1   17462     765   15731     623    5699    5700+
+          15776    4497    5701    4498
CTETRA      1630       1   17276     680     390     766    5020    5702+
+           2904    5703    5704    5705
CTETRA      1631       1   16725     339   16726     351    4208    5706+
+          16867    4209    3958    5707
CTETRA      1632       1   17785   16727     351     352   16871    2639+
+           5708    5709    2640    2642
CTETRA      1633       1   17759     351   13572     664    5696    5710+
+          13835    5711    5712    4822
CTETRA      1634       1   17596   15731   15730     767   15832   15775+
+          15831    5713    5714    5715
CTETRA      1635       1   13573     339   13593     351    3955    5716+
+          13915    3956    3958    5717
CTETRA      1636       1   12739     509   12743     671    4906    3686+
+          12813    4907    4909    5718
CTETRA      1637       1   15308     672     744     616    5719    5509+
+           5720    4858    5721    5722
CTETRA      1638       1   17172   12184   12159     429   12566   12564+
+          12474    5723    3694    5142
CTETRA      1639       1   16004   16005     353     616   16166    5305+
+           5724    5725    5306    4444
CTETRA      1640       1   16008     353     608     744    5726    5727+
+           5728    5729    5730    5589
CTETRA      1641       1   17305   12739   12746     429   12810   12832+
+          12830    5731    4905    5732
CTETRA      1642       1   16005   16011   16008     353   16192   16193+
+          16186    5305    2643    5726
CTETRA      1643       1   12158     574      73     484    5143    4172+
+           3146    4180    4176    4175
CTETRA      1644       1   17305   12739     429     768   12810    4905+
+           5731    5733    5734    5735
CTETRA      1645       1   12891   12893      73     429   13080    3164+
+           3163    4901    5736    3149
CTETRA      1646       1   12943     701     101     696    5184    5737+
+           2597    5146    5186    5738
CTETRA      1647       1   17460   17461   15733     500   17494   15780+
+          15782    3628    5739    3629
CTETRA      1648       1   15276   15277   15308     672   15625   15706+
+          15708    4916    5740    5719
CTETRA      1649       1   17670   15867     301     302   15957    2432+
+           5741    5742    2433    2435
CTETRA      1650       1   15734     672     613     722    5743    5744+
+           4431    5345    5745    5361
CTETRA      1651       1   15217     303     513     301    5746    3702+
+           5410    5747    2440    4216
CTETRA      1652       1   15216   15220     513     577   15367    4217+
+           4237    4503    4218    4220
CTETRA      1653       1   15220     301     577     624    4215    4219+
+           4218    4507    4506    5748
CTETRA      1654       1   15217   15224     303     301   15372    5749+
+           5746    5747    5750    2440
CTETRA      1655       1   16083     303     312     300    2436    5751+
+           2466    2438    2437    2468
CTETRA      1656       1   15293     672     403     239    5752    5366+
+           5753    5754    5505    2970
CTETRA      1657       1   15284   15295     237     238   15664    2145+
+           5755    5756    2146    2148
CTETRA      1658       1   15280   15285   15284     609   15613   15614+
+          15611    4417    5586    5566
CTETRA      1659       1   16083   16084     303     301   16471    4227+
+           2436    2439    4830    2440
CTETRA      1660       1   17527   15284   15295     237   15612   15664+
+          15663    5757    5755    2145
CTETRA      1661       1   12119   12120     216     217   12329    5758+
+           5195    4308    4289    2073
CTETRA      1662       1   17526     609   15284     752    5558    5566+
+          15610    5759    5572    5571
CTETRA      1663       1   15296     609     239     240    5760    5576+
+           2149    2152    5761    2153
CTETRA      1664       1   12097   12122     126     216   12340    5762+
+           1687    5244    5763    5245
CTETRA      1665       1   13716   13721     156      49   14348    5764+
+           4329    4332    5765    4333
CTETRA      1666       1   17151   11876   11891      55   11945   12001+
+          11999    5766    1398    3024
CTETRA      1667       1   12899     504     479     528    3827    5767+
+           5768    3830    3829    4938
CTETRA      1668       1   13649   13693   13690      49   14265   14261+
+          14263    5769    2046    2033
CTETRA      1669       1   15869     513   15870     769    5770    5469+
+          15972    5771    5772    5773
CTETRA      1670       1   15240   15241   15242     234   15459   15464+
+          15462    2135    3960    3967
CTETRA      1671       1   15239     303     666     234    5774    4834+
+           5265    2136    3705    4835
CTETRA      1672       1   17539     580   15216     581    5775    4235+
+          15371    5776    4239    4238
CTETRA      1673       1   17001   13790   13791     770   14627   14637+
+          14635    5777    5778    5779
CTETRA      1674       1   17931   17573   15870     512   17574   15974+
+          15976    5780    5781    5470
CTETRA      1675       1   13649   13716      62      49   14343    4328+
+           1428    5769    4332    1424
CTETRA      1676       1   13649      49      62      63    5769    1424+
+           1428    1430    1427    1418
CTETRA      1677       1   12908      19     437     503    1486    3200+
+           4337    5782    5783    5784
CTETRA      1678       1   17631   16038   16035     538   16283   16280+
+          16278    5785    5786    5787
CTETRA      1679       1   15206     627   15207     538    5788    5789+
+          15318    5433    5790    5434
CTETRA      1680       1   15210   15211   15213     538   15333   15349+
+          15362    5370    5435    5791
CTETRA      1681       1   17497   15214   15213     120   15356   15364+
+          15346    3901    2677    2758
CTETRA      1682       1   15210   15213   15215     492   15362   15363+
+          15358    5792    3566    3568
CTETRA      1683       1   12866   12908     437     503   13140    4337+
+           3201    5793    5782    5784
CTETRA      1684       1   12866     437   12876     254    3201    3203+
+          13015    4062    5794    3222
CTETRA      1685       1   15210     364   15211     538    2747    5795+
+          15333    5370    4854    5435
CTETRA      1686       1   17276   12931   17924     766   13252   13382+
+          17300    5703    5796    5797
CTETRA      1687       1   12154     437   12155     254    5798    5799+
+          12467    2203    5794    3179
CTETRA      1688       1   12865   12872     437      19   12999    5174+
+           4336    5800    4309    3200
CTETRA      1689       1   12154     437     254     198    5798    5794+
+           2203    2206    3204    2207
CTETRA      1690       1   14646   14700   14702     376   14914   14916+
+          14915    3014    5801    3011
CTETRA      1691       1   14700     293   14701     376    5802    3004+
+          14909    5801    3008    3007
CTETRA      1692       1   12148   12155     437     503   12468    5799+
+           5803    5804    4056    5784
CTETRA      1693       1   12147   12148     437     503   12451    5803+
+           3197    5805    5804    5784
CTETRA      1694       1   13742   13743   13767     408   14469   14526+
+          14527    5806    5807    5808
CTETRA      1695       1   13404      13      84      85    5809    1619+
+           1505    1508    5810    1509
CTETRA      1696       1   12148   12155   12154     437   12468   12467+
+          12461    5803    5799    5798
CTETRA      1697       1   17873   16518     289     516   16572    2368+
+           5677    3733    3730    3732
CTETRA      1698       1   17873   17874   16517     771   17887   16570+
+          16571    5811    5812    5813
CTETRA      1699       1   16517     772      84     771    5814    5815+
+           5255    5813    5816    5817
CTETRA      1700       1   13624     136   13631     309    1732    2459+
+          14048    5818    2930    5254
CTETRA      1701       1   12934     142     582     773    5819    4260+
+           5820    5821    5822    5823
CTETRA      1702       1   13646   13647   13727     107   14182   14377+
+          14378    5824    3735    3737
CTETRA      1703       1   17278     142     138     582    2946    5825+
+           5826    4258    4260    4245
CTETRA      1704       1   14649   14694     294     107   14882    5827+
+           5828    5829    5430    4035
CTETRA      1705       1   13647   13694   13648     455   14270   14268+
+          14272    5415    3365    3364
CTETRA      1706       1   13693     215      55      63    3325    2066+
+           2045    2047    3294    2048
CTETRA      1707       1   12915   12934     142     582   13237    5819+
+           4257    4259    5820    4260
CTETRA      1708       1   12147     437      19     503    3197    3200+
+           3199    5805    5784    5783
CTETRA      1709       1   12908     502      19     503    5830    4575+
+           1486    5782    3641    5783
CTETRA      1710       1   12142      19   12145      18    4576    4395+
+          12423    5831    1282    4809
CTETRA      1711       1   12864   12910   12897      18   13149   13154+
+          13157    5832    5833    4652
CTETRA      1712       1   15250   15262   15261     475   15534   15533+
+          15531    3434    3436    5834
CTETRA      1713       1   13678   13686   13684     193   14211   14213+
+          14212    1957    4913    5835
CTETRA      1714       1   17498     538     424     539    3908    5836+
+           5837    3909    3911    5838
CTETRA      1715       1   11884     181   11885     178    4875    4886+
+          11962    4876    4877    5839
CTETRA      1716       1   12147      19   12151     503    3199    4613+
+          12450    5805    5783    3640
CTETRA      1717       1   17286     155   12867     254    1836    3193+
+          13012    3221    3181    3482
CTETRA      1718       1   17020   11889     694     706   11988    5128+
+           5127    5840    5242    5841
CTETRA      1719       1   11884   11888   11890     193   11990   11991+
+          11992    4919    5842    5843
CTETRA      1720       1   13677   13685   13686     192   14205   14215+
+          14214    4869    5844    4912
CTETRA      1721       1   17285     156   17286     254    3184    1837+
+          17292    3186    3185    3221
CTETRA      1722       1   13686     193     192     762    4913    1959+
+           4912    5662    5845    5846
CTETRA      1723       1   16999   13686   13685     761   14218   14215+
+          14217    5847    5659    5848
CTETRA      1724       1   16998   13684   13686     762   14201   14213+
+          14219    5661    5849    5662
CTETRA      1725       1   17398   13609   13601     774   13987   14630+
+          13991    5850    5851    5852
CTETRA      1726       1   17397   13601   13602     775   13956   13955+
+          13954    5853    5854    5855
CTETRA      1727       1   17828   16607     209     776   16652    2015+
+           2027    5856    5857    5858
CTETRA      1728       1   12619   12620      60     586   12683    4743+
+           4742    5207    5859    5860
CTETRA      1729       1   12619      60     653     777    4742    4745+
+           4744    5861    5862    5863
CTETRA      1730       1   17927     775   13602     778    5864    5855+
+          13957    5865    5866    5867
CTETRA      1731       1   12926      61      60      59    5599    1412+
+           5868    5600    1416    1415
CTETRA      1732       1   12916      60   12934     773    5869    5870+
+          13236    5871    5872    5821
CTETRA      1733       1   16719   16721   16720      86   16836   16838+
+          16837    1521    1523    1533
CTETRA      1734       1   13562      89     779     780    5873    5874+
+           5875    5876    5877    5878
CTETRA      1735       1   13598   13600   13599      90   13941   13943+
+          13942    4665    4804    1528
CTETRA      1736       1   17636   16723   16720      90   16854   16853+
+          16852    5229    5228    1535
CTETRA      1737       1   15253   15256   15254     147   15498   15500+
+          15499    2304    1786    5412
CTETRA      1738       1   13595   13600   13596     576   13940   13939+
+          13931    4204    5879    4205
CTETRA      1739       1   12926     444   12934      60    5880    5881+
+          13234    5868    5882    5870
CTETRA      1740       1   13596   13600   13598     576   13939   13941+
+          13933    4205    5879    4663
CTETRA      1741       1   16719   16720   16723      90   16837   16853+
+          16877    1534    1535    5228
CTETRA      1742       1   12916   12919      60     781   13167    5883+
+           5869    5884    5885    5886
CTETRA      1743       1   12620     374   12621     375    5887    2825+
+          12686    5888    2829    2828
CTETRA      1744       1   12916      60     782     783    5869    5889+
+           5890    5891    5892    5893
CTETRA      1745       1   17630     214     298     120    3279    2417+
+           5894    5895    2424    2423
CTETRA      1746       1   12605   12606     255     618   12640    5896+
+           4459    4460    5897    4461
CTETRA      1747       1   15725     183     627     343    2608    4523+
+           5898    2609    2611    5899
CTETRA      1748       1   17118   12620   12619     586   12694   12683+
+          12693    5206    5859    5207
CTETRA      1749       1   15724   15725     627     784   15757    5898+
+           5900    5901    5902    5903
CTETRA      1750       1   15207     627     424     538    5789    4529+
+           5432    5434    5790    5836
CTETRA      1751       1   17631     221     298     335    5904    5905+
+           5906    5907    5908    5909
CTETRA      1752       1   17235   12604   17236     645   12633   12635+
+          17257    5910    4698    4697
CTETRA      1753       1   17499   17500     221     424   17513    2093+
+           3612    5431    3609    3611
CTETRA      1754       1   15977     183     360      69    2042    4525+
+           4524    2615    1915    4243
CTETRA      1755       1   17148   11899   11882     225   12028   12027+
+          12026    2102    3418    2103
CTETRA      1756       1   16038     424     627     538    4528    4529+
+           4527    5786    5836    5790
CTETRA      1757       1   17632     221   17633     424    3605    3604+
+          17648    3103    3611    3104
CTETRA      1758       1   17633   15977   16041     360   16295   16299+
+          16286    4893    4524    4526
CTETRA      1759       1   17237   12950   12949     253   13288   13290+
+          13289    4448    4447    2200
CTETRA      1760       1   17500   15208   15195     360   15312   15314+
+          15313    2703    4540    2704
CTETRA      1761       1   12963      36      34      35    1332    1352+
+           1326    1328    1334    1329
CTETRA      1762       1   17101   17102   12602     757   17128   12728+
+          12727    5626    5911    5627
CTETRA      1763       1   12102      36     642      35    5912    5913+
+           5104    5106    1334    5107
CTETRA      1764       1   12098      37      34      35    3884    1335+
+           1358    1359    1337    1329
CTETRA      1765       1   12963   12969   12971      35   13376   13377+
+          13375    1328    1330    3883
CTETRA      1766       1   12962     642      36      35    5914    5913+
+           1331    1333    5107    1334
CTETRA      1767       1   17922   12906   17287     434   13131   13129+
+          17293    5915    3174    5916
CTETRA      1768       1   17100   12601     590     591   12624    4298+
+           5917    5918    4299    4301
CTETRA      1769       1   11881     225   11899     474    4187    3418+
+          12032    5919    3428    3445
CTETRA      1770       1   12603     785     447     786    5920    5921+
+           5099    5922    5923    5924
CTETRA      1771       1   17102   12603   12602     757   12725   12631+
+          12728    5911    5925    5627
CTETRA      1772       1   11881     474     694     227    5919    5681+
+           5926    3754    3753    5927
CTETRA      1773       1   11889     227     694     193    3755    5927+
+           5128    5239    4186    5673
CTETRA      1774       1   17814   17056   11678      44   11729   11731+
+          11730    5928    5929    1362
CTETRA      1775       1   13691     124     410      55    4659    4662+
+           3028    3031    2067    3032
CTETRA      1776       1   11786     192   11787     787    5397    5930+
+          11810    5931    5932    5933
CTETRA      1777       1   13685     788     192     789    5934    5935+
+           5844    5936    5937    5938
CTETRA      1778       1   11888     178     227     193    5939    5436+
+           5940    5842    1958    4186
CTETRA      1779       1   17019   11883     193     790   11959    4918+
+           5238    5941    5942    5943
CTETRA      1780       1   13684     193   13686     762    5835    4913+
+          14213    5849    5845    5662
CTETRA      1781       1   11884     178   11888     193    4876    5939+
+          11990    4919    1958    5842
CTETRA      1782       1   16716     207     184     335    2565    2569+
+           2568    5944    2576    2555
CTETRA      1783       1   13559   13565     298     335   13815    5945+
+           5946    5947    5948    5909
CTETRA      1784       1   17632     335     336     338    2554    2557+
+           2556    2562    5949    5950
CTETRA      1785       1   17174   17175   12749     342   17200   12850+
+          12849    2602    5951    2603
CTETRA      1786       1   13565   13586      40     335   13884    2020+
+           4396    5948    5952    4750
CTETRA      1787       1   11876   11894   11892      54   12007   12002+
+          12005    1393    1555    2061
CTETRA      1788       1   13586     207      40     335    2021    2010+
+           2020    5952    2576    4750
CTETRA      1789       1   17631      40     335      41    1347    4750+
+           5907    1348    1350    5953
CTETRA      1790       1   17631      40   16710     335    1347    2006+
+          16792    5907    4750    4749
CTETRA      1791       1   15246     355     118     197    5954    2760+
+           4192    5955    2783    5956
CTETRA      1792       1   17814      54     530     592    4325    5957+
+           3858    4322    5958    4323
CTETRA      1793       1   17056   11678      44      45   11731    1362+
+           5929    5959    1363    1365
CTETRA      1794       1   15203     118   15246     355    2662    4192+
+          15479    5960    2760    5954
CTETRA      1795       1   17941   17833   11695     791   17851   11751+
+          11752    5961    5962    5963
CTETRA      1796       1   17050     347   11684     792    3278    2633+
+          11760    5964    5965    5966
CTETRA      1797       1   11686     410     660     655    3034    4784+
+           4783    4761    5967    5968
CTETRA      1798       1   11892      54     410      55    2061    3029+
+           3063    2062    1397    3032
CTETRA      1799       1   11695     410     791     793    4782    5969+
+           5963    5970    5971    5972
CTETRA      1800       1   17833   17834   11694     794   17850   11749+
+          11750    5973    5974    5975
CTETRA      1801       1   17833   11694   11695     795   11750   11725+
+          11751    5976    5977    5978
CTETRA      1802       1   17399   17400   13607     796   17414   13977+
+          13976    5979    5980    5981
CTETRA      1803       1   16052   16053     365     197   16346    5982+
+           5983    1967    2784    5984
CTETRA      1804       1   11695     797     793     795    5985    5986+
+           5970    5978    5987    5988
CTETRA      1805       1   16049   16050     118     197   16353    5989+
+           2749    2782    1966    5956
CTETRA      1806       1   17833   11695     791     795   11751    5963+
+           5962    5976    5978    5990
CTETRA      1807       1   17784     547   16709     798    3964    5991+
+          16860    5992    5993    5994
CTETRA      1808       1   17783      98   16715      95    5995    1563+
+          16811    5996    5997    1553
CTETRA      1809       1   13575      94      98     799    3873    1565+
+           2003    5998    5999    6000
CTETRA      1810       1   15034     197     365     146    6001    5984+
+           6002    1762    6003    6004
CTETRA      1811       1   15243     197     119     800    2655    2654+
+           2652    6005    6006    6007
CTETRA      1812       1   17761   13575      98     799   13843    2003+
+           4354    6008    5998    6000
CTETRA      1813       1   15243     365   15246     197    6009    6010+
+          15480    2655    5984    5955
CTETRA      1814       1   17786   16718   16727     345   16834   16878+
+          16872    6011    4384    2637
CTETRA      1815       1   13558   13566   13559     335   13811   13814+
+          13813    6012    6013    5947
CTETRA      1816       1   17636      90     148     257    5229    2393+
+           2301    5230    4962    4951
CTETRA      1817       1   13571   13596   13598     344   13929   13933+
+          13932    2617    2616    4666
CTETRA      1818       1   15204   15246     118     197   15478    4192+
+           2664    2653    5955    5956
CTETRA      1819       1   16718     344   16728     345    4383    4825+
+          16879    4384    2620    6014
CTETRA      1820       1   12615   12616     620     801   12671    4968+
+           6015    6016    6017    6018
CTETRA      1821       1   12615     179     620     802    1901    6019+
+           6015    6020    6021    6022
CTETRA      1822       1   17727   16606   16605     803   16676   16646+
+          16679    6023    6024    6025
CTETRA      1823       1   17729     804   16604     805    6026    6027+
+          16680    6028    6029    6030
CTETRA      1824       1   12868     620     194     806    4467    4470+
+           4469    6031    6032    6033
CTETRA      1825       1   12136     195     620     194    6034    4974+
+           6035    5351    1961    4470
CTETRA      1826       1   16605   16614   16613      22   16644   16643+
+          16641    6036    6037    6038
CTETRA      1827       1   16604   16605   16613      22   16642   16641+
+          16640    6039    6036    6038
CTETRA      1828       1   12869     620   12870     195    4468    4965+
+          12978    6040    4974    4973
CTETRA      1829       1   17148     472     229     226    6041    5649+
+           3419    2104    4584    6042
CTETRA      1830       1   13671   13700     472     226   14299    6043+
+           6044    6045    4190    4584
CTETRA      1831       1   13672     533   13695     226    4590    5438+
+          14280    4591    4592    2112
CTETRA      1832       1   12610      76     807     808    1474    6046+
+           6047    6048    6049    6050
CTETRA      1833       1   17730     605   16603     809    5303    4399+
+          16682    6051    6052    6053
CTETRA      1834       1   13710   13785     293     282   14598    2385+
+           2387    2847    6054    2395
CTETRA      1835       1   17497     120     298     292    3901    2423+
+           6055    2404    2425    2418
CTETRA      1836       1   13709   13727   13710     294   14383   14385+
+          14386    2723    6056    2724
CTETRA      1837       1   14679     170   14680     171    5119    1849+
+          14840    1863    1859    6057
CTETRA      1838       1   13403      84   13404     514    4569    1505+
+          13514    6058    3719    6059
CTETRA      1839       1   16508   16518   16517      84   16543   16542+
+          16540    4473    2366    5255
CTETRA      1840       1   17639      13      84     515    4562    1619+
+           3718    3721    6060    3722
CTETRA      1841       1   14681     171     281     282    4014    4379+
+           6061    4016    4015    2335
CTETRA      1842       1   17638   16730   17639     113   16889   16890+
+          17643    2358    2360    2371
CTETRA      1843       1   15246     365   15247     355    6010    2754+
+          15483    5954    2753    2752
CTETRA      1844       1   13785     171     293     282    3022    6062+
+           2385    6054    4015    2395
CTETRA      1845       1   13559   13565   13560     298   13815   13818+
+          13817    5946    5945    6063
CTETRA      1846       1   13768     293     408     810    2386    3005+
+           6064    6065    6066    6067
CTETRA      1847       1   17591   15736   15735     270   15822   15790+
+          15821    6068    2272    6069
CTETRA      1848       1   17594   15733   15732     667   15828   15781+
+          15827    6070    4863    4862
CTETRA      1849       1   14647   14698     293     294   14905    5637+
+           2394    2397    5638    2398
CTETRA      1850       1   13645   13709     293     556   14384    2384+
+           2412    4023    4027    4026
CTETRA      1851       1   17458   15735   15736     139   15788   15790+
+          15789    1730    6071    1731
CTETRA      1852       1   13645   13709   13768     293   14384   14596+
+          14524    2412    2384    2386
CTETRA      1853       1   13768     811     293     810    6072    6073+
+           2386    6065    6074    6066
CTETRA      1854       1   17634     468     340     703    3381    6075+
+           2581    5213    5215    6076
CTETRA      1855       1   15734     616     672     721    4453    5721+
+           5743    5341    6077    6078
CTETRA      1856       1   13681     467     474     236    3438    3440+
+           3437    3441    3443    4670
CTETRA      1857       1   15734   15735     672     722   15787    6079+
+           5743    5345    5344    5745
CTETRA      1858       1   11880   11881     474     694   11984    5919+
+           5652    5129    5926    5681
CTETRA      1859       1   17020   11599   11601     694   11618   11613+
+          11616    5127    6080    6081
CTETRA      1860       1   13699     215     467     236    3324    3415+
+           3372    3442    4672    3443
CTETRA      1861       1   13679     694   13680     227    6082    5680+
+          14223    4183    5927    3752
CTETRA      1862       1   17591   15735     812     813   15821    6083+
+           6084    6085    6086    6087
CTETRA      1863       1   15286   15293   15296     239   15650   15658+
+          15657    6088    5754    2149
CTETRA      1864       1   17147     178     226     227    5442    5440+
+           2804    4182    5436    2115
CTETRA      1865       1   13678     227     178     193    4184    5436+
+           1905    1957    4186    1958
CTETRA      1866       1   11881     225     474     227    4187    3428+
+           5919    3754    2114    3753
CTETRA      1867       1   11899     225     229     467    3418    2124+
+           3420    3447    3405    3404
CTETRA      1868       1   13679   13680   13697     227   14223   14288+
+          14286    4183    3752    2120
CTETRA      1869       1   15285   15286   15296     239   15621   15657+
+          15659    6089    6088    2149
CTETRA      1870       1   16073     245     403     239    5492    2985+
+           2966    2969    5487    2970
CTETRA      1871       1   15196   15258   15259     144   15521   15510+
+          15518    1920    1948    1755
CTETRA      1872       1   15195   15196   15259     183   15322   15518+
+          15517    2613    1919    1918
CTETRA      1873       1   12740   12742     477     719   12807    5324+
+           4728    6090    5325    5327
CTETRA      1874       1   17466     187   15727     188    6091    1930+
+          15764    6092    1934    1933
CTETRA      1875       1   15256   15257     334     506   15511    2552+
+           6093    3656    3658    6094
CTETRA      1876       1   15254     147   15256     333    5412    1786+
+          15500    2546    5413    6095
CTETRA      1877       1   12740     477   12742     578    4728    5324+
+          12807    6096    6097    4224
CTETRA      1878       1   15037     558   15039     493    6098    6099+
+          15087    6100    6101    3572
CTETRA      1879       1   17212   15037   15039     493   15085   15087+
+          15083    3571    6100    3572
CTETRA      1880       1   17143     814     558     735    6102    6103+
+           4057    5445    6104    6105
CTETRA      1881       1   17143     390     676     735    6106    6107+
+           4987    5445    6108    5446
CTETRA      1882       1   17345     815   12931     816    6109    6110+
+          13220    6111    6112    6113
CTETRA      1883       1   12879   12886      75     510   13034    1501+
+           5315    5318    6114    5219
CTETRA      1884       1   12179      75   12182     477    6115    5217+
+          12584    3453    5316    5222
CTETRA      1885       1   17000   13790     817     818   14626    6116+
+           6117    6118    6119    6120
CTETRA      1886       1   17000   13652   13790     818   14112   14625+
+          14626    6118    6121    6119
CTETRA      1887       1   12740   12741     477     648   12798    4729+
+           4728    5169    4719    5609
CTETRA      1888       1   13714   13738   13737     544   14430   14433+
+          14431    4003    4018    4004
CTETRA      1889       1   13731   13739   13738     426   14437   14438+
+          14428    3127    3129    4017
CTETRA      1890       1   12740     477     819     820    4728    6122+
+           6123    6124    6125    6126
CTETRA      1891       1   13735   13736   13739     428   14424   14440+
+          14439    3554    3553    3558
CTETRA      1892       1   17302   12740     819     820   12796    6123+
+           6127    6128    6124    6126
CTETRA      1893       1   15293     403     245     239    5753    2985+
+           6129    5754    2970    5487
CTETRA      1894       1   15294   15295   15296     212   15654   15662+
+          15661    2030    2143    2151
CTETRA      1895       1   13648   13693   13649      63   14266   14265+
+          14267    3366    2047    1430
CTETRA      1896       1   15861     821     212     822    6130    6131+
+           6132    6133    6134    6135
CTETRA      1897       1   16072     406     405     212    4137    2979+
+           4136    2171    2982    2981
CTETRA      1898       1   13646   13670   13647     107   14181   14183+
+          14182    5824    5427    3735
CTETRA      1899       1   11678      50   11687      43    1379    1388+
+          11696    1360    1377    1387
CTETRA      1900       1   17174   12160   12164     104   12472   12491+
+          12490    2601    6136    6137
CTETRA      1901       1   17284     823      64     824    6138    6139+
+           1420    6140    6141    6142
CTETRA      1902       1   16071     403   16073     245    2984    2966+
+          16422    2986    2985    5492
CTETRA      1903       1   15289   15293     403     245   15651    5753+
+           5633    2983    6129    2985
CTETRA      1904       1   12170      99     250     251    2876    2260+
+           6143    5048    2264    2196
CTETRA      1905       1   12606     255     485     825    5896    5523+
+           6144    6145    6146    6147
CTETRA      1906       1   12169   12173     255      99   12531    5522+
+           5066    4274    4275    5068
CTETRA      1907       1   12170   12172   12174     101   12523   12527+
+          12526    2877    2593    2595
CTETRA      1908       1   12173      99   12176     100    4275    2884+
+          12538    5531    1569    3234
CTETRA      1909       1   13584   13585   13590     207   13883   13911+
+          13912    3978    2574    2584
CTETRA      1910       1   17818   11782   17942     826   11828   11829+
+          17822    6148    6149    6150
CTETRA      1911       1   17860     440   11783     441    6151    3215+
+          11831    6152    3219    3218
CTETRA      1912       1   12749     104     700     827    2600    6153+
+           6154    6155    6156    6157
CTETRA      1913       1   12164   12165   12176     104   12494   12539+
+          12540    6137    3235    3236
CTETRA      1914       1   17444     529   13407     636    6158    3848+
+          13529    5546    6159    4614
CTETRA      1915       1   12170     251   12172     101    5048    5560+
+          12523    2877    2266    2593
CTETRA      1916       1   12913   12969   12961      37   13363   13365+
+          13338    2852    1336    6160
CTETRA      1917       1   12744     251     101     750    2227    2266+
+           2276    5565    6161    6162
CTETRA      1918       1   12174   12175   12176     101   12534   12542+
+          12541    2595    2594    2885
CTETRA      1919       1   12959   12961   12960     126   13335   13336+
+          13333    6163    3885    1674
CTETRA      1920       1   13407     495     130     601    3847    3586+
+           3846    4374    4376    6164
CTETRA      1921       1   17173   12747   12746     574   12839   12838+
+          12835    6165    4304    6166
CTETRA      1922       1   15273     327   15275     276    6167    6168+
+          15586    5404    6169    4932
CTETRA      1923       1   15272     327   15273     276    2533    6167+
+          15579    5403    6169    5404
CTETRA      1924       1   15267   15268     327     495   15571    6170+
+           4617    4619    6171    4600
CTETRA      1925       1   13593     351     256     345    5717    4211+
+           6172    6173    2638    6174
CTETRA      1926       1   17463   15730   15731     765   15773   15775+
+          15774    6175    6176    5700
CTETRA      1927       1   15985   15992     327      30   16119    2684+
+           2683    4622    2530    2520
CTETRA      1928       1   13713     283   13731     426    3116    6177+
+          14405    3118    3117    3127
CTETRA      1929       1   13731     283   13732     426    6177    6178+
+          14410    3127    3117    3128
CTETRA      1930       1   17102     785   12603     786    6179    5920+
+          12725    6180    5923    5922
CTETRA      1931       1   12102   12106   12107     642   12282   12279+
+          12283    5104    4682    5554
CTETRA      1932       1   12878   12904   12903     478   13125   13126+
+          13120    5601    3465    3458
CTETRA      1933       1   17286   14673   14656     163   14812   14813+
+          14811    1838    4036    4030
CTETRA      1934       1   13732   13734   13739     428   14434   14436+
+          14435    3557    3122    3558
CTETRA      1935       1   13736     428   14665     544    3553    3548+
+           5071    4596    4011    4020
CTETRA      1936       1   12879   12886   12880      75   13034   13037+
+          13036    5315    1501    1510
CTETRA      1937       1   12880   12885   12881      74   13042   13044+
+          13047    1511    1512    6181
CTETRA      1938       1   12743     510     509     550    3688    3687+
+           3686    3980    6182    6183
CTETRA      1939       1   14654   14684     283     426   14856    4608+
+           6184    6185    4609    3117
CTETRA      1940       1   13750     482      15     545    3485    6186+
+           6187    3942    6188    6189
CTETRA      1941       1   17169   12740     828     829   12804    6190+
+           6191    6192    6193    6194
CTETRA      1942       1   17170   12743     511     830   12812    3689+
+           6195    6196    6197    6198
CTETRA      1943       1   14661      15   14662     482    6199    6200+
+          14756    6201    6186    6202
CTETRA      1944       1   12924   12933   12927      61   13223   13224+
+          13205    3137    3139    4737
CTETRA      1945       1   14661   14669     481     482   14782    6203+
+           3889    6201    6204    3486
CTETRA      1946       1   13760      15   13762     482    1262    6205+
+          14506    6206    6186    6207
CTETRA      1947       1   13750   13762      15     482   14516    6205+
+           6187    3485    6207    6186
CTETRA      1948       1   12866   12876   12867     254   13015   13014+
+          13016    4062    3222    3482
CTETRA      1949       1   12927   12933   12929      61   13224   13232+
+          13230    4737    3139    3247
CTETRA      1950       1   13661   13675   13674     140   14193   14195+
+          14194    1734    4872    4871
CTETRA      1951       1   12867     155     431     254    3193    3166+
+           3191    3482    3181    3180
CTETRA      1952       1   17286   17287   12867     155   17291   13013+
+          13012    1836    3192    3193
CTETRA      1953       1   17073     831   11775     832    6208    6209+
+          11863    6210    6211    6212
CTETRA      1954       1   17285     254     198     435    3186    2207+
+           4060    3187    3189    6213
CTETRA      1955       1   11776     386     181     252    2887    6214+
+           2890    2198    2888    6215
CTETRA      1956       1   13660   13664   13661     138   14137   14136+
+          14138    5461    1727    1726
CTETRA      1957       1   13394       7     155     491    3581    1797+
+           4039    3564    3582    4041
CTETRA      1958       1   17285      62     156     435    3205    4331+
+           3184    3187    3206    3188
CTETRA      1959       1   17285     156      62     833    3184    4331+
+           3205    6216    6217    6218
CTETRA      1960       1   17637      14     276      16    3759    2798+
+           2293    6219    1266    2800
CTETRA      1961       1   17179   17180   12730     383   17197   12770+
+          12771    2870    6220    2871
CTETRA      1962       1   11779     834   11780     835    6221    6222+
+          11819    6223    6224    6225
CTETRA      1963       1   17015     595   11874     596    4344    6226+
+          11927    4345    4347    6227
CTETRA      1964       1   17015   11604     594     596   11638    6228+
+           4342    4345    6229    4346
CTETRA      1965       1   13751   13761   13752      16   14509   14505+
+          14510    2788    3655    1267
CTETRA      1966       1   17505   17506   14662      15   17510   14753+
+          14752    1269    6230    6200
CTETRA      1967       1   17504   14658     359      16   14733    2810+
+           2692    2694    2811    2695
CTETRA      1968       1   11788     836     818     837    6231    6232+
+           6233    6234    6235    6236
CTETRA      1969       1   13750      15   13751     359    6187    6237+
+          14517    6238    2809    2787
CTETRA      1970       1   13683     410     124     106    4661    4662+
+           4660    1591    6239    6240
CTETRA      1971       1   17824   16503      89     838   16555    6241+
+           6242    6243    6244    6245
CTETRA      1972       1   16503      89     838     839    6241    6245+
+           6244    6246    6247    6248
CTETRA      1973       1   16602   16603   16611     121   16634   16633+
+          16632    3303    3140    3111
CTETRA      1974       1   11686     411     410     655    3035    3037+
+           3034    4761    4760    5967
CTETRA      1975       1   16612     840     452     841    6249    6250+
+           6251    6252    6253    6254
CTETRA      1976       1   17728   16605   16604     804   16678   16642+
+          16681    6255    6256    6027
CTETRA      1977       1   16604   16613     452      22   16640    6257+
+           6258    6039    6038    6259
CTETRA      1978       1   16603   16604   16612     452   16638   16637+
+          16636    4397    6258    6251
CTETRA      1979       1   13574   13594     547      98   13919    3994+
+           6260    4355    3977    6261
CTETRA      1980       1   13560   13568     452     121   13821    6262+
+           6263    3288    3289    4398
CTETRA      1981       1   17730   16602   17731     456   16685   16684+
+          17741    5307    3301    6264
CTETRA      1982       1   16507   16516     708     462   16536    6265+
+           5249    5243    3336    6266
CTETRA      1983       1   12914   12971   12969      37   13380   13377+
+          13364    6267    3882    1336
CTETRA      1984       1   12961      34     126     216    3886    1686+
+           3885    4314    5246    5245
CTETRA      1985       1   12913      37     216      58    2852    6268+
+           4313    2853    2845    5196
CTETRA      1986       1   12913      37   12961     216    2852    6160+
+          13338    4313    6268    4314
CTETRA      1987       1   16032   16044   16043     235   16316   16315+
+          16313    3699    3709    3728
CTETRA      1988       1   12115   12120   12119     217   12328   12329+
+          12323    2819    4289    4308
CTETRA      1989       1   17810      58      37     842    2834    2845+
+           2849    6269    6270    6271
CTETRA      1990       1   16069   16070   16071     403   16410   16413+
+          16414    6272    6273    2984
CTETRA      1991       1   17810   12601      37     590   12623    1338+
+           2849    6274    4298    4297
CTETRA      1992       1   15736     403     141     139    5365    6275+
+           1738    1731    6276    6277
CTETRA      1993       1   15289   15291   15290     405   15640   15639+
+          15641    5634    5542    2978
CTETRA      1994       1   15285     239   15296     609    6089    2149+
+          15659    5586    5576    5760
CTETRA      1995       1   16021     499     668      33    3774    6278+
+           6279    3778    3777    6280
CTETRA      1996       1   15251   15260     668      33   15527    6281+
+           5154    6282    6283    6280
CTETRA      1997       1   17604   15722     843     844   15847    6284+
+           6285    6286    6287    6288
CTETRA      1998       1   16018   16021     668      33   16224    6279+
+           6289    6290    3778    6280
CTETRA      1999       1   12610      76   12611     845    1474    4826+
+          12656    6291    6292    6293
CTETRA      2000       1   12131   12141   12140      17   12409   12408+
+          12407    4817    1274    4818
CTETRA      2001       1   16028     130   16029      30    2682    2681+
+          16265    3841    3840    6294
CTETRA      2002       1   15996     357     276     507    4920    6295+
+           4922    4921    4349    4925
CTETRA      2003       1   12611     663      76     846    4806    6296+
+           4826    6297    6298    6299
CTETRA      2004       1   17278     136     138     142    2944    1728+
+           5826    2946    1744    5825
CTETRA      2005       1   13622     137     136     480    1721    1723+
+           1720    6300    6301    6302
CTETRA      2006       1   13407     357     601     847    4366    4375+
+           4374    6303    6304    6305
CTETRA      2007       1   17576   13407   17577     601   13524   13525+
+          17581    6306    4374    6307
CTETRA      2008       1   13622     136   13665     480    1720    6308+
+          14143    6300    6302    6309
CTETRA      2009       1   17143     558     390     735    4057    6310+
+           6106    5445    6105    6108
CTETRA      2010       1   15856     286     608     354    2650    6311+
+           6312    2658    2657    6313
CTETRA      2011       1   17656   15855   17657     848   15893   15894+
+          17678    6314    6315    6316
CTETRA      2012       1   17143     558   12085     390    4057    4059+
+          12231    6106    6310    6317
CTETRA      2013       1   17672     769   15870     738    6318    5773+
+          15971    6319    6320    5471
CTETRA      2014       1   12951   12956   12955     250   13310   13314+
+          13313    2210    2192    4403
CTETRA      2015       1   12085     558   12094     390    4059    6321+
+          12232    6317    6310    6322
CTETRA      2016       1   11775     140   11784     309    6323    6324+
+          11799    6325    6326    6327
CTETRA      2017       1   13634     309     137     158    2940    2929+
+           2942    1804    6328    6329
CTETRA      2018       1   17277     136     137     480    2943    1723+
+           2903    6330    6302    6301
CTETRA      2019       1   17932   17570   15853     442   17571   15882+
+          15881    6331    3634    6332
CTETRA      2020       1   17929   15853   17570     414   15884   15882+
+          17572    3052    6333    3053
CTETRA      2021       1   17276   12937     558     390   13247    4634+
+           6334    2904    6335    6310
CTETRA      2022       1   17446   13409   13408     247   13544   13541+
+          13539    4755    4765    3421
CTETRA      2023       1   15279     286     608     764    5686    6311+
+           5691    5689    5688    6336
CTETRA      2024       1   17525   15279     608     764   15593    5691+
+           5567    6337    5689    6336
CTETRA      2025       1   16007   16008     608     744   16180    5728+
+           5594    6338    5729    5589
CTETRA      2026       1   15278   15285     608     744   15615    5587+
+           5690    6339    5588    5589
CTETRA      2027       1   16613     452      22     849    6257    6259+
+           6038    6340    6341    6342
CTETRA      2028       1   17462   17463   15731     765   17488   15774+
+          15776    5699    6175    5700
CTETRA      2029       1   17463   17464   15730     850   17489   15771+
+          15773    6343    6344    6345
CTETRA      2030       1   17463   15730     851     850   15773    6346+
+           6347    6343    6345    6348
CTETRA      2031       1   17596     852   15730     853    6349    6350+
+          15831    6351    6352    6353
CTETRA      2032       1   16604      22     452     804    6039    6259+
+           6258    6027    6354    6355
CTETRA      2033       1   13561   13616     452      22   14024    6356+
+           6357    6358    3913    6259
CTETRA      2034       1   17597   15730   15729      51   15834   15772+
+          15833    1382    6359    1383
CTETRA      2035       1   17629     452   17630     214    3285    3281+
+          17650    2050    3280    3279
CTETRA      2036       1   13616     214     452      22    3912    3280+
+           6356    3913    2054    6259
CTETRA      2037       1   16070   16073   16071     403   16416   16422+
+          16413    6273    2966    2984
CTETRA      2038       1   13697   13698   13701     225   14289   14309+
+          14308    2119    3425    2122
CTETRA      2039       1   11900     467     229     454    3416    3404+
+           3452    3417    3374    3463
CTETRA      2040       1   13700   13702     472     229   14306    6360+
+           6043    2123    6361    5649
CTETRA      2041       1   15254   15272     147     331   15574    5406+
+           5412    2541    2543    5411
CTETRA      2042       1   17636   15995   15989     147   16127   16129+
+          16093    1778    2296    1779
CTETRA      2043       1   15039     558     439     493    6099    6362+
+           3212    3572    6101    3573
CTETRA      2044       1   17148     472   17149     229    6041    3406+
+          17165    3419    5649    3451
CTETRA      2045       1   13694     472   13702     229    5648    6360+
+          14300    5650    5649    6361
CTETRA      2046       1   13694     229   13703     454    5650    3402+
+          14311    5651    3463    3373
CTETRA      2047       1   14722   14725   14726     166   15007   15013+
+          15011    5004    6363    1829
CTETRA      2048       1   13579   13592     186     184   13907    6364+
+           4931    6365    3377    1927
CTETRA      2049       1   17500     221     186     222    2093    2718+
+           3523    2094    2096    4926
CTETRA      2050       1   12930   12933   12932     436   13229   13226+
+          13227    3898    3195    3194
CTETRA      2051       1   13639     166     393     683    4500    4487+
+           4164    5029    5031    6366
CTETRA      2052       1   13551     176   13764      68    6367    3100+
+          14536    1443    1886    3101
CTETRA      2053       1   13635   13636   13641     150   14080   14101+
+          14103    5152    3090    3142
CTETRA      2054       1   14725     393   14726     166    6368    4486+
+          15013    6363    4487    1829
CTETRA      2055       1   17281   14693   14695     556   14876   14875+
+          14874    4573    6369    4031
CTETRA      2056       1   17280     556     534     232    6370    4047+
+           6371    5692    6372    3878
CTETRA      2057       1   13551   13552   13764     176   13799   14534+
+          14536    6367    3518    3100
CTETRA      2058       1   17500   17501   14675      68   17514   14817+
+          14821    3529    1451    2764
CTETRA      2059       1   13644   13645   13768     297   14178   14524+
+          14523    6373    2413    2415
CTETRA      2060       1   12075   12076   12139     632   12202   12398+
+          12397    4553    4996    4980
CTETRA      2061       1   14644   14675   14677     176   14826   14829+
+          14828    2707    3106    1885
CTETRA      2062       1   13782     173   13783     174    1869    3066+
+          14608    1870    1872    6374
CTETRA      2063       1   14698   14699   14700     293   14900   14908+
+          14907    5637    6375    5802
CTETRA      2064       1   14700   14701   14702     376   14909   14917+
+          14916    5801    3007    3011
CTETRA      2065       1   17633     186   17634     360    1928    3379+
+          17649    4893    4242    4892
CTETRA      2066       1   17500     186   17501      67    3523    4241+
+          17514    3525    3524    1452
CTETRA      2067       1   17410   15056   17411     854   15177   15176+
+          17423    6376    6377    6378
CTETRA      2068       1   14647     171     293     376    3013    6062+
+           2394    3016    3015    3008
CTETRA      2069       1   16085     300     312     308    2454    2468+
+           2467    2455    2457    2739
CTETRA      2070       1   17248   12615   12616     674   12669   12671+
+          12670    6379    6380    4970
CTETRA      2071       1   15223     303     312     747    6381    5751+
+           6382    6383    6384    6385
CTETRA      2072       1   15218     303   15223     747    6386    6381+
+          15380    6387    6384    6383
CTETRA      2073       1   15218   15239     303     666   15453    5774+
+           6386    6388    5265    4834
CTETRA      2074       1   13397   13399     544     629   13486    6389+
+           6390    4538    6391    6392
CTETRA      2075       1   16089     303     666     747    6393    4834+
+           6394    6395    6384    6396
CTETRA      2076       1   12601      35      37     591    1339    1337+
+           1338    4299    6397    4300
CTETRA      2077       1   12603     447      35     786    5099    5098+
+           5097    5922    5924    6398
CTETRA      2078       1   13644   13768     408     810   14523    6064+
+           4707    6399    6065    6067
CTETRA      2079       1   13644   13768   13743     408   14523   14525+
+          14466    4707    6064    5807
CTETRA      2080       1   13742     408   13766     173    5806    3017+
+          14529    3079    3020    3019
CTETRA      2081       1   12962   12971   12970      35   13373   13374+
+          13369    1333    3883    6400
CTETRA      2082       1   13742   13767   13766     408   14527   14530+
+          14529    5806    5808    3017
CTETRA      2083       1   12962   12970     642      35   13369    6401+
+           5914    1333    6400    5107
CTETRA      2084       1   13785     293     171     376    2385    6062+
+           3022    2832    3008    3015
CTETRA      2085       1   12954   12957   12956     251   13315   13316+
+          13309    6402    6403    2195
CTETRA      2086       1   12161   12163   12162     251   12485   12487+
+          12486    2233    5047    2234
CTETRA      2087       1   12730   12745     251     692   12822    2226+
+           5049    5117    6404    6405
CTETRA      2088       1   12730     259   12738     691    5044    2864+
+          12790    5114    6406    6407
CTETRA      2089       1   13742     459     408     420    6408    6409+
+           5806    3081    6410    6411
CTETRA      2090       1   13742   13748     408     459   14468    6412+
+           5806    6408    3348    6409
CTETRA      2091       1   13644     408     464     855    4707    4706+
+           4705    6413    6414    6415
CTETRA      2092       1   17308   12749     827     588   12847    6155+
+           6416    6417    4279    6418
CTETRA      2093       1   14711     466     464     231    3360    3471+
+           4704    3361    3363    3353
CTETRA      2094       1   16006     353     131     134    4074    4442+
+           6419    4075    2644    1707
CTETRA      2095       1   16021     131     668     499    6420    5286+
+           6279    3774    6421    6278
CTETRA      2096       1   17172   12159   17173     695   12474   12473+
+          17196    6422    6423    6424
CTETRA      2097       1   15999   16006     131     133   16154    6419+
+           1700    1703    6425    1704
CTETRA      2098       1   15731     668      33     767    4879    6280+
+           6426    5714    6427    6428
CTETRA      2099       1   16000   16020   16021     668   16234   16227+
+          16235    4882    4884    6279
CTETRA      2100       1   15999     132   16002     133    1702    6429+
+          16151    1703    1705    6430
CTETRA      2101       1   15299   15302     132     131   15704    1712+
+           6431    6432    1718    1701
CTETRA      2102       1   15301   15307   15309     616   15714   15715+
+          15713    4443    5284    4857
CTETRA      2103       1   17153   12155   17154     155   12464   12465+
+          17157    3477    3178    3165
CTETRA      2104       1   12866     431     437     254    4061    6433+
+           3201    4062    3180    5794
CTETRA      2105       1   12182     477      75     510    5222    5316+
+           5217    5218    5319    5219
CTETRA      2106       1   12733     153     126     203    6434    6435+
+           2507    1993    6436    6437
CTETRA      2107       1   12181   12185   12182     510   12568   12570+
+          12569    4903    4904    5218
CTETRA      2108       1   12935     444   12937     142    6438    4636+
+          13248    6439    4647    4646
CTETRA      2109       1   12923   12924   12927      59   13195   13205+
+          13204    1408    4738    4739
CTETRA      2110       1   12880   12886   12885      75   13037   13043+
+          13042    1510    1501    1500
CTETRA      2111       1   12131      76   12179     478    4816    6440+
+          12556    4788    5610    3456
CTETRA      2112       1   12880   12881   12900      76   13047   13113+
+          13114    6441    6442    6443
CTETRA      2113       1   12899     479   12902     528    5768    3460+
+          13109    3830    4938    4937
CTETRA      2114       1   12078     250   12171     253    4269    6444+
+          12515    4428    2212    4458
CTETRA      2115       1   12879   12901   12904      75   13116   13123+
+          13122    5315    6445    6446
CTETRA      2116       1   17854     836   11788     837    6447    6231+
+          11842    6448    6235    6234
CTETRA      2117       1   12187      76   12189      74    1471    6449+
+          12595    1469    1472    6450
CTETRA      2118       1   17102   17103   12603     785   17127   12726+
+          12725    6179    6451    5920
CTETRA      2119       1   12938   12939   12970     447   13287   13368+
+          13370    3256    3258    6452
CTETRA      2120       1   12602   12603      35     757   12631    5097+
+           1343    5627    5925    6453
CTETRA      2121       1   16707     339     256     184    3384    2586+
+           4212    3385    2579    2589
CTETRA      2122       1   12880   12901      75      76   13115    6445+
+           1510    6441    4810    1470
CTETRA      2123       1   12880   12900   12901      76   13114   13107+
+          13115    6441    6443    4810
CTETRA      2124       1   17354   13405   13404      13   13515   13516+
+          13513    6454    6455    5809
CTETRA      2125       1   17247   12615   17248     856   12667   12669+
+          17269    6456    6457    6458
CTETRA      2126       1   17073   11775   17074     832   11863   11866+
+          17084    6210    6212    6459
CTETRA      2127       1   13756   13758   13757      84   14483   14484+
+          14482    1615    6460    6461
CTETRA      2128       1   17506     357   15269     597    4350    6462+
+          15590    4351    4353    6463
CTETRA      2129       1   17506      13     507     597    4936    4841+
+           4348    4351    6464    4352
CTETRA      2130       1   17506      13     597     857    4936    6464+
+           4351    6465    6466    6467
CTETRA      2131       1   13756      84   13757     113    1615    6461+
+          14482    1617    1616    1623
CTETRA      2132       1   17505     507   17506      10    4933    4348+
+          17510    1272    3662    1246
CTETRA      2133       1   17075   11774   11773     657   11867   11793+
+          11826    4768    4767    6468
CTETRA      2134       1   16991     858     794     859    6469    6470+
+           6471    6472    6473    6474
CTETRA      2135       1   17506      11      13     857    1248    6475+
+           4936    6465    6476    6466
CTETRA      2136       1   15724     627     860     861    5900    6477+
+           6478    6479    6480    6481
CTETRA      2137       1   17814   17914   17056     592   17815   17057+
+          11729    4322    4324    6482
CTETRA      2138       1   11684   11694   11693     346   11722   11721+
+          11719    2635    5290    2900
CTETRA      2139       1   16036   16039   16037     364   16287   16289+
+          16288    4851    5386    6483
CTETRA      2140       1   15999     132     131     499    1702    1701+
+           1700    6484    3621    6421
CTETRA      2141       1   15250   15251     499     475   15532    6485+
+           3626    3434    6486    3627
CTETRA      2142       1   15297   15299     132     499   15673    6431+
+           3622    3620    6487    3621
CTETRA      2143       1   15999   16024     132     499   16242    6488+
+           1702    6484    6489    3621
CTETRA      2144       1   16023     132   16024     499    6490    6488+
+          16246    6491    3621    6489
CTETRA      2145       1   17909   13392   16987     567   13448   13449+
+          16989    6492    4126    6493
CTETRA      2146       1   17342     159   12911     862    2570    6494+
+          13200    6495    6496    6497
CTETRA      2147       1   17788   16702   16699     863   16766   16767+
+          16762    6498    6499    6500
CTETRA      2148       1   12911     159     153     862    6494    1806+
+           6501    6497    6496    6502
CTETRA      2149       1   13570   13571   13598     344   13830   13932+
+          13934    6503    2617    4666
CTETRA      2150       1   13570     344      89     864    6503    6504+
+           6505    6506    6507    6508
CTETRA      2151       1   17756   13570   13562     780   13825   13826+
+          13794    6509    6510    5876
CTETRA      2152       1   17757   13571   13570     344   13831   13830+
+          13829    6511    2617    6503
CTETRA      2153       1   12114     159   12117     217    6512    6513+
+          12316    4288    3057    6514
CTETRA      2154       1   17209   15040   15041     159   15097   15102+
+          15101    1811    1810    1805
CTETRA      2155       1   16606      27     865     866    6515    6516+
+           6517    6518    6519    6520
CTETRA      2156       1   17209     159   15041     160    1811    1805+
+          15101    2494    1808    1807
CTETRA      2157       1   16614      22      27     867    6037    1304+
+           6521    6522    6523    6524
CTETRA      2158       1   13606      27   13607      24    1305    6525+
+          13979    1295    1306    6526
CTETRA      2159       1   16613      22   16614     867    6038    6037+
+          16643    6527    6523    6522
CTETRA      2160       1   13706   13758   13756      84   14486   14483+
+          14485    3717    6460    1615
CTETRA      2161       1   17145     138     142     582    1746    5825+
+           1743    6528    4245    4260
CTETRA      2162       1   17147   12088   17148     573   12195   12192+
+          17164    4849    4166    4165
CTETRA      2163       1   12921     573     526     583    4179    4566+
+           4561    4563    4568    4564
CTETRA      2164       1   17279     533     232     583    3866    3870+
+           3869    4281    4267    5693
CTETRA      2165       1   17874   17875   16516     380   17886   16568+
+          16569    6529    2857    2859
CTETRA      2166       1   16517      84   16518     516    5255    2366+
+          16542    3734    3731    3730
CTETRA      2167       1   12075     526     632     573    4554    4556+
+           4553    4167    4566    4844
CTETRA      2168       1   17933   15870     512     738   15973    5470+
+           4840    6530    5471    5473
CTETRA      2169       1   17758   13572   13571     345   13834   13833+
+          13832    4820    4819    2618
CTETRA      2170       1   16033     367     234     235    3726    6531+
+           6532    3727    3729    2139
CTETRA      2171       1   17694     277   15035     739    5465    5474+
+          15076    6533    5477    5476
CTETRA      2172       1   12617     632     526     868    6534    4556+
+           5052    6535    6536    6537
CTETRA      2173       1   17279   12918   12915     582   13163   13160+
+          13158    4244    4280    4259
CTETRA      2174       1   17630   16035   16055     120   16279   16360+
+          16358    5895    6538    3712
CTETRA      2175       1   12918     583     526     869    4282    4564+
+           3803    6539    6540    6541
CTETRA      2176       1   12075     632   12139     195    4553    4980+
+          12397    4848    4975    4982
CTETRA      2177       1   17495     119      23     535    2058    3672+
+           3681    3893    6542    3894
CTETRA      2178       1   17930   17452   15741     870   17482   15805+
+          15807    6543    6544    6545
CTETRA      2179       1   17810     871   17923     842    6546    6547+
+          17812    6269    6548    6549
CTETRA      2180       1   17150     195   12136     194    5670    6034+
+          12382    6550    1961    5351
CTETRA      2181       1   12616     632     620     872    4969    4967+
+           4968    6551    6552    6553
CTETRA      2182       1   16057     119     118     197    1646    1645+
+           1644    3972    2654    5956
CTETRA      2183       1   15990   15991     183     144   16106    2043+
+           1914    1916    1892    1917
CTETRA      2184       1   17150   12139   12136     195   12383   12388+
+          12382    5670    4982    6034
CTETRA      2185       1   17282     472     455     195    4049    3407+
+           5428    6554    6555    5671
CTETRA      2186       1   15303     134     353     286    4078    2644+
+           4077    6556    2352    2647
CTETRA      2187       1   15856     354     608     742    2658    6313+
+           6312    5499    5498    6557
CTETRA      2188       1   16010   16012   16011     134   16196   16197+
+          16195    6558    2665    2645
CTETRA      2189       1   17282     455   17283     195    5428    3296+
+          17289    6554    5671    1962
CTETRA      2190       1   17283   12869     195     194   12972    6040+
+           1962    1960    4471    1961
CTETRA      2191       1   17786     345   16727     352    6011    2637+
+          16872    6559    2641    2640
CTETRA      2192       1   16707   16716   16708     184   16817   16819+
+          16818    3385    2568    2567
CTETRA      2193       1   13586      96   13587      97    2019    4105+
+          13888    4106    1561    1643
CTETRA      2194       1   13590   13591   13593     339   13914   13922+
+          13921    3386    2587    5716
CTETRA      2195       1   13591   13593     339     256   13922    5716+
+           2587    2214    6172    2586
CTETRA      2196       1   15272     330     327     873    2534    2536+
+           2533    6560    6561    6562
CTETRA      2197       1   16708   16709   16726     547   16829   16861+
+          16866    6563    5991    6564
CTETRA      2198       1   13594     339     547     207    3387    3954+
+           3994    3388    2577    6565
CTETRA      2199       1   16715      98      94      95    1563    1565+
+           1550    1553    5997    1554
CTETRA      2200       1   15261     475   15262      31    5834    3436+
+          15533    3813    3823    1696
CTETRA      2201       1   16707   16725   16724     256   16863   16865+
+          16856    4212    4210    4198
CTETRA      2202       1   15264     327   15272     326    2521    2533+
+          15572    2513    2523    2532
CTETRA      2203       1   15254     326   15272     330    2550    2532+
+          15574    2540    2535    2534
CTETRA      2204       1   15996     327   15997     276    6566    2685+
+          16142    4922    6169    6567
CTETRA      2205       1   15995   15996   15997     276   16146   16142+
+          16145    2294    4922    6567
CTETRA      2206       1   16725   16726   16727     351   16867   16869+
+          16870    4209    5707    2639
CTETRA      2207       1   16016   16029     247     475   16267    3642+
+           3594    6568    3821    3825
CTETRA      2208       1   13664   13665     136     138   14145    6308+
+           1724    1727    6569    1728
CTETRA      2209       1   13665     136     138     480    6308    1728+
+           6569    6309    6302    6570
CTETRA      2210       1   15265      30     326      31    6571    2522+
+           2515    6572    1316    2518
CTETRA      2211       1   15992     327      30     326    2684    2520+
+           2530    2531    2523    2522
CTETRA      2212       1   15264   15265   15267      30   15548   15568+
+          15569    2519    6571    4618
CTETRA      2213       1   13406     130   13407     248    2185    3846+
+          13532    2188    2187    5548
CTETRA      2214       1   13620     465   13621     480    5354    4150+
+          14098    5453    4153    4152
CTETRA      2215       1   15986   16025   16028     495   16248   16262+
+          16260    4599    3845    3842
CTETRA      2216       1   13620   13621   13662     480   14098   14150+
+          14151    5453    4152    6573
CTETRA      2217       1   15216   15242   15241     513   15463   15464+
+          15458    4237    4234    3959
CTETRA      2218       1   14710     480     465     466    3474    4153+
+           3354    3356    3467    3357
CTETRA      2219       1   17573   17933   15870     512   17575   15973+
+          15974    5781    4840    5470
CTETRA      2220       1   13665     138   13666     480    6569    3851+
+          14146    6309    6570    6574
CTETRA      2221       1   15870     769     513     738    5773    5772+
+           5469    5471    6320    5472
CTETRA      2222       1   13621     388   13622     480    4151    2959+
+          14086    4152    4154    6300
CTETRA      2223       1   15298     132     135     718    1711    1716+
+           1715    5323    6575    6576
CTETRA      2224       1   14689   14704     459     469   14924    6577+
+           3389    6578    6579    3394
CTETRA      2225       1   17600   15725   17601     343   15842   15841+
+          17623    6580    2609    6581
CTETRA      2226       1   15306     874     133     875    6582    6583+
+           6584    6585    6586    6587
CTETRA      2227       1   17653   15853   15852     876   15879   15880+
+          15874    6588    6589    6590
CTETRA      2228       1   17932     442   15853     877    6331    6332+
+          15881    6591    6592    6593
CTETRA      2229       1   17932   16023   16019     442   16237   16238+
+          16213    6331    6594    4751
CTETRA      2230       1   14689     459     460     469    3389    3329+
+           3390    6578    3394    3393
CTETRA      2231       1   17446   15249   17929     416   15538   15667+
+          17451    6595    6596    3051
CTETRA      2232       1   13745     459   13747     469    3328    6597+
+          14456    3392    3394    6598
CTETRA      2233       1   14682     281     168     283    3950    4012+
+           3916    3919    2339    3920
CTETRA      2234       1   14683   14685     281     283   14873    2332+
+           6599    6600    6601    2339
CTETRA      2235       1   15277   15278   15300     744   15617   15677+
+          15678    6602    6339    6603
CTETRA      2236       1   14683   14684   14685     283   14857   14863+
+          14873    6600    4608    6601
CTETRA      2237       1   17590   15736   17591     270   15819   15822+
+          17613    2270    2272    6068
CTETRA      2238       1   17591   15735   17592     812   15821   15824+
+          17614    6084    6083    6604
CTETRA      2239       1   17456   17457   15737     878   17490   15792+
+          15794    6605    6606    6607
CTETRA      2240       1   13732   13733     102     283   14408    1586+
+           4731    6178    2340    4607
CTETRA      2241       1   13732     283     102     426    6178    4607+
+           4731    3128    3117    4610
CTETRA      2242       1   14654   14655   14684     426   14762   14851+
+          14856    6185    5513    4609
CTETRA      2243       1   13590   13592   13591     184   13913   13910+
+          13914    2585    3377    2588
CTETRA      2244       1   17589   15737   17590     412   15817   15820+
+          17612    3039    3038    6608
CTETRA      2245       1   13738     426     544     635    4017    4008+
+           4018    4603    6609    4604
CTETRA      2246       1   14653   14683   14682     283   14853   14855+
+          14842    3918    6600    3919
CTETRA      2247       1   14680   14682   14681     281   14843   14849+
+          14848    3951    3950    6061
CTETRA      2248       1   17280     534     573     583    6371    4586+
+           4177    4865    6610    4568
CTETRA      2249       1   12126     162   12127      61    3260    1815+
+          12363    3130    3138    3131
CTETRA      2250       1   12926      60   12928      59    5868    6611+
+          13209    5600    1415    1409
CTETRA      2251       1   12933      61     162     436    3139    3138+
+           3135    3195    3242    3196
CTETRA      2252       1   12082   12090   12083      61   12215   12217+
+          12216    1413    4654    3231
CTETRA      2253       1   17464   15729   15730     879   15770   15772+
+          15771    6612    6613    6614
CTETRA      2254       1   12082   12128   12115      59   12367   12372+
+          12375    1414    6615    2822
CTETRA      2255       1   15297   15299   15298     132   15673   15674+
+          15671    3622    6431    1711
CTETRA      2256       1   15999   16021   16024     499   16236   16243+
+          16242    6484    3774    6489
CTETRA      2257       1   15278     353   15300     744    6616    5285+
+          15677    6339    5730    6603
CTETRA      2258       1   16022     442     499     475    4752    3624+
+           3773    3776    3435    3627
CTETRA      2259       1   16011   16012   16013     286   16197   16201+
+          16200    2646    2666    6617
CTETRA      2260       1   17595     880   15731     767    6618    6619+
+          15829    6620    6621    5714
CTETRA      2261       1   15197   15198   15291     242   15401   15635+
+          15633    6622    2993    5616
CTETRA      2262       1   15731   15732     668     409   15778    4880+
+           4879    3027    3026    6623
CTETRA      2263       1   15300     744     353     616    6603    5730+
+           5285    4856    5722    4444
CTETRA      2264       1   15733   15734     616     613   15784    4453+
+           4440    4432    4431    6624
CTETRA      2265       1   15734     672     616     613    5743    5721+
+           4453    4431    5744    6624
CTETRA      2266       1   16005   16006   16011     353   16163   16194+
+          16192    5305    4074    2643
CTETRA      2267       1   15229   15230   15231     308   15415   15419+
+          15418    3317    2727    2726
CTETRA      2268       1   15198   15291     242     111   15635    5616+
+           2993    2995    5544    2159
CTETRA      2269       1   15223     303   15224     312    6381    5749+
+          15381    6382    5751    6625
CTETRA      2270       1   16082     312   16083     747    4090    2466+
+          16464    5538    6385    6626
CTETRA      2271       1   15222   15223     312     747   15384    6382+
+           6627    6628    6383    6385
CTETRA      2272       1   15222     312   15226     117    6627    3313+
+          15402    6629    3666    3665
CTETRA      2273       1   13553   13746     218     296   14451    6630+
+           2090    6631    6632    6633
CTETRA      2274       1   17497   14696     295     296   14890    6634+
+           2402    2405    6635    2406
CTETRA      2275       1   13603     292     295     296    2420    2403+
+           6636    2421    2407    2406
CTETRA      2276       1   17630     298   17631     120    5894    5906+
+          17646    5895    2423    6637
CTETRA      2277       1   17630   17631     298      39   17646    5906+
+           5894    6638    1345    6639
CTETRA      2278       1   17630     298     214     453    5894    2417+
+           3279    3282    6640    3283
CTETRA      2279       1   13603     298   13604     292    2419    2416+
+          13967    2420    2418    2410
CTETRA      2280       1   13558   13559   13605     298   13813   13963+
+          13964    6641    5946    6642
CTETRA      2281       1   16004   16009     672     744   16185    5506+
+           6643    6644    5507    5509
CTETRA      2282       1   12165     104     574     484    3235    4305+
+           5145    4290    4292    4176
CTETRA      2283       1   15729      51   15730     879    1383    6359+
+          15772    6613    6645    6614
CTETRA      2284       1   17464     881   15729     879    6646    6647+
+          15770    6612    6648    6613
CTETRA      2285       1   17410     310   13634     158    4998    3772+
+          14065    1803    6649    1804
CTETRA      2286       1   17143     657     310     882    6650    6651+
+           2462    6652    6653    6654
CTETRA      2287       1   12157   12188     485     883   12586    6655+
+           4293    6656    6657    6658
CTETRA      2288       1   12861   12887     104     484   13053    4319+
+           1582    3505    3507    4292
CTETRA      2289       1   12884   12889     485     484   13065    5535+
+           6659    6660    3506    4295
CTETRA      2290       1   12607     485     884     885    6661    6662+
+           6663    6664    6665    6666
CTETRA      2291       1   11773     537     505     886    3905    6667+
+           3650    6668    6669    6670
CTETRA      2292       1   17916   17143     310     311   17155    2462+
+           4992    4985    2463    2465
CTETRA      2293       1   11773   11774     310     657   11793    5112+
+           3648    6468    4767    6651
CTETRA      2294       1   12607     884     485     887    6663    6662+
+           6661    6671    6672    6673
CTETRA      2295       1   17818     826     888     889    6148    6674+
+           6675    6676    6677    6678
CTETRA      2296       1   17818     888      57     889    6675    6679+
+           1403    6676    6678    6680
CTETRA      2297       1   15223   15229   15226     312   15410   15411+
+          15404    6382    3314    3313
CTETRA      2298       1   11773     310     505     537    3648    3651+
+           3650    3905    6681    6667
CTETRA      2299       1   16082   16091   16090     747   16493   16494+
+          16489    5538    6682    5539
CTETRA      2300       1   15222   15223   15226     312   15384   15404+
+          15402    6627    6382    3313
CTETRA      2301       1   15740   15741     747     890   15806    6683+
+           6684    6685    6686    6687
CTETRA      2302       1   16505     204   16514     891    6688    6689+
+          16528    6690    6691    6692
CTETRA      2303       1   17755   13789     892     717   14621    6693+
+           6694    5298    5300    6695
CTETRA      2304       1   16083     312     303     747    2466    5751+
+           2436    6626    6385    6384
CTETRA      2305       1   15741     666     747     893    6696    6396+
+           6683    6697    6698    6699
CTETRA      2306       1   16513     716     715     894    5295    5297+
+           5294    6700    6701    6702
CTETRA      2307       1   17359   13397   13399     544   13475   13486+
+          13485    6703    6390    6389
CTETRA      2308       1   16089     666   16091     747    6394    6704+
+          16497    6395    6396    6682
CTETRA      2309       1   17781   17782   16712     895   17798   16815+
+          16808    6705    6706    6707
CTETRA      2310       1   13399     543     544     896    6708    3940+
+           6389    6709    6710    6711
CTETRA      2311       1   13389     690     223     897    5096    5095+
+           2097    6712    6713    6714
CTETRA      2312       1   14688     460   14716     471    6715    5166+
+          14970    4530    5167    4531
CTETRA      2313       1   16999     818   11603     898    6716    6717+
+          11631    6718    6719    6720
CTETRA      2314       1   16083   16089   16091     747   16496   16497+
+          16495    6626    6395    6682
CTETRA      2315       1   16032     234     512     235    4228    3963+
+           3696    3699    2139    3700
CTETRA      2316       1   12949   12955     447     253   13311    4695+
+           4429    2200    2202    4405
CTETRA      2317       1   12078     447     250     253    4272    4271+
+           4269    4428    4405    2212
CTETRA      2318       1   12603     447     688     689    5099    6721+
+           5089    5092    5101    5093
CTETRA      2319       1   17854   17855   11788     836   17867   11841+
+          11842    6447    6722    6231
CTETRA      2320       1   17855   11787   11788     836   11840   11812+
+          11841    6722    6723    6231
CTETRA      2321       1   17856   11786   11787     787   11838   11810+
+          11839    6724    5931    5933
CTETRA      2322       1   17855   17856   11787     787   17866   11839+
+          11840    6725    6724    5933
CTETRA      2323       1   12603     447   12604     645    5099    4406+
+          12634    6726    6727    4698
CTETRA      2324       1   11689      50       7     899    6728    3598+
+           1875    6729    6730    6731
CTETRA      2325       1   14720     388   14728     465    4142    6732+
+          15016    4144    4143    5458
CTETRA      2326       1   17433     150   14730     149    1775    1771+
+          15029    6733    1770    1769
CTETRA      2327       1   13620   13662   13667     466   14151   14157+
+          14156    5454    3475    4147
CTETRA      2328       1   12857   12858   12921     632   12984   13180+
+          13179    4842    4559    4558
CTETRA      2329       1   17285      62     102     833    3205    1575+
+           5170    6216    6218    6734
CTETRA      2330       1   17284      64      63     824    1420    1422+
+           1419    6140    6142    6735
CTETRA      2331       1   14709   14711   14713     466   14950   14964+
+          14959    4491    3360    3359
CTETRA      2332       1   13618     460     471     639    4094    5167+
+           3401    4656    6736    6737
CTETRA      2333       1   13555     317     471     295    5038    5008+
+           5036    4086    5035    5034
CTETRA      2334       1   17708   16511     900     285   16581    6738+
+           6739    2346    2345    6740
CTETRA      2335       1   17152     156      50      49    6741    6742+
+           1374    1372    4333    1373
CTETRA      2336       1   17152   17153     156     254   17159    3478+
+           6741    4477    3479    3185
CTETRA      2337       1   17152      62     156      49    5511    4331+
+           6741    1372    1424    4333
CTETRA      2338       1   17285     435     198     438    3187    6213+
+           4060    3207    3209    6743
CTETRA      2339       1   17152      50   11879      43    1374    6744+
+          11948    1375    1377    6745
CTETRA      2340       1   13694   13702   13703     229   14300   14304+
+          14311    5650    6361    3402
CTETRA      2341       1   13744     460     469     295    4085    3393+
+           6746    4088    4087    6747
CTETRA      2342       1   17282     455     472     557    5428    3407+
+           4049    4051    5429    4052
CTETRA      2343       1   13697   13701   13700     225   14308   14307+
+          14297    2119    2122    2121
CTETRA      2344       1   16699   16702   16700      89   16767   16772+
+          16773    6748    6749    6750
CTETRA      2345       1   17879     901   16512     902    6751    6752+
+          16560    6753    6754    6755
CTETRA      2346       1   13698   13699   13703     467   14295   14313+
+          14314    3439    3372    3371
CTETRA      2347       1   11880     474     236     903    5652    4670+
+           5653    6756    6757    6758
CTETRA      2348       1   16699      89     604     863    6748    6759+
+           4393    6500    6760    6761
CTETRA      2349       1   16711   16713   16712      97   16795   16797+
+          16796    1559    1663    1567
CTETRA      2350       1   13560     121     452      40    3288    4398+
+           6263    6762    1653    6763
CTETRA      2351       1   17281     472   17282     195    4571    4049+
+          17297    4983    6555    6554
CTETRA      2352       1   13700     229     472     226    2123    5649+
+           6043    4190    6042    4584
CTETRA      2353       1   13586   13587   13588      97   13888   13892+
+          13891    4106    1643    1659
CTETRA      2354       1   13563   13564   13588     121   13809   13889+
+          13890    6764    1652    1658
CTETRA      2355       1   13657   13671     472     534   14189    6044+
+           4045    4043    6765    4044
CTETRA      2356       1   16609     531   16610     532    6766    3861+
+          16625    5046    3864    3863
CTETRA      2357       1   13657     472   13670     556    4045    5654+
+          14188    4046    4048    6767
CTETRA      2358       1   17764   13569     904     905   13823    6768+
+           6769    6770    6771    6772
CTETRA      2359       1   15299   15307   15302     131   15703   15705+
+          15704    6432    5283    1718
CTETRA      2360       1   17762   17763   13576     246   17775   13850+
+          13846    6773    2178    2180
CTETRA      2361       1   15998   16002   15999     132   16149   16151+
+          16150    6774    6429    1702
CTETRA      2362       1   15299     131     132     499    6432    1701+
+           6431    6487    6421    3621
CTETRA      2363       1   17576   13383   13407     847   13434   13526+
+          13524    6775    6776    6303
CTETRA      2364       1   16023     132     499     442    6490    3621+
+           6491    6594    3625    3624
CTETRA      2365       1   17703   13401   17704     906   13499   13508+
+          17706    6777    6778    6779
CTETRA      2366       1   15852   15853     132     876   15880    6780+
+           4065    6590    6589    6781
CTETRA      2367       1   15268   15275   15274     327   15588   15587+
+          15581    6170    6168    6782
CTETRA      2368       1   16015   16029   16027     130   16266   16264+
+          16257    3430    2681    2680
CTETRA      2369       1   17576   13407     601     847   13524    4374+
+           6306    6775    6303    6305
CTETRA      2370       1   13407     529     495     636    3848    3850+
+           3847    4614    6159    4615
CTETRA      2371       1   15853     132     877     415    6780    6783+
+           6593    6784    6785    6786
CTETRA      2372       1   13726   13727     107     105   14374    3737+
+           3736    1606    5655    1595
CTETRA      2373       1   17934   13383   17576     907   13435   13434+
+          17580    6787    6788    6789
CTETRA      2374       1   13710   13727   13725     294   14385   14375+
+          14379    2724    6056    2848
CTETRA      2375       1   14694   14695     294     107   14879    4032+
+           5827    5430    4033    4035
CTETRA      2376       1   14683   14685   14686     281   14873   14869+
+          14872    6599    2332    2331
CTETRA      2377       1   13711   13733     281     282   14398    2337+
+           6790    3738    6791    2335
CTETRA      2378       1   17308   12750   17309     268   12855   12854+
+          17341    4276    2263    6792
CTETRA      2379       1   17177   12744   12748     378   12826   12842+
+          12840    5180    2838    2840
CTETRA      2380       1   13710     282     293     294    2847    2395+
+           2387    2724    2399    2398
CTETRA      2381       1   13646   13727     294     107   14378    6056+
+           6793    5824    3737    4035
CTETRA      2382       1   14681   14682   14686     281   14849   14871+
+          14866    6061    3950    2331
CTETRA      2383       1   13711     281   13784     282    6790    6794+
+          14599    3738    2335    3739
CTETRA      2384       1   12916   12917   12926      60   13168   13211+
+          13212    5869    6795    5868
CTETRA      2385       1   13784     171   13785     282    6796    3022+
+          14595    3739    4015    6054
CTETRA      2386       1   14647   14681   14686     282   14864   14866+
+          14865    2396    4016    2334
CTETRA      2387       1   14681     281   14686     282    6061    2331+
+          14866    4016    2335    2334
CTETRA      2388       1   13629   13633   13632     137   14062   14063+
+          14055    2961    2965    1722
CTETRA      2389       1   13622   13629   13632     137   14056   14055+
+          14054    1721    2961    1722
CTETRA      2390       1   17251   12619     653     777   12679    4744+
+           6797    6798    5861    5863
CTETRA      2391       1   17277   14720   14710     388   14983   14985+
+          14945    6799    4142    4141
CTETRA      2392       1   12087   12093   12091     582   12227   12229+
+          12228    4248    6800    6801
CTETRA      2393       1   13621   13629   13622     388   14083   14056+
+          14086    4151    2960    2959
CTETRA      2394       1   12107     446     447     642    5111    4273+
+           3264    5554    5339    5105
CTETRA      2395       1   17250   12618   17251     908   12676   12678+
+          17272    6802    6803    6804
CTETRA      2396       1   12079   12105   12080     486   12271   12273+
+          12272    5058    5335    5059
CTETRA      2397       1   12884   12888   12889     484   13064   13061+
+          13065    6660    4174    3506
CTETRA      2398       1   12939     447     446     642    3258    4273+
+           3512    6805    5105    5339
CTETRA      2399       1   12166     485     100     484    3509    5530+
+           5529    4296    4295    4291
CTETRA      2400       1   12079   12161   12162     259   12482   12486+
+          12488    5060    2232    2231
CTETRA      2401       1   12888      73   12893     574    3162    3164+
+          13082    4173    4172    6806
CTETRA      2402       1   12887   12889   12888     484   13059   13061+
+          13060    3507    3506    4174
CTETRA      2403       1   12948   12949   12955     447   13285   13311+
+          13312    3257    4429    4695
CTETRA      2404       1   12947     446     486     642    3514    5333+
+           3516    6807    5339    5338
CTETRA      2405       1   12939     446   12947     642    3512    3514+
+          13278    6805    5339    6807
CTETRA      2406       1   17148   12075   17149     573   12193   12393+
+          17165    4165    4167    4845
CTETRA      2407       1   17103   12604   12603     607   12723   12634+
+          12726    6808    4412    6809
CTETRA      2408       1   12948     447   12955     446    3257    4695+
+          13312    3513    4273    4696
CTETRA      2409       1   13553     218     221     296    2090    3614+
+           3619    6631    6633    6810
CTETRA      2410       1   17631     335     298      41    5907    5909+
+           5906    1348    5953    6811
CTETRA      2411       1   13564      40   13586      97    1654    2020+
+          13885    1655    1657    4106
CTETRA      2412       1   16703   16711      40      97   16798    2012+
+           1664    1662    1559    1657
CTETRA      2413       1   12114   12127     217      59   12365    3055+
+           4288    6812    6813    2823
CTETRA      2414       1   17810      37     871     842    2849    6814+
+           6546    6269    6271    6548
CTETRA      2415       1   12923     217   12924      59    6815    5193+
+          13195    1408    2823    4738
CTETRA      2416       1   13594     547      98     207    3994    6261+
+           3977    3388    6565    3376
CTETRA      2417       1   17253   12620   12621     375   12684   12686+
+          12685    6816    5888    2828
CTETRA      2418       1   14699   14701   14700     293   14904   14909+
+          14908    6375    3004    5802
CTETRA      2419       1   17253     375   12621     710    6816    2828+
+          12685    6817    5258    5257
CTETRA      2420       1   12922   12923   12928      58   13190   13206+
+          13207    2854    1407    1406
CTETRA      2421       1   17630   16703   17631      40   16778   16779+
+          17646    6818    1664    1347
CTETRA      2422       1   17630     452      40     453    3281    6763+
+           6818    3282    3284    6819
CTETRA      2423       1   17631   16710   17632     335   16792   16793+
+          17647    5907    4749    2554
CTETRA      2424       1   16723   16724     576     257   16859    4200+
+           6820    5231    4201    4202
CTETRA      2425       1   12602     757      35     758    5627    6453+
+           1343    5630    5629    6821
CTETRA      2426       1   16719      89      90     344    1519    1549+
+           1534    4824    6504    4668
CTETRA      2427       1   17103     606   12604     607    6822    4407+
+          12723    6808    4413    4412
CTETRA      2428       1   17234   12602   12603     686   12629   12631+
+          12630    5103    5078    6823
CTETRA      2429       1   13598   13600      90     576   13941    4804+
+           4665    4663    5879    4664
CTETRA      2430       1   17823      86      89     401    1536    1522+
+           5525    2956    2958    5524
CTETRA      2431       1   17104   12605   12604     606   12721   12637+
+          12724    6824    6825    4407
CTETRA      2432       1   12162     250     259     251    3249    3252+
+           2231    2234    2196    2235
CTETRA      2433       1   12956   12957     259     251   13316    5135+
+           6826    2195    6403    2235
CTETRA      2434       1   12744     749     251     750    5562    6827+
+           2227    5565    5564    6161
CTETRA      2435       1   17635   16723   17636     257   16858   16854+
+          17640    2221    5231    5230
CTETRA      2436       1   12170      99     251     101    2876    2264+
+           5048    2877    1572    2266
CTETRA      2437       1   13581      90   13600     576    4955    4804+
+          13944    4960    4664    5879
CTETRA      2438       1   16719      90   16723     576    1534    5228+
+          16877    6828    4664    6820
CTETRA      2439       1   14688   14705   14689     469   14920   14927+
+          14928    6829    6830    6578
CTETRA      2440       1   15853     132     876     877    6780    6781+
+           6589    6593    6783    6831
CTETRA      2441       1   14704   14707     459     469   14941    6832+
+           6577    6579    6833    3394
CTETRA      2442       1   13554     295     469     296    4533    6747+
+           6834    6835    2406    6836
CTETRA      2443       1   14697     218   14705     296    6837    6838+
+          14933    6839    6633    6840
CTETRA      2444       1   13554   13603     295     296   13970    6636+
+           4533    6835    2421    2406
CTETRA      2445       1   12744     101     272     909    2276    2278+
+           2277    6841    6842    6843
CTETRA      2446       1   13555   13611     317     295   13993    4099+
+           5038    4086    5016    5035
CTETRA      2447       1   17187   12733     271     203   12759    2274+
+           2273    6844    1993    6845
CTETRA      2448       1   17106     884   12607     887    6846    6663+
+          12717    6847    6672    6671
CTETRA      2449       1   13603     292   13611     295    2420    5017+
+          13994    6636    2403    5016
CTETRA      2450       1   17497   14696   14687     295   14890   14891+
+          14888    2402    6634    6848
CTETRA      2451       1   13618     430     460     639    3159    4644+
+           4094    4656    6849    6736
CTETRA      2452       1   13618     430   13642     460    3159    4092+
+          14160    4094    4644    6850
CTETRA      2453       1   14696   14697   14705     296   14887   14933+
+          14921    6635    6839    6840
CTETRA      2454       1   11896   11897     124     275   12025    6851+
+           6852    2291    2290    6853
CTETRA      2455       1   12120     153     216     217    6854    2070+
+           5758    4289    2074    2073
CTETRA      2456       1   14687   14688   14715     295   14922   14971+
+          14976    6848    6855    5033
CTETRA      2457       1   13554     469   13746     296    6834    6856+
+          14449    6835    6836    6632
CTETRA      2458       1   13750   13751   13771     359   14517   14546+
+          14548    6238    2787    3764
CTETRA      2459       1   17044     910     489     614    6857    6858+
+           6859    4435    6860    6861
CTETRA      2460       1   17506   14670   14662     482   14788   14789+
+          14753    6862    6863    6202
CTETRA      2461       1   17110     663   12611     846    6864    4806+
+          12709    6865    6298    6297
CTETRA      2462       1   17754     911   13792     912    6866    6867+
+          14639    6868    6869    6870
CTETRA      2463       1   17504   17505   14658      16   17508   14734+
+          14733    2694    1271    2811
CTETRA      2464       1   17503   14650      65     359   14731    3115+
+           2667    6871    3745    2722
CTETRA      2465       1   13772   13774   13777     273   14567   14569+
+          14568    2699    5109    2700
CTETRA      2466       1   17225   17226   12907     913   17232   13136+
+          13138    6872    6873    6874
CTETRA      2467       1   13772   13773   13774     273   14542   14559+
+          14567    2699    3915    5109
CTETRA      2468       1   13751      15   13761      16    6237    1261+
+          14509    2788    1270    3655
CTETRA      2469       1   17637      88      14      16    1516    3670+
+           3759    6219    5232    1266
CTETRA      2470       1   12114   12117   12120     217   12316   12327+
+          12326    4288    6514    4289
CTETRA      2471       1   13751   13752   13772      16   14510   14540+
+          14541    2788    1267    2789
CTETRA      2472       1   15033     365   15034     914    6875    6002+
+          15069    6876    6877    6878
CTETRA      2473       1   17562     365   15035     915    6879    5475+
+          15072    6880    6881    6882
CTETRA      2474       1   16053     355     365     197    2660    2753+
+           5982    2784    2783    5984
CTETRA      2475       1   16990   13705     916     917   14321    6883+
+           6884    6885    6886    6887
CTETRA      2476       1   15034     365     197     914    6002    5984+
+           6001    6878    6877    6888
CTETRA      2477       1   17695   16052   16045     365   16341   16342+
+          16318    6889    5983    6890
CTETRA      2478       1   17561   15035   15036     277   15073   15078+
+          15077    6891    5474    5464
CTETRA      2479       1   11695     793     791     795    5970    5972+
+           5963    5978    5988    5990
CTETRA      2480       1   17210     162   15040     161    3071    4510+
+          15096    6892    6893    1813
CTETRA      2481       1   17637      87      14      88    1515    2948+
+           3759    1516    1518    3670
CTETRA      2482       1   12931     558     436     816    4639    4638+
+           3899    6113    6894    6895
CTETRA      2483       1   17343   12932     162     918   13221    3134+
+           4509    6896    6897    6898
CTETRA      2484       1   12084     444     558     436    3244    4635+
+           4640    3245    3243    4638
CTETRA      2485       1   12932     162     918     919    3134    6898+
+           6897    6899    6900    6901
CTETRA      2486       1   12127      61     217      59    3131    5194+
+           3055    6813    1416    2823
CTETRA      2487       1   12929   12933   12930     436   13232   13229+
+          13233    3248    3195    3898
CTETRA      2488       1   13774      65     273     148    5110    2720+
+           5109    5389    2669    2302
CTETRA      2489       1   15857     611     609     612    4422    5585+
+           5583    4425    4424    6902
CTETRA      2490       1   17524   15304     286     287   15686    2353+
+           5685    6903    2354    2356
CTETRA      2491       1   15276   15286   15277     672   15622   15620+
+          15625    4916    6904    5740
CTETRA      2492       1   15285   15286     239     744   15621    6088+
+           6089    5588    6905    5508
CTETRA      2493       1   15277   15300   15308     744   15678   15707+
+          15706    6602    6603    5720
CTETRA      2494       1   11679   11688   11687      50   11700   11699+
+          11697    1378    5392    1388
CTETRA      2495       1   15300   15308     744     616   15707    5720+
+           6603    4856    4858    5722
CTETRA      2496       1   17853   11789     320     368   11844    2498+
+           6906    6907    2773    2775
CTETRA      2497       1   17282   17283   12870     195   17289   12977+
+          12974    6554    1962    4973
CTETRA      2498       1   15278     608     353     744    5690    5727+
+           6616    6339    5589    5730
CTETRA      2499       1   17071   11777     387     920   11859    2892+
+           5657    6908    6909    6910
CTETRA      2500       1   15278   15285   15280     608   15615   15613+
+          15596    5690    5587    4415
CTETRA      2501       1   15981   16007     609     744   16173    5593+
+           5575    5578    6338    5579
CTETRA      2502       1   17354   13756   13754      13   14477   14474+
+          14472    6454    1618    1252
CTETRA      2503       1   15855     134     286     848    4072    2352+
+           2649    6315    6911    6912
CTETRA      2504       1   13632   13633   13634     137   14063   14069+
+          14071    1722    2965    2942
CTETRA      2505       1   12084     444   12094     558    3244    6913+
+          12233    4640    4635    6321
CTETRA      2506       1   12931     815     558     816    6110    6914+
+           4639    6113    6112    6894
CTETRA      2507       1   15039     558     436     439    6099    4638+
+           3210    3212    6362    3213
CTETRA      2508       1   17342   12925     159     646   13197    6915+
+           2570    6916    4702    6917
CTETRA      2509       1   17731     456   16602     457    6264    3301+
+          16684    6918    3305    3304
CTETRA      2510       1   17209   17210   15040     161   17214   15096+
+          15097    1812    6892    1813
CTETRA      2511       1   17143     390     137     676    6106    2905+
+           6919    4987    6107    6920
CTETRA      2512       1   17276     390     558     766    2904    6310+
+           6334    5703    5705    6921
CTETRA      2513       1   12959     216     126     153    2075    5245+
+           6163    2076    2070    6435
CTETRA      2514       1   12121     126     216     153    6922    5245+
+           6923    6924    6435    2070
CTETRA      2515       1   17026     347   11871     348    2623    6925+
+          11923    2624    2626    2920
CTETRA      2516       1   12117     153   12120     217    6926    6854+
+          12327    6514    2074    4289
CTETRA      2517       1   17453   15739   15740     748   15801   15803+
+          15802    6927    5551    6928
CTETRA      2518       1   12911     153     159     217    6501    1806+
+           6494    6929    2074    3057
CTETRA      2519       1   12127   12128      61      59   12369    3132+
+           3131    6813    6615    1416
CTETRA      2520       1   12082      61   12128      59    1413    3132+
+          12367    1414    1416    6615
CTETRA      2521       1   12119     216      37      58    5195    6268+
+           2841    2844    5196    2845
CTETRA      2522       1   12923      58     217      59    1407    2820+
+           6815    1408    1410    2823
CTETRA      2523       1   13581     148      90     257    4956    2393+
+           4955    4961    4951    4962
CTETRA      2524       1   15267   15274   15272     327   15580   15582+
+          15573    4617    6782    2533
CTETRA      2525       1   12129   12143   12142     504   12417   12421+
+          12419    3831    6930    3832
CTETRA      2526       1   17358   13715   13737     543   14418   14420+
+          14419    6931    6932    4001
CTETRA      2527       1   13398     543     921     922    6933    6934+
+           6935    6936    6937    6938
CTETRA      2528       1   13397     628     544     923    4535    6939+
+           6390    6940    6941    6942
CTETRA      2529       1   17358   13399     543     924   13483    6708+
+           6931    6943    6944    6945
CTETRA      2530       1   17386   13398   13399     543   13487   13484+
+          13488    6946    6933    6708
CTETRA      2531       1   13389     223     224     897    2097    2101+
+           2100    6712    6714    6947
CTETRA      2532       1   13597   13598   13599      89   13938   13942+
+          13948    6948    6949    1548
CTETRA      2533       1   13399     544     543     924    6389    3940+
+           6708    6944    6950    6945
CTETRA      2534       1   16035   16054   16055     120   16357   16361+
+          16360    6538    6951    3712
CTETRA      2535       1   17245   12612   12613     662   12660   12662+
+          12661    6952    4800    4838
CTETRA      2536       1   13643     464   13644     461    4480    4705+
+          14180    6953    4709    4708
CTETRA      2537       1   12861   12887   12862     104   13053   13055+
+          13054    1582    4319    2607
CTETRA      2538       1   12136   12138   12137     620   12389   12392+
+          12391    6035    6954    6955
CTETRA      2539       1   13642   13748   13745     461   14461   14463+
+          14446    6956    3349    3331
CTETRA      2540       1   12157   12165   12158     484   12496   12495+
+          12497    4294    4290    4180
CTETRA      2541       1   12732     925     126     926    6957    6958+
+           1681    6959    6960    6961
CTETRA      2542       1   14689   14705   14704     469   14927   14929+
+          14924    6578    6830    6579
CTETRA      2543       1   13743     408   13748     461    5807    6412+
+          14467    6962    4710    3349
CTETRA      2544       1   14691   14703     408     459   14910    6963+
+           6964    3340    6965    6409
CTETRA      2545       1   13657   13669   13658     534   14171   14170+
+          14172    4043    3877    3876
CTETRA      2546       1   13741     459   13742     420    6966    6408+
+          14471    3080    6410    3081
CTETRA      2547       1   17495      25     315     927    5349    6967+
+           6968    6969    6970    6971
CTETRA      2548       1   13643   13743   13748     461   14465   14467+
+          14462    6953    6962    3349
CTETRA      2549       1   17021   11897   17022     356   12021   12023+
+          17034    2670    2672    4206
CTETRA      2550       1   13741   13747   13742     459   14460   14470+
+          14471    6966    6597    6408
CTETRA      2551       1   17112   17113   12613     631   17132   12706+
+          12705    6972    6973    4547
CTETRA      2552       1   12079     446     486     259    5069    5333+
+           5058    5060    3253    5061
CTETRA      2553       1   14703   14707     408     459   14940    6974+
+           6963    6965    6832    6409
CTETRA      2554       1   12865   12877   12866     437   13019   13021+
+          13023    4336    3202    3201
CTETRA      2555       1   17318   12734   12731     127   12769   12768+
+          12765    3806    6975    3807
CTETRA      2556       1   12144      19     437      20    1278    3200+
+           3198    1280    1279    5176
CTETRA      2557       1   17363   13395   13394     490   13461   13463+
+          13462    3560    6976    3561
CTETRA      2558       1   12905   12907     502     928   13139    6977+
+           6978    6979    6980    6981
CTETRA      2559       1   12905     503     431     928    6982    4055+
+           3182    6979    6983    6984
CTETRA      2560       1   12865   12908   12910      19   13141   13150+
+          13148    5800    1486    1488
CTETRA      2561       1   12142     504     502     528    3832    3647+
+           4574    3834    3829    4577
CTETRA      2562       1   12155     431     437     503    3177    6433+
+           5799    4056    4055    5784
CTETRA      2563       1   17287     431     155     929    3190    3166+
+           3192    6985    6986    6987
CTETRA      2564       1   12148   12149   12155     503   12446   12469+
+          12468    5804    4054    4056
CTETRA      2565       1   12866     437     431     503    3201    6433+
+           4061    5793    5784    4055
CTETRA      2566       1   13659   13660   13673     533   14141   14197+
+          14196    3880    5460    6988
CTETRA      2567       1   12604   12605     253     606   12637    4449+
+           4404    4407    6825    4408
CTETRA      2568       1   13659     138   13660     533    5682    5461+
+          14141    3880    3867    5460
CTETRA      2569       1   13671     534   13672     226    6765    4588+
+          14186    6045    4583    4591
CTETRA      2570       1   13673   13695     533     178   14279    5438+
+           6988    6989    1906    5439
CTETRA      2571       1   13659     138     533     232    5682    3867+
+           3880    3433    3852    3870
CTETRA      2572       1   11884     192     178     193    2781    1955+
+           4876    4919    1959    1958
CTETRA      2573       1   13561   13606   13616      22   13984   14025+
+          14024    6358    1294    3913
CTETRA      2574       1   12921     632     526     573    4558    4556+
+           4561    4179    4844    4566
CTETRA      2575       1   16612     452   16613     841    6251    6257+
+          16639    6252    6254    6990
CTETRA      2576       1   16604     804     452     805    6027    6355+
+           6258    6030    6029    6991
CTETRA      2577       1   15204   15243   15246     197   15466   15480+
+          15478    2653    2655    5955
CTETRA      2578       1   17764   16912   16913     905   16946   16945+
+          16947    6770    6992    6993
CTETRA      2579       1   17629   16705     452      22   16776    3286+
+           3285    2053    6994    6259
CTETRA      2580       1   12962   12965   12963      36   13343   13345+
+          13344    1331    6995    1332
CTETRA      2581       1   12104   12108     129     127   12289    6996+
+           6997    6998    3816    1693
CTETRA      2582       1   17113   12614   12613     631   12703   12665+
+          12706    6973    6999    4547
CTETRA      2583       1   12963   12967   12964     127   13350   13352+
+          13351    1692    7000    1678
CTETRA      2584       1   12104     129      34     127    6997    1690+
+           7001    6998    1693    1689
CTETRA      2585       1   12103      34   12104      36    1351    7001+
+          12261    1353    1352    7002
CTETRA      2586       1   12734     129     127     930    7003    1693+
+           6975    7004    7005    7006
CTETRA      2587       1   12618     526     759     760    5053    7007+
+           5639    5642    7008    5643
CTETRA      2588       1   13681     236     474     931    3441    4670+
+           3437    7009    7010    7011
CTETRA      2589       1   17813   11678   11687      54   11732   11696+
+          11733    3058    4316    3059
CTETRA      2590       1   17360   17361   13389     690   17367   13436+
+          13437    7012    5094    5096
CTETRA      2591       1   17185   12731     127     932   12752    3807+
+           3815    7013    7014    7015
CTETRA      2592       1   13719   13720   13722       7   14347   14357+
+          14356    1796    3597    7016
CTETRA      2593       1   15985   15997   15986     327   16139   16141+
+          16143    2683    2685    2697
CTETRA      2594       1   16029   16030      30      31   16271    1314+
+           6294    3822    1317    1316
CTETRA      2595       1   11790     402      78     933    2964    7017+
+           1481    7018    7019    7020
CTETRA      2596       1   15262     475     130      31    3436    3820+
+           1694    1696    3823    1697
CTETRA      2597       1   15264   15267     327      30   15569    4617+
+           2521    2519    4618    2520
CTETRA      2598       1   12617     934     632     935    7021    7022+
+           6534    7023    7024    7025
CTETRA      2599       1   13720     156      50       7    3603    6742+
+           3595    3597    1798    3598
CTETRA      2600       1   17040   15055   17912     936   15173   15172+
+          17041    7026    7027    7028
CTETRA      2601       1   11679      50     937     938    1378    7029+
+           7030    7031    7032    7033
CTETRA      2602       1   17854   11788   11789     368   11842   11816+
+          11843    7034    7035    2773
CTETRA      2603       1   17018   11872   11883     939   11929   11960+
+          11958    7036    7037    7038
CTETRA      2604       1   13688     474     694     763    5664    5681+
+           5679    5667    5666    7039
CTETRA      2605       1   15265   15271      30      31   15562    7040+
+           6571    6572    1698    1316
CTETRA      2606       1   17361   17362   13390     940   17368   13439+
+          13438    7041    7042    7043
CTETRA      2607       1   15268   15275     327     357   15588    6168+
+           6170    7044    4371    4598
CTETRA      2608       1   11681     593     941     942    4339    7045+
+           7046    7047    7048    7049
CTETRA      2609       1   15267      30   15271     495    4618    7040+
+          15570    4619    3843    3585
CTETRA      2610       1   16600   16609     398     943   16623    7050+
+           2936    7051    7052    7053
CTETRA      2611       1   17353   13404   13403      84   13512   13514+
+          13506    1506    1505    4569
CTETRA      2612       1   15986     357   16025     495    2686    2688+
+          16248    4599    4373    3845
CTETRA      2613       1   13752   13761   13755      10   14505   14504+
+          14500    1259    1264    1256
CTETRA      2614       1   15271      30     130     495    7040    3840+
+           1695    3585    3843    3586
CTETRA      2615       1   15290     245     405     212    2174    2989+
+           2978    2028    2172    2981
CTETRA      2616       1   15289     403   15291     405    5633    5620+
+          15640    5634    2988    5542
CTETRA      2617       1   15979   15980   16073     403   16183   16417+
+          16415    7054    2967    2966
CTETRA      2618       1   12741     647     477     754    4718    4730+
+           4729    5604    7055    5605
CTETRA      2619       1   15286   15287   15293     672   15623   15649+
+          15650    6904    4915    5752
CTETRA      2620       1   15735     672     812     813    6079    7056+
+           6083    6086    7057    6087
CTETRA      2621       1   15303   15304     134     286   15685    2351+
+           4078    6556    2353    2352
CTETRA      2622       1   15979   16073   16070     403   16415   16416+
+          16401    7054    2966    6273
CTETRA      2623       1   15986     327   15996     357    2697    6566+
+          16135    2686    4598    4920
CTETRA      2624       1   15984   15985   16030      30   16118   16268+
+          16269    1313    4622    1314
CTETRA      2625       1   15736   15737     403     269   15793    7058+
+           5365    2269    7059    7060
CTETRA      2626       1   17153      50     156       7    7061    6742+
+           3478    4334    3598    1798
CTETRA      2627       1   13552   13558   13553     221   13800   13968+
+          13969    2717    7062    3619
CTETRA      2628       1   14644     176     173     218    2707    3078+
+           2079    2081    2709    2082
CTETRA      2629       1   17307     177   12747     697    7063    1895+
+          12837    7064    5150    5149
CTETRA      2630       1   17500   14675     176      68   14821    3106+
+           3508    3529    2764    1886
CTETRA      2631       1   12901   12902     478     528   13111    3459+
+           3464    7065    4937    4792
CTETRA      2632       1   14647     293   14700     376    2394    5802+
+          14906    3016    3008    5801
CTETRA      2633       1   17497     298   17498     296    6055    7066+
+          17517    2405    2422    7067
CTETRA      2634       1   17499     221     218     296    3612    3614+
+           3613    7068    6810    6633
CTETRA      2635       1   14643   14644   14706     218   14827   14931+
+          14930    2708    2081    2083
CTETRA      2636       1   13740   13741     173     218   14459    2710+
+           3077    2091    2711    2082
CTETRA      2637       1   13553   13554   13746     296   13975   14449+
+          14451    6631    6835    6632
CTETRA      2638       1   17020     694   11880     903    5127    5129+
+          11986    7069    7070    6756
CTETRA      2639       1   17152   11879   11876      43   11948   11949+
+          11944    1375    6745    1394
CTETRA      2640       1   13558     298   13605     296    6641    6642+
+          13964    7071    2422    7072
CTETRA      2641       1   13741     218     469     361    2711    7073+
+           7074    2712    2714    7075
CTETRA      2642       1   17779   16729      46      48   16885    7076+
+           1366    1369    7077    1370
CTETRA      2643       1   14705     218   14706     469    6838    2083+
+          14934    6830    7073    7078
CTETRA      2644       1   17895   16612   17896     841   16665   16666+
+          17899    7079    6252    7080
CTETRA      2645       1   13603   13604   13613     292   13967   14008+
+          14007    2420    2410    2411
CTETRA      2646       1   13547      86   13582      88    1531    1524+
+          13857    3668    1517    4287
CTETRA      2647       1   13746     469     218     296    6856    7073+
+           6630    6632    6836    6633
CTETRA      2648       1   15722   15723     364     729   15751    5377+
+           5376    7081    5383    5385
CTETRA      2649       1   12145   12151   12147      19   12442   12450+
+          12448    4395    4613    3199
CTETRA      2650       1   17248     674   12616     944    6379    4970+
+          12670    7082    7083    7084
CTETRA      2651       1   13598      90      89     344    4665    1549+
+           6949    4666    4668    6504
CTETRA      2652       1   17502      66      69     143    1447    1446+
+           1445    1785    4930    1752
CTETRA      2653       1   17149   12075   12139     195   12393   12397+
+          12384    4846    4848    4982
CTETRA      2654       1   15999   16000   16021     131   16156   16235+
+          16236    1700    5310    6420
CTETRA      2655       1   17146     533     138     582    4266    3867+
+           7085    4247    4246    4245
CTETRA      2656       1   12885   12891   12888      73   13072   13073+
+          13066    1502    3163    3162
CTETRA      2657       1   17145   11885     140     178   11974    4885+
+           1745    1896    5839    1897
CTETRA      2658       1   13661     136     140     138    1725    1735+
+           1734    1726    1728    1747
CTETRA      2659       1   17431     945   14723     946    7086    7087+
+          14997    7088    7089    7090
CTETRA      2660       1   16050   16053   16052     197   16349   16346+
+          16347    1966    2784    1967
CTETRA      2661       1   13666     480     138     231    6574    6570+
+           3851    3854    3470    3855
CTETRA      2662       1   17561   17562   15035     915   17568   15072+
+          15073    7091    6880    6882
CTETRA      2663       1   17278     138   17279     582    5826    3868+
+          17294    4258    4245    4244
CTETRA      2664       1   12615     620   12616     674    6015    4968+
+          12671    6380    4971    4970
CTETRA      2665       1   13660   13661     140     138   14138    1734+
+           7092    5461    1726    1747
CTETRA      2666       1   12926   12927   12929      61   13210   13230+
+          13231    5599    4737    3247
CTETRA      2667       1   12872   12875     198     194   13024    2223+
+           5175    7093    7094    1974
CTETRA      2668       1   12613     630      20     947    4546    4545+
+           4544    7095    7096    7097
CTETRA      2669       1   12613      20   12614     948    4544    7098+
+          12665    7099    7100    7101
CTETRA      2670       1   11880   11889   11881     694   11983   11985+
+          11984    5129    5128    5926
CTETRA      2671       1   12863   12897      17      18   13156    4651+
+           4794    4793    4652    1277
CTETRA      2672       1   12144   12146   12145      18   12427   12426+
+          12428    1281    1276    4809
CTETRA      2673       1   12863      20   12864      18    7102    4311+
+          12993    4793    1283    5832
CTETRA      2674       1   11872     192   11883     939    2779    4917+
+          11960    7037    7103    7038
CTETRA      2675       1   12864   12872   12865      19   12997   12999+
+          12998    4310    4309    5800
CTETRA      2676       1   16520      87      93     372    2807    7104+
+           1546    2814    7105    2815
CTETRA      2677       1   17823   17824      89      86   17826    6242+
+           5525    1536    7106    1522
CTETRA      2678       1   16079   16081     513     234   16455    3703+
+           4268    4229    3704    3706
CTETRA      2679       1   12100   12108   12104     127   12288   12289+
+          12253    3817    3816    6998
CTETRA      2680       1   16033     666   16081     234    5281    4833+
+          16458    6532    4835    3704
CTETRA      2681       1   15251   15260   15252     668   15527   15526+
+          15530    5154    6281    7107
CTETRA      2682       1   12857   12871   12858     632   12983   12985+
+          12984    4842    4963    4559
CTETRA      2683       1   17467   15726     949     950   15761    7108+
+           7109    7110    7111    7112
CTETRA      2684       1   17807     367     666     711    5261    5269+
+           5271    5262    5264    7113
CTETRA      2685       1   14651     170     517     169    1850    3750+
+           3749    1851    1853    5133
CTETRA      2686       1   13713     168     283     427    3493    3920+
+           3116    3119    3495    3120
CTETRA      2687       1   15250   15261   15251     475   15531   15529+
+          15532    3434    5834    6486
CTETRA      2688       1   17807   15741     666     951   15808    6696+
+           5271    7114    7115    7116
CTETRA      2689       1   16055     118   16057     120    3574    1644+
+          16368    3712    1648    1647
CTETRA      2690       1   13755   13756   13757     113   14476   14482+
+          14479    4557    1617    1623
CTETRA      2691       1   17934   17639     514     515   17645    3720+
+           7117    7118    3721    3723
CTETRA      2692       1   17506      10      13      11    1246    1255+
+           4936    1248    1247    6475
CTETRA      2693       1   15272   15274   15273     327   15582   15583+
+          15579    2533    6782    6167
CTETRA      2694       1   17444   17445   13406     248   17449   13534+
+          13533    5547    2186    2188
CTETRA      2695       1   16046   16047     355     364   16330    2659+
+           2759    2762    7119    2748
CTETRA      2696       1   15251     668   15299     499    5154    5156+
+          15676    6485    6278    6487
CTETRA      2697       1   17667     952   15865     953    7120    7121+
+          15946    7122    7123    7124
CTETRA      2698       1   15204     118     119     197    2664    1645+
+           2651    2653    5956    2654
CTETRA      2699       1   16054     118   16055     120    2751    3574+
+          16361    6951    1648    3712
CTETRA      2700       1   15210   15215     118     492   15358    2663+
+           7125    5792    3568    3569
CTETRA      2701       1   17634     340     257     703    2581    2583+
+           2220    5213    6076    5224
CTETRA      2702       1   17233   12602   17234     685   12627   12629+
+          17255    7126    5076    5102
CTETRA      2703       1   15225     117     312     116    3664    3666+
+           2738    1632    7127    2741
CTETRA      2704       1   16719     576   16728     344    6828    4214+
+          16880    4824    4667    4825
CTETRA      2705       1   13596     256     576     345    4203    4199+
+           4205    2619    6174    7128
CTETRA      2706       1   17144   12085   12094     390   12230   12232+
+          12235    7129    6317    6322
CTETRA      2707       1   13596     576   13598     344    4205    4663+
+          13933    2616    4667    4666
CTETRA      2708       1   17209   12117   12113     159   12310   12314+
+          12312    1811    6513    1817
CTETRA      2709       1   12857     632     573     195    4842    4844+
+           4843    4984    4975    4847
CTETRA      2710       1   13596     576     344     345    4205    4667+
+           2616    2619    7128    2620
CTETRA      2711       1   12965   12966   12967     129   13347   13354+
+          13353    2055    5197    2056
CTETRA      2712       1   16728     344     576     345    4825    4667+
+           4214    6014    2620    7128
CTETRA      2713       1   16602     121     122     457    3303    1665+
+           4109    3304    3306    7130
CTETRA      2714       1   13595     576     256     257    4204    4199+
+           2213    2216    4202    2217
CTETRA      2715       1   16511   16520      87      86   16552    2807+
+           2806    1538    1537    1514
CTETRA      2716       1   13562   13570   13597      89   13826   13937+
+          13935    5873    6505    6948
CTETRA      2717       1   17787     344   16718     603    4391    4383+
+          16833    7131    4386    4385
CTETRA      2718       1   16718   16728   16727     345   16879   16874+
+          16878    4384    6014    2637
CTETRA      2719       1   17731   16602   16601      81   16684   16630+
+          16687    7132    7133    1493
CTETRA      2720       1   12156   12157   12188     485   12505   12586+
+          12588    5496    4293    6655
CTETRA      2721       1   12179   12187      75      76   12583    1467+
+           6115    6440    1471    1470
CTETRA      2722       1   12152   12154   12153     198   12462   12463+
+          12459    1970    2206    2205
CTETRA      2723       1   13570   13598   13597      89   13934   13938+
+          13937    6505    6949    6948
CTETRA      2724       1   12891     509   12892     429    4900    7134+
+          13077    4901    3695    7135
CTETRA      2725       1   17787   16699   16718     344   16763   16835+
+          16833    4391    4390    4383
CTETRA      2726       1   17114     179   12615     802    1899    1901+
+          12701    7136    6021    6020
CTETRA      2727       1   12952   12954     251     101   13305    6402+
+           2194    2265    7137    2266
CTETRA      2728       1   16719      89      86      90    1519    1522+
+           1521    1534    1549    1527
CTETRA      2729       1   17103   17104   12604     606   17126   12724+
+          12723    6822    6824    4407
CTETRA      2730       1   11872   11884   11883     192   11964   11965+
+          11960    2779    2781    4917
CTETRA      2731       1   13598   13599      89      90   13942    1548+
+           6949    4665    1528    1549
CTETRA      2732       1   17280   14693   17281     556   14943   14876+
+          17296    6370    6369    4573
CTETRA      2733       1   16016     475   16017      31    6568    7138+
+          16232    7139    3823    1324
CTETRA      2734       1   17019   11601   11600     193   11617   11620+
+          11622    5238    7140    7141
CTETRA      2735       1   16601   16602   16610     122   16630   16629+
+          16627    7142    4109    3782
CTETRA      2736       1   17710   16508   17711      92   16588   16587+
+          17721    4859    1543    1542
CTETRA      2737       1   11880   11881   11898     474   11984   12030+
+          12029    5652    5919    3444
CTETRA      2738       1   11788     321   11789     368    7143    2500+
+          11816    7035    2774    2773
CTETRA      2739       1   11884   11885   11888     178   11962   11982+
+          11990    4876    5839    5939
CTETRA      2740       1   15730      33     851     850    7144    7145+
+           6346    6345    7146    6348
CTETRA      2741       1   15266   15983      33      31    7147    1322+
+           3811    3814    1323    1325
CTETRA      2742       1   15730   15731      33     767   15775    6426+
+           7144    5715    5714    6428
CTETRA      2743       1   15261   15265   15266      31   15542   15546+
+          15544    3813    6572    3814
CTETRA      2744       1   16512     714   16513     902    7148    5292+
+          16522    6755    7149    7150
CTETRA      2745       1   17631   16035     120     538   16278    6538+
+           6637    5785    5787    3907
CTETRA      2746       1   15986   15997   15996     327   16141   16142+
+          16135    2697    2685    6566
CTETRA      2747       1   16035   16054     120     538   16357    6951+
+           6538    5787    4855    3907
CTETRA      2748       1   17506      12      11     954    1249    1251+
+           1248    7151    7152    7153
CTETRA      2749       1   17498     120   15213     538    3906    2758+
+          15345    3908    3907    5791
CTETRA      2750       1   16055   16056   16057     118   16365   16369+
+          16368    3574    2750    1644
CTETRA      2751       1   13560   13561   13616     452   13822   14024+
+          14019    6263    6357    6356
CTETRA      2752       1   11776   11785   11784     140   11803   11802+
+          11800    7154    1908    6324
CTETRA      2753       1   17238   12606     825     955   12641    6145+
+           7155    7156    7157    7158
CTETRA      2754       1   16996   13688     694     763   14235    5679+
+           5678    7159    5667    7039
CTETRA      2755       1   17113     956   12614     957    7160    7161+
+          12703    7162    7163    7164
CTETRA      2756       1   16507   16516     379     708   16536    2856+
+           7165    5249    6265    7166
CTETRA      2757       1   17144     831     832     958    7167    6211+
+           7168    7169    7170    7171
CTETRA      2758       1   16506   16507   16516     959   16537   16536+
+          16535    7172    7173    7174
CTETRA      2759       1   16996   11601   11599     694   11614   11613+
+          11612    5678    6081    6080
CTETRA      2760       1   11784     140     960     961    6324    7175+
+           7176    7177    7178    7179
CTETRA      2761       1   17144     136   17145     140    1741    1740+
+          17160    3537    1735    1745
CTETRA      2762       1   17629     452     214      22    3285    3280+
+           2050    2053    6259    2054
CTETRA      2763       1   13607      24      27     796    6526    1306+
+           6525    5981    7180    7181
CTETRA      2764       1   17399   15046   15048      27   15127   15131+
+          15130    7182    7183    7184
CTETRA      2765       1   16606   16615   16614      27   16648   16647+
+          16645    6515    7185    6521
CTETRA      2766       1   17936      27   17628      24    7186    7187+
+          17652    7188    1306    1290
CTETRA      2767       1   13681   13682   13699     236   14241   14291+
+          14293    3441    2141    3442
CTETRA      2768       1   16605   16606      27     803   16646    6515+
+           7189    6025    6024    7190
CTETRA      2769       1   17936   15048   15046      27   15138   15131+
+          15137    7186    7184    7183
CTETRA      2770       1   17183   12735   12736     640   12774   12780+
+          12778    7191    7192    4684
CTETRA      2771       1   13716   13729   13730      62   14393   14395+
+          14390    4328    4327    1429
CTETRA      2772       1   12940   12942   12941     641   13258   13257+
+          13259    4676    7193    4677
CTETRA      2773       1   12078     447   12107     446    4272    3264+
+          12275    4270    4273    5111
CTETRA      2774       1   16995   13688   16996     763   14239   14235+
+          17002    7194    5667    7159
CTETRA      2775       1   12955   12956   12958     259   13314   13323+
+          13320    5064    6826    5065
CTETRA      2776       1   16508   16509      84      92   16545    2377+
+           4473    1543    4860    4472
CTETRA      2777       1   12079   12107   12105     446   12274   12277+
+          12271    5069    5111    5337
CTETRA      2778       1   12940   12947   12942     641   13277   13275+
+          13258    4676    7195    7193
CTETRA      2779       1   12939   12962   12970     642   13340   13369+
+          13368    6805    5914    6401
CTETRA      2780       1   12939   12970     447     642   13368    6452+
+           3258    6805    6401    5105
CTETRA      2781       1   17874   16516   16517     380   16569   16538+
+          16570    6529    2859    3335
CTETRA      2782       1   12106      36   12111     641    7196    5201+
+          12300    4679    5329    7197
CTETRA      2783       1   12104   12109      36     129   12292    5202+
+           7002    6997    5188    7198
CTETRA      2784       1   17840   17841   11688     730   17843   11736+
+          11737    7199    7200    5390
CTETRA      2785       1   12911   12912     153     217   13202    2071+
+           6501    6929    2072    2074
CTETRA      2786       1   12733     126     153     324    2507    6435+
+           6434    2509    2508    7201
CTETRA      2787       1   16993     962   13653     963    7202    7203+
+          14119    7204    7205    7206
CTETRA      2788       1   12961   12969      34      37   13365    1327+
+           3886    6160    1336    1335
CTETRA      2789       1   17840   11688   11689     731   11737   11703+
+          11738    7207    5393    7208
CTETRA      2790       1   17221     153   12733     203    1788    6434+
+          12762    1992    6436    1993
CTETRA      2791       1   17841   11687   11688      53   11735   11699+
+          11736    7209    1389    7210
CTETRA      2792       1   13653   13654   13691     410   14129   14243+
+          14242    7211    7212    3028
CTETRA      2793       1   17221   12733     153     200   12762    6434+
+           1788    1980    1979    2267
CTETRA      2794       1   12732   12733     126     271   12760    2507+
+           1681    2275    2274    7213
CTETRA      2795       1   17931   15036   17573     512   15079   15080+
+          17574    5780    7214    5781
CTETRA      2796       1   12907     502     964     913    6977    7215+
+           7216    6874    7217    7218
CTETRA      2797       1   17922   17389   13390     687   17390   13442+
+          13464    7219    5088    5083
CTETRA      2798       1   13650   13651      50      43   14253    7220+
+           7221    3044    7222    1377
CTETRA      2799       1   12913      58     216     217    2853    5196+
+           4313    4315    2820    2073
CTETRA      2800       1   17936   15048      27      24   15138    7184+
+           7186    7188    7223    1306
CTETRA      2801       1   17400   13614      21     965   14015    1285+
+           1284    7224    7225    7226
CTETRA      2802       1   17814   11678      54      44   11730    4316+
+           4325    5928    1362    4317
CTETRA      2803       1   17495     536      25     927    3895    5350+
+           5349    6969    7227    6970
CTETRA      2804       1   11680   11689   11688      50   11704   11703+
+          11701    7228    6728    5392
CTETRA      2805       1   17054   11680   11679     966   11768   11702+
+          11771    7229    7230    7231
CTETRA      2806       1   17628   17629      23      22   17651    2052+
+           1289    1287    2053    1288
CTETRA      2807       1   17837   11690   11691     637   11742   11711+
+          11743    7232    4623    4625
CTETRA      2808       1   13615      25      22      24    1298    2476+
+           1293    1296    1300    1291
CTETRA      2809       1   17154       7     497     967    1240    3592+
+           3591    7233    7234    7235
CTETRA      2810       1   12878     477     478     479    7236    3457+
+           5601    5602    5603    3462
CTETRA      2811       1   12899   12903   12902     479   13118   13121+
+          13109    5768    3461    3460
CTETRA      2812       1   13387     504     502     968    7237    3647+
+           7238    7239    7240    7241
CTETRA      2813       1   17342   12925   12911     159   13197   13199+
+          13200    2570    6915    6494
CTETRA      2814       1   17853   17854   11789     368   17868   11843+
+          11844    6907    7034    2773
CTETRA      2815       1   17094     504   13387     968    7242    7237+
+          13427    7243    7240    7239
CTETRA      2816       1   17144     969     309     958    7244    7245+
+           7246    7169    7247    7248
CTETRA      2817       1   17227   13387   13388     504   13424   13429+
+          13428    7249    7237    7250
CTETRA      2818       1   17227   12899     504     970   13092    3827+
+           7249    7251    7252    7253
CTETRA      2819       1   17094   13388     504     971   13432    7250+
+           7242    7254    7255    7256
CTETRA      2820       1   13388     479     504     971    4947    5767+
+           7250    7255    7257    7256
CTETRA      2821       1   11889     193     694     706    5239    5673+
+           5128    5242    5241    5841
CTETRA      2822       1   15210     538   15213     972    5370    5791+
+          15362    7258    7259    7260
CTETRA      2823       1   13684     110     193     973    1605    7261+
+           5835    7262    7263    7264
CTETRA      2824       1   17933   15036   17694     737   15082   15081+
+          17701    7265    5467    5466
CTETRA      2825       1   12093   12094   12095     142   12244   12240+
+          12243    7266    7267    7268
CTETRA      2826       1   16032   16033     234     235   16314    6532+
+           4228    3699    3727    2139
CTETRA      2827       1   16035   16036   16054     538   16281   16356+
+          16357    5787    4853    4855
CTETRA      2828       1   17074   11775   11774     832   11866   11797+
+          11865    6459    6212    7269
CTETRA      2829       1   12117     159     153     217    6513    1806+
+           6926    6514    3057    2074
CTETRA      2830       1   17498   15207   17499     424   15311   15310+
+          17515    5837    5432    5431
CTETRA      2831       1   17498   15207     424     538   15311    5432+
+           5837    3908    5434    5836
CTETRA      2832       1   13753   13755   13757     113   14480   14479+
+          14481    1622    4557    1623
CTETRA      2833       1   17709   16510   16509     280   16583   16549+
+          16586    2328    2330    5160
CTETRA      2834       1   17497   17498     298     120   17517    7066+
+           6055    3901    3906    2423
CTETRA      2835       1   17630   17631   16035     120   17646   16278+
+          16279    5895    6637    6538
CTETRA      2836       1   16031     512     277     235    3697    7270+
+           2312    3698    3700    3710
CTETRA      2837       1   11783     310     309     441    3217    2461+
+           7271    3218    3220    7272
CTETRA      2838       1   17052     974   11681     593    7273    7274+
+          11767    4338    7275    4339
CTETRA      2839       1   17143     137     311     676    6919    7276+
+           2463    4987    6920    4988
CTETRA      2840       1   17169   12742   12740     719   12808   12807+
+          12804    7277    5325    6090
CTETRA      2841       1   17916   17143   11869     310   17155   11913+
+          11912    4992    2462    7278
CTETRA      2842       1   17143     310     309     882    2462    2461+
+           2460    6652    6654    7279
CTETRA      2843       1   17913   13395   13393     975   13467   13460+
+          13466    7280    7281    7282
CTETRA      2844       1   17836     522   11692     524    7283    3794+
+          11745    7284    3798    3797
CTETRA      2845       1   13624   13631   13630     309   14048   14051+
+          14043    5818    5254    5253
CTETRA      2846       1   17757     344   13570     864    6511    6503+
+          13829    7285    6507    6506
CTETRA      2847       1   17758   17759   13572     664   17770   13835+
+          13834    4821    5711    4822
CTETRA      2848       1   17756   17757   13570     864   17768   13829+
+          13825    7286    7285    6506
CTETRA      2849       1   17789     976     977     978    7287    7288+
+           7289    7290    7291    7292
CTETRA      2850       1   17759   17760   13573     549   17771   13838+
+          13837    7293    3974    3976
CTETRA      2851       1   16728     576     256     345    4214    4199+
+           4213    6014    7128    6174
CTETRA      2852       1   13766   13783   13782     173   14590   14608+
+          14582    3019    3066    1869
CTETRA      2853       1   17789   16702     979     978   16764    7294+
+           7295    7290    7296    7297
CTETRA      2854       1   13560     452   13616     214    6263    6356+
+          14019    7298    3280    3912
CTETRA      2855       1   17731   16601   17732      81   16687   16686+
+          17742    7132    1493    1492
CTETRA      2856       1   17892   16609     904     980   16659    7299+
+           7300    7301    7302    7303
CTETRA      2857       1   13700     225     229     226    2121    2124+
+           2123    4190    2105    6042
CTETRA      2858       1   17279   17280   12918     583   17295   13164+
+          13163    4281    4865    4282
CTETRA      2859       1   17781   16912   16909     122   16938   16940+
+          16936    7304    3875    3874
CTETRA      2860       1   17148   17149   11899     229   17165   12034+
+          12028    3419    3451    3420
CTETRA      2861       1   16711      96      40      97    1558    2007+
+           2012    1559    1561    1657
CTETRA      2862       1   13658     533   13672     534    3881    4590+
+          14184    3876    4589    4588
CTETRA      2863       1   17146   17147   11888     178   17161   11977+
+          11980    5463    5442    5939
CTETRA      2864       1   17781     122   16714     399    7304    7305+
+          16803    7306    7307    2938
CTETRA      2865       1   12616     632   12617     868    4969    6534+
+          12674    7308    6536    6535
CTETRA      2866       1   13679   13697   13695     227   14286   14287+
+          14274    4183    2120    2113
CTETRA      2867       1   16515     189      70     370    1939    7309+
+           7310    2796    2795    7311
CTETRA      2868       1   16514     306     981     982    7312    7313+
+           7314    7315    7316    7317
CTETRA      2869       1   17021   11880     983     903   11987    7318+
+           7319    7320    6756    7321
CTETRA      2870       1   17351      71      42      72    1457    1946+
+           1944    1458    1460    7322
CTETRA      2871       1   17760   17761   13574     598   17772   13841+
+          13840    7323    4356    4358
CTETRA      2872       1   16083     303   16089     747    2436    6393+
+          16496    6626    6384    6395
CTETRA      2873       1   16082   16085   16083     312   16463   16465+
+          16464    4090    2467    2466
CTETRA      2874       1   13669     232     230     233    2131    7324+
+           2127    2132    2134    7325
CTETRA      2875       1   16083   16084   16089     303   16471   16487+
+          16496    2436    4227    6393
CTETRA      2876       1   15234   15237   15240     235   15436   15447+
+          15446    3715    3716    2138
CTETRA      2877       1   13654      54   13691     410    7326    3030+
+          14243    7212    3029    3028
CTETRA      2878       1   15234   15240   15235     235   15446   15448+
+          15450    3715    2138    2777
CTETRA      2879       1   17813   11686   17814      54   11754   11755+
+          17816    3058    3033    4325
CTETRA      2880       1   11880     236     983     903    5653    7327+
+           7318    6756    6758    7321
CTETRA      2881       1   11880     236   11897     356    5653    7328+
+          12022    2671    7329    2672
CTETRA      2882       1   15239     234     666     367    2136    4835+
+           5265    5268    6531    5269
CTETRA      2883       1   13647   13648   13726     455   14272   14373+
+          14372    5415    3364    5416
CTETRA      2884       1   16038   16041   16040     627   16290   16292+
+          16291    4527    4522    5683
CTETRA      2885       1   15206     627     538     984    5788    5790+
+           5433    7330    7331    7332
CTETRA      2886       1   15725     343     627     985    2609    5899+
+           5898    7333    7334    7335
CTETRA      2887       1   17601     343   15725     985    6581    2609+
+          15841    7336    7334    7333
CTETRA      2888       1   17051   11683   11682     986   11762   11714+
+          11765    7337    7338    7339
CTETRA      2889       1   15301     131     353     134    1706    4442+
+           4076    1708    1707    2644
CTETRA      2890       1   13721      50     156      49    4341    6742+
+           5764    5765    1373    4333
CTETRA      2891       1   16005     131   16006     353    5304    6419+
+          16163    5305    4442    4074
CTETRA      2892       1   16011   16013     353     286   16200    7340+
+           2643    2646    6617    2647
CTETRA      2893       1   17922   17287     165     929   17293    1823+
+           7341    7342    6985    7343
CTETRA      2894       1   15278   15279   15303     286   15597   15680+
+          15679    7344    5686    6556
CTETRA      2895       1   16013     353     286     608    7340    2647+
+           6617    5684    5727    6311
CTETRA      2896       1   15987   16026   16025     357   16250   16253+
+          16247    2687    7345    2688
CTETRA      2897       1   17053   11681   11680       8   11766   11706+
+          11769    1940    7346    1941
CTETRA      2898       1   17578   13408   17579     473   13535   13536+
+          17583    4611    3423    3422
CTETRA      2899       1   17051   11682   17052     910   11765   11764+
+          17062    7347    7348    7349
CTETRA      2900       1   11690     262     987     988    3541    7350+
+           7351    7352    7353    7354
CTETRA      2901       1   11681     262   11690     942    3539    3541+
+          11708    7047    7355    7356
CTETRA      2902       1     571     489     614     615    4160    6861+
+           7357    7358    7359    4438
CTETRA      2903       1   15986   15996   15987     357   16135   16134+
+          16136    2686    4920    2687
CTETRA      2904       1   15985   16028   16030      30   16261   16270+
+          16268    4622    3841    1314
CTETRA      2905       1   15996     357     327     276    4920    4598+
+           6566    4922    6295    6169
CTETRA      2906       1   17052   11682   11681     489   11764   11710+
+          11767    7360    3535    3534
CTETRA      2907       1   17052     910   11682     489    7349    7348+
+          11764    7360    6858    3535
CTETRA      2908       1   17277   17278   12935     142   17298   13238+
+          13239    2945    2946    6439
CTETRA      2909       1   17505      14     276     507    2799    2798+
+           2797    4933    3660    4925
CTETRA      2910       1   13659   13673   13672     533   14196   14198+
+          14187    3880    6988    4590
CTETRA      2911       1   17824   16503   16512      89   16555   16521+
+          16558    6242    6241    7361
CTETRA      2912       1   11778     192     989     990    7362    7363+
+           7364    7365    7366    7367
CTETRA      2913       1   17282   14694   17283     107   14878   14881+
+          17289    4063    5430    1594
CTETRA      2914       1   15272     276     733     873    5403    5408+
+           5407    6560    7368    7369
CTETRA      2915       1   17637   17638   15996     276   17644   16137+
+          16138    2293    4923    4922
CTETRA      2916       1   15237   15241   15240     512   15456   15459+
+          15447    4831    3961    4832
CTETRA      2917       1   15202     724     367     725    5358    7370+
+           2771    5362    5364    7371
CTETRA      2918       1   12617   12618     526     759   12677    5053+
+           5052    7372    5639    7007
CTETRA      2919       1   17672   15869   15870     769   15967   15972+
+          15971    6318    5771    5773
CTETRA      2920       1   17278   14713   17279     231   14961   14962+
+          17294    3469    3362    7373
CTETRA      2921       1   12937     142     558     390    4646    4648+
+           4634    6335    7374    6310
CTETRA      2922       1   16999   13685   13652     789   14217   14209+
+          14113    7375    5936    7376
CTETRA      2923       1   17144     136     140     309    1741    1735+
+           3537    7246    2930    6326
CTETRA      2924       1   17671   15868   15869     734   15962   15968+
+          15966    7377    5423    5425
CTETRA      2925       1   16504   16514   16513     715   16527   16526+
+          16524    7378    7379    5294
CTETRA      2926       1   17146   11888   11885     178   11980   11982+
+          11981    5463    5939    5839
CTETRA      2927       1   11777   11778     192     991   11809    7362+
+           7380    7381    7382    7383
CTETRA      2928       1   15225   15227   15226     117   15397   15399+
+          15398    3664    3003    3665
CTETRA      2929       1   17182   17183   12736     992   17193   12778+
+          12779    7384    7385    7386
CTETRA      2930       1   16059   16067   16060     117   16398   16397+
+          16399    7387    1637    1636
CTETRA      2931       1   17599   15728   15727     213   15838   15766+
+          15837    2037    7388    2038
CTETRA      2932       1   12111      36     640     641    5201    5204+
+           5203    7197    5329    4678
CTETRA      2933       1   12119      34      37     216    1736    1335+
+           2841    5195    5246    6268
CTETRA      2934       1   17595   15731   17596     767   15829   15832+
+          17618    6620    5714    5713
CTETRA      2935       1   15728     328     993     994    2524    7389+
+           7390    7391    7392    7393
CTETRA      2936       1   15737   15738      91     413   15797    1541+
+           1540    3041    7394    7395
CTETRA      2937       1   16058   16068   16059     242   16404   16402+
+          16407    7396    2158    7397
CTETRA      2938       1   17105   12606   12605     618   12719   12640+
+          12722    7398    5897    4460
CTETRA      2939       1   12102      36   12106     642    5912    7196+
+          12282    5104    5913    4682
CTETRA      2940       1   17662   15860   15861     821   15919   15925+
+          15923    7399    7400    6130
CTETRA      2941       1   15222   15226   15227     117   15402   15399+
+          15403    6629    3665    3003
CTETRA      2942       1   16082     117     312     747    4091    3666+
+           4090    5538    5540    6385
CTETRA      2943       1   17105   17106   12606     995   17139   12720+
+          12719    7401    7402    7403
CTETRA      2944       1   14689   14717   14716     460   14967   14969+
+          14968    3390    4519    5166
CTETRA      2945       1   12103   12104   12109      36   12261   12292+
+          12290    1353    7002    5202
CTETRA      2946       1   13618     471   13639     639    3401    3400+
+          14105    4656    6737    4657
CTETRA      2947       1   17180   17181   12738     382   17198   12789+
+          12788    2879    7404    2867
CTETRA      2948       1   12109   12110   12111     640   12295   12299+
+          12298    5190    5192    5203
CTETRA      2949       1   13620   13640   13638     465   14100   14099+
+          14097    5354    5353    4171
CTETRA      2950       1   12120   12121     216     153   12339    6923+
+           5758    6854    6924    2070
CTETRA      2951       1   13712   13733   13731     283   14400   14409+
+          14403    2338    2340    6177
CTETRA      2952       1   13736   13738   13739     544   14441   14438+
+          14440    4596    4018    4010
CTETRA      2953       1   12106      36     641     642    7196    5329+
+           4679    4682    5913    4683
CTETRA      2954       1   14682   14683     281     283   14855    6599+
+           3950    3919    6600    2339
CTETRA      2955       1   12098   12118   12119      37   12332   12325+
+          12333    3884    5237    2841
CTETRA      2956       1   13734   13735   13739     428   14417   14439+
+          14436    3122    3554    3558
CTETRA      2957       1   12911   12912   12959     153   13202   13331+
+          13330    6501    2071    2076
CTETRA      2958       1   13390     163     940     996    5082    7405+
+           7043    7406    7407    7408
CTETRA      2959       1   12120   12121   12122     216   12339   12344+
+          12342    5758    6923    5763
CTETRA      2960       1   12964     126      34     127    1675    1686+
+           1699    1678    1677    1689
CTETRA      2961       1   13389     224   13397     923    2100    7409+
+          13472    7410    7411    6940
CTETRA      2962       1   14656   14665   14666     223   14759   14770+
+          14772    3549    3550    5086
CTETRA      2963       1   17388   13389   17389     224   13471   13441+
+          17391    7412    2100    2099
CTETRA      2964       1   12734     129     997     998    7003    7413+
+           7414    7415    7416    7417
CTETRA      2965       1   14655   14673   14684     102   14850   14852+
+          14851    5512    4715    4606
CTETRA      2966       1   17284     105     102      64    1608    1588+
+           1574    1420    7418    1576
CTETRA      2967       1   17432   14721     698     999   14996    5157+
+           7419    7420    7421    7422
CTETRA      2968       1   17386   14668   14672     543   14799   14804+
+          14802    6946    3937    7423
CTETRA      2969       1   12924   12925     162     159   13203    3133+
+           3136    7424    6915    1819
CTETRA      2970       1   13765   13766   13782     173   14533   14582+
+          14581    2765    3019    1869
CTETRA      2971       1   12916   12934     582     773   13236    5820+
+           7425    5871    5821    5823
CTETRA      2972       1   13741   13766   13765     173   14531   14533+
+          14532    2710    3019    2765
CTETRA      2973       1   12134   12135   12144      20   12386   12429+
+          12430    7426    4489    1280
CTETRA      2974       1   17116   12617   12616     935   12697   12674+
+          12700    7427    7023    7428
CTETRA      2975       1   13778   13779   13781     172   14574   14584+
+          14587    2309    1883    7429
CTETRA      2976       1   17362   13390     940     996   13439    7043+
+           7042    7430    7406    7408
CTETRA      2977       1   17910   13392   17366     568   13451   13450+
+          17370    4127    4129    7431
CTETRA      2978       1   17501   17502   14676      67   17512   14814+
+          14816    1452    1448    1453
CTETRA      2979       1   17634     360     186      69    4892    4242+
+           3379    3521    4243    3522
CTETRA      2980       1   17500     176   14643     222    3508    2706+
+          14819    2094    7432    2095
CTETRA      2981       1   16987   13392   17910     567   13449   13451+
+          16988    6493    4126    4125
CTETRA      2982       1   17109   17110   12610     808   17135   12712+
+          12711    7433    7434    6048
CTETRA      2983       1   17246   12613   12614     948   12663   12665+
+          12664    7435    7099    7101
CTETRA      2984       1   14691   14701   14692     464   14902   14901+
+          14903    7436    7437    7438
CTETRA      2985       1   17247   12614   12615    1000   12666   12668+
+          12667    7439    7440    7441
CTETRA      2986       1   13767   13768   13785     293   14528   14592+
+          14591    7442    2386    2385
CTETRA      2987       1   17282   12870   12857     195   12974   12976+
+          12975    6554    4973    4984
CTETRA      2988       1   14692   14712   14711     464   14955   14956+
+          14952    7438    5694    4704
CTETRA      2989       1   13643   13644   13743     461   14180   14466+
+          14465    6953    4708    6962
CTETRA      2990       1   17917   12741     479     754   12800    4945+
+           4944    7443    5604    5606
CTETRA      2991       1   14692   14699   14693     464   14893   14892+
+          14894    7438    7444    7445
CTETRA      2992       1   13644     408   13743     461    4707    5807+
+          14466    4708    4710    6962
CTETRA      2993       1   12740     477     828     829    4728    7446+
+           6190    6193    7447    6194
CTETRA      2994       1   13645   13669     556     230   14176    4597+
+           4023    2128    2127    7448
CTETRA      2995       1   13716   13721   13717     156   14348   14350+
+          14352    4329    5764    3600
CTETRA      2996       1   13731   13733   13732     283   14409   14408+
+          14410    6177    2340    6178
CTETRA      2997       1   17110   12611   12610     808   12709   12656+
+          12712    7434    7449    6048
CTETRA      2998       1   17284     105      64     823    1608    7418+
+           1420    6138    7450    6139
CTETRA      2999       1   17909   17026   11871     396   17039   11923+
+          11922    7451    2921    2923
CTETRA      3000       1   11883     192     790     939    4917    7452+
+           5942    7038    7103    7453
CTETRA      3001       1   17094   12143   12129     504   12415   12417+
+          12418    7242    6930    3831
CTETRA      3002       1   11883   11884   11890     193   11965   11992+
+          11996    4918    4919    5843
CTETRA      3003       1   11883   11890   11889     193   11996   11998+
+          11997    4918    5843    5239
CTETRA      3004       1   13678   13679   13695     227   14221   14274+
+          14273    4184    4183    2113
CTETRA      3005       1   12878   12882   12879     477   13029   13031+
+          13030    7236    5320    5317
CTETRA      3006       1   17358   13399   13398     543   13483   13484+
+          13477    6931    6708    6933
CTETRA      3007       1   13729   13734   13732     102   14415   14434+
+          14407    1833    1835    4731
CTETRA      3008       1   17091   17092   13386     633   17096   13417+
+          13415    7454    7455    4580
CTETRA      3009       1   17387   13399   13397     629   13489   13486+
+          13490    7456    6391    4538
CTETRA      3010       1   12614      20    1001    1002    7098    7457+
+           7458    7459    7460    7461
CTETRA      3011       1   12909      19     502     528    1487    4575+
+           3643    3837    3836    4577
CTETRA      3012       1   12885      75      73      74    1500    1503+
+           1502    1512    1468    1464
CTETRA      3013       1   17168     647   12741     754    4716    4718+
+          12797    7462    7055    5604
CTETRA      3014       1   11683     986     394     395    7338    7463+
+           2915    2917    7464    2918
CTETRA      3015       1   12158   12165   12160     574   12495   12493+
+          12476    5143    5145    7465
CTETRA      3016       1   17358     543   13398    1003    6931    6933+
+          13477    7466    7467    7468
CTETRA      3017       1   14669   14671   14672     543   14793   14800+
+          14803    7469    7470    7423
CTETRA      3018       1   12177   12179   12178     477   12553   12554+
+          12551    3454    3453    5221
CTETRA      3019       1   17359     544   13399     924    6703    6389+
+          13485    7471    6950    6944
CTETRA      3020       1   13714     481   13738     544    7472    4602+
+          14430    4003    3939    4018
CTETRA      3021       1   17385   13396   13398     922   13480   13479+
+          13482    7473    7474    6936
CTETRA      3022       1   12180   12189   12188      74   12591   12592+
+          12587    1463    6450    7475
CTETRA      3023       1   13396   13398     482    1004   13479    7476+
+           7477    7478    7479    7480
CTETRA      3024       1   17356    1005   13400    1006    7481    7482+
+          13492    7483    7484    7485
CTETRA      3025       1   12742     477     510     578    5324    5319+
+           4221    4224    6097    4225
CTETRA      3026       1   16991    1007    1008     859    7486    7487+
+           7488    6472    7489    7490
CTETRA      3027       1   12899     479     504     970    5768    5767+
+           3827    7252    7491    7253
CTETRA      3028       1   12609      79      74    1009    1483    1485+
+           1482    7492    7493    7494
CTETRA      3029       1   17570     442   13409     416    3634    3575+
+          13543    3050    3635    3633
CTETRA      3030       1   17920   12903   12899     479   13117   13118+
+          13093    5614    3461    5768
CTETRA      3031       1   17598   15729   15728      52   15836   15769+
+          15835    7495    1386    7496
CTETRA      3032       1   17917     479   13388     971    4944    4947+
+          13433    7497    7257    7255
CTETRA      3033       1   12081   12115      58      59   12374    2821+
+           7498    2824    2822    1410
CTETRA      3034       1   17917   12129   12177     479   12547   12548+
+          12545    4944    7499    4943
CTETRA      3035       1   12923   12927   12928      59   13204   13208+
+          13206    1408    4739    1409
CTETRA      3036       1   15729      51     326      52    1383    7500+
+           7501    1386    1385    7502
CTETRA      3037       1   12747     104     574     445    3237    4305+
+           4304    3240    3239    7503
CTETRA      3038       1   17307   12749   17308     588   12846   12847+
+          17340    4277    4279    6417
CTETRA      3039       1   17173   12159   12160     574   12473   12475+
+          12471    6165    5144    7465
CTETRA      3040       1   12746     219     220     695    2084    2088+
+           2087    7504    7505    5140
CTETRA      3041       1   12078   12162   12171     250   12489   12516+
+          12515    4269    3249    6444
CTETRA      3042       1   12162   12170   12171     250   12517   12519+
+          12516    3249    6143    6444
CTETRA      3043       1   12943   12945   12944     101   13267   13269+
+          13268    2597    2596    1571
CTETRA      3044       1   17176   12748   12750     265   12841   12853+
+          12851    2612    2860    2249
CTETRA      3045       1   12730     259     691     692    5044    6406+
+           5114    5117    7506    5118
CTETRA      3046       1   12867   12906   12905     431   13130   13133+
+          13127    3191    3173    3182
CTETRA      3047       1   17314     486   12737     644    5122    4689+
+          12784    7507    4693    4692
CTETRA      3048       1   13689   13699     124     215   14292    7508+
+           2065    2063    3324    2064
CTETRA      3049       1   11897   11901     124     236   12041    3310+
+           6851    7328    4673    2140
CTETRA      3050       1   16503   16512      89    1010   16521    7361+
+           6241    7509    7510    7511
CTETRA      3051       1   17151   17152   11876      49   17158   11944+
+          11945    1425    1372    3065
CTETRA      3052       1   13679   13684   13687     193   14220   14225+
+          14222    4185    5835    5674
CTETRA      3053       1   12180   12183   12181      73   12561   12563+
+          12562    1461    3145    1462
CTETRA      3054       1   12610      76      74     807    1474    1472+
+           1473    6047    6046    7512
CTETRA      3055       1   12608    1011      74     883    7513    7514+
+           7515    7516    7517    7518
CTETRA      3056       1   13682   13683     124     123   14233    4660+
+           1670    1668    7519    1669
CTETRA      3057       1   17018   11883     790     939   11958    5942+
+           7520    7036    7038    7453
CTETRA      3058       1   17170   12743     510     511   12812    3688+
+           5312    6195    3689    3691
CTETRA      3059       1   12901   12904      75     478   13123    6446+
+           6445    3464    3465    7521
CTETRA      3060       1   11787     787     192    1012    5933    5932+
+           5930    7522    7523    7524
CTETRA      3061       1   15728     326   15729     329    2526    7501+
+          15769    2527    2529    7525
CTETRA      3062       1   17857   11785   11786     732   11836   11806+
+          11837    7526    7527    5398
CTETRA      3063       1   17069   11779     358     834   11855    2690+
+           7528    7529    6221    7530
CTETRA      3064       1   11778     358   11779     990    2691    2690+
+          11815    7365    7531    7532
CTETRA      3065       1   11778     989     192     991    7364    7363+
+           7362    7382    7533    7383
CTETRA      3066       1   12615     802     620    1000    6020    6022+
+           6015    7441    7534    7535
CTETRA      3067       1   17070   11778   17071     991   11857   11860+
+          17081    7536    7382    7537
CTETRA      3068       1   11691    1013   11692     522    7538    7539+
+          11715    7540    7541    3794
CTETRA      3069       1   11683   11684     350     986   11720    2631+
+           2630    7338    7542    7543
CTETRA      3070       1   17836   11691   11692     522   11744   11715+
+          11745    7283    7540    3794
CTETRA      3071       1   17107   17108   12608    1011   17141   12716+
+          12715    7544    7545    7513
CTETRA      3072       1   12880      76      75      74    6441    1470+
+           1510    1511    1472    1468
CTETRA      3073       1   12611      17      76     663    4805    4814+
+           4826    4806    4808    6296
CTETRA      3074       1   11692    1014   11693     524    7546    7547+
+          11717    3797    7548    7549
CTETRA      3075       1   13570   13598      89     344   13934    6949+
+           6505    6503    4666    6504
CTETRA      3076       1   16598      80   16607     210    1489    1491+
+          16616    7550    7551    2016
CTETRA      3077       1   12610   12611      76     808   12656    4826+
+           1474    6048    7449    6049
CTETRA      3078       1   17110   17111   12611     663   17136   12710+
+          12709    6864    7552    4806
CTETRA      3079       1   17829   16606   17939    1015   16675   16677+
+          17830    7553    7554    7555
CTETRA      3080       1   12140   12141   12146      17   12408   12424+
+          12425    4818    1274    1273
CTETRA      3081       1   17024   11895    1016     659   12010    7556+
+           7557    7558    4781    7559
CTETRA      3082       1   12605     618     253    1017    4460    4462+
+           4449    7560    7561    7562
CTETRA      3083       1   11883     192     193     790    4917    1959+
+           4918    5942    7452    5943
CTETRA      3084       1   17829    1018    1015      32    7563    7564+
+           7553    1318    7565    7566
CTETRA      3085       1   15730     853      33     850    6353    7567+
+           7144    6345    7568    7146
CTETRA      3086       1   17183   12110   17184     997   12297   12296+
+          17191    7569    7570    7571
CTETRA      3087       1   16999     788   13685     789    7572    5934+
+          14217    7375    5937    5936
CTETRA      3088       1   17532   15281    1019    1020   15598    7573+
+           7574    7575    7576    7577
CTETRA      3089       1   17314   12942   12946     486   13254   13273+
+          13272    5122    5557    3515
CTETRA      3090       1   11787   11788     836    1021   11812    6231+
+           6723    7578    7579    7580
CTETRA      3091       1   17828   16615   17829    1022   16673   16674+
+          17831    7581    7582    7583
CTETRA      3092       1   12965     129      36     640    2055    7198+
+           6995    5198    5191    5204
CTETRA      3093       1   16606   16615      27     866   16648    7185+
+           6515    6518    7584    6519
CTETRA      3094       1   17465   15728   15729     329   15767   15769+
+          15768    7585    2527    7525
CTETRA      3095       1   17733   16600   16599     397   16688   16624+
+          16691    7586    2933    2927
CTETRA      3096       1   12940   12941   12965     640   13259   13342+
+          13341    4675    4674    5198
CTETRA      3097       1   17780   16729    1023    1024   16884    7587+
+           7588    7589    7590    7591
CTETRA      3098       1   17763   17764   13578    1025   17774   13827+
+          13847    7592    7593    7594
CTETRA      3099       1   16600      82   16601     943    7595    1496+
+          16628    7051    7596    7597
CTETRA      3100       1   17874     772   16517     771    7598    5814+
+          16570    5812    5816    5813
CTETRA      3101       1   17352     380     462     463    3344    3338+
+           7599    3345    3347    7600
CTETRA      3102       1   12736     641     640     702    4685    4678+
+           4684    5210    7601    5211
CTETRA      3103       1   17527     752   15284    1026    7602    5571+
+          15612    7603    7604    7605
CTETRA      3104       1   17876   16515      42     370   16566    1357+
+           7606    7607    2796    7608
CTETRA      3105       1   15232     114     112    1027    1628    1627+
+           1625    7609    7610    7611
CTETRA      3106       1   15232     260     114    1027    2239    2238+
+           1628    7609    7612    7610
CTETRA      3107       1   17301   12740   17302     820   12795   12796+
+          17329    7613    6124    6128
CTETRA      3108       1   13686     192     761     762    4912    7614+
+           5659    5662    5846    5663
CTETRA      3109       1   15863   15864     112     407   15943    2999+
+           7615    7616    3000    3002
CTETRA      3110       1   16004     744     672     616    6644    5509+
+           6643    5725    5722    5721
CTETRA      3111       1   12886     509      75     510    7617    3684+
+           1501    6114    3687    5219
CTETRA      3112       1   15999     131   16021     499    1700    6420+
+          16236    6484    6421    3774
CTETRA      3113       1   15298   15299   15302     132   15674   15704+
+          15697    1711    6431    1712
CTETRA      3114       1   17655   16010   16002     133   16188   16190+
+          16148    7618    7619    6430
CTETRA      3115       1   15275     276     357     507    4932    6295+
+           4371    4372    4925    4349
CTETRA      3116       1   12743     550     509     575    3980    6183+
+           3686    4195    4194    7620
CTETRA      3117       1   17532   15200   17533    1028   15600   15426+
+          17550    7621    7622    7623
CTETRA      3118       1   17920   13388   17218     479   13430   13431+
+          17220    5614    4947    4946
CTETRA      3119       1   17225   12907   12905     928   13138   13139+
+          13135    7624    6980    6979
CTETRA      3120       1   17639   16026   15987     357   16249   16250+
+          16133    4361    7345    2687
CTETRA      3121       1   17533   15232   17534     114   15424   15425+
+          17544    2997    1628    2236
CTETRA      3122       1   17093   17094   13387     968   17095   13427+
+          13426    7625    7243    7239
CTETRA      3123       1   17168   12741   17917     754   12797   12800+
+          17204    7462    5604    7443
CTETRA      3124       1   12178   12179   12182     477   12554   12584+
+          12577    5221    3453    5222
CTETRA      3125       1   15268   15269   15275     357   15566   15589+
+          15588    7044    6462    4371
CTETRA      3126       1   17443   13407   13383     600   13528   13526+
+          13527    7626    4369    4368
CTETRA      3127       1   17638   15987   15996     507   16132   16134+
+          16137    4924    4377    4921
CTETRA      3128       1   17170     510   12742     719    5312    4221+
+          12817    7627    5326    5325
CTETRA      3129       1   15268     357     327     495    7044    4598+
+           6170    6171    4373    4600
CTETRA      3130       1   17533   15200    1029    1028   15426    7628+
+           7629    7623    7622    7630
CTETRA      3131       1   16029      30     130      31    6294    3840+
+           2681    3822    1316    1697
CTETRA      3132       1   17280   14693     556     232   14943    6369+
+           6370    5692    7631    6372
CTETRA      3133       1   17638     113   17639     507    2358    2371+
+          17643    4924    3659    4362
CTETRA      3134       1   17813     410      54    1030    5275    3029+
+           3058    7632    7633    7634
CTETRA      3135       1   13682   13683   13689     124   14233   14245+
+          14246    1670    4660    2065
CTETRA      3136       1   17248   12616   17249     944   12670   12672+
+          17270    7082    7084    7635
CTETRA      3137       1   17246     948   12614    1002    7435    7101+
+          12664    7636    7637    7459
CTETRA      3138       1   15272     327     276     873    2533    6169+
+           5403    6560    6562    7368
CTETRA      3139       1   17055   11679   11678      45   11770   11698+
+          11772    7638    1380    1363
CTETRA      3140       1   17639     290   16696     291    2373    7639+
+          16747    2374    2376    7640
CTETRA      3141       1   15984   15992   15985      30   16117   16119+
+          16118    1313    2530    4622
CTETRA      3142       1   17149     472     573     195    3406    4585+
+           4845    4846    6555    4847
CTETRA      3143       1   17638   17639   15987     507   17643   16133+
+          16132    4924    4362    4377
CTETRA      3144       1   17521     874   15306     875    7641    6582+
+          15696    7642    6586    6585
CTETRA      3145       1   17246   12614   17247    1031   12664   12666+
+          17268    7643    7644    7645
CTETRA      3146       1   13650   13690   13692      43   14252   14251+
+          14250    3044    2036    5517
CTETRA      3147       1   15291     405     242     111    5542    2990+
+           5616    5544    2992    2159
CTETRA      3148       1   15197   15221   15198     242   15379   15400+
+          15401    6622    7646    2993
CTETRA      3149       1   17634   16707     256     184   16821    4212+
+           2580    3380    3385    2589
CTETRA      3150       1   17589   15738   15737     413   15818   15797+
+          15817    3040    7394    3041
CTETRA      3151       1   17281   17282   12857     195   17297   12975+
+          13175    4983    6554    4984
CTETRA      3152       1   16699   16719   16718     344   16839   16840+
+          16835    4390    4824    4383
CTETRA      3153       1   12142   12143   12151     502   12421   12443+
+          12441    4574    3654    3637
CTETRA      3154       1   17588   15738   17589     562   15815   15818+
+          17611    7647    4102    7648
CTETRA      3155       1   15736     403   15737     141    5365    7058+
+          15793    1738    6275    1739
CTETRA      3156       1   16071   16072   16076     405   16423   16428+
+          16430    2987    4136    4133
CTETRA      3157       1   17588   15739   15738    1032   15816   15800+
+          15815    7649    7650    7651
CTETRA      3158       1   15729     326      51     879    7501    7500+
+           1383    6613    7652    6645
CTETRA      3159       1   15284   15296   15295     238   15660   15662+
+          15664    5756    7653    2146
CTETRA      3160       1   16072   16074     406     212   16425    5635+
+           4137    2171    7654    2982
CTETRA      3161       1   17876   17877   16514     981   17885   16564+
+          16565    7655    7656    7314
CTETRA      3162       1   12896   12899   12902     528   13098   13109+
+          13108    3828    3830    4937
CTETRA      3163       1   12890   12892   12891     509   13076   13077+
+          13075    7657    7134    4900
CTETRA      3164       1   17303   12742   12743     510   12806   12818+
+          12816    4222    4221    3688
CTETRA      3165       1   15284   15285   15296     609   15614   15659+
+          15660    5566    5586    5760
CTETRA      3166       1   15734     721     672     670    5341    6078+
+           5743    4898    5342    7658
CTETRA      3167       1   17302   12742   17303     578   12805   12806+
+          17331    7659    4224    4223
CTETRA      3168       1   15736     672     403     139    5367    5366+
+           5365    1731    7660    6276
CTETRA      3169       1   12886      73      75     509    1504    1503+
+           1501    7617    3685    3684
CTETRA      3170       1   15286     672     239     744    6904    5505+
+           6088    6905    5509    5508
CTETRA      3171       1   15285     239     609     744    6089    5576+
+           5586    5588    5508    5579
CTETRA      3172       1   15300   15301   15309     616   15682   15713+
+          15711    4856    4443    4857
CTETRA      3173       1   13614      24      21     965    1299    7661+
+           1285    7225    7662    7226
CTETRA      3174       1   15981   16063   16064     239   16384   16388+
+          16390    5577    7663    5493
CTETRA      3175       1   12884   12885   12888      73   13046   13066+
+          13064    7664    1502    3162
CTETRA      3176       1   17458     672   15276    1033    4914    4916+
+          15630    7665    7666    7667
CTETRA      3177       1   12183   12184   12185     509   12565   12572+
+          12571    3692    3693    4902
CTETRA      3178       1   12159     695     574    1034    6423    5141+
+           5144    7668    7669    7670
CTETRA      3179       1   17305   12893   12892     429   13091   13081+
+          13079    5731    5736    7135
CTETRA      3180       1   12750     268     265    1035    2263    3504+
+           2249    7671    7672    7673
CTETRA      3181       1   15300   15303   15301     353   15681   15683+
+          15682    5285    4077    4076
CTETRA      3182       1   13614      25      24     965    1297    1300+
+           1299    7225    7674    7662
CTETRA      3183       1   16004     353   16008     744    5724    5726+
+          16184    6644    5730    5729
CTETRA      3184       1   15736     269     403     270    2269    7060+
+           5365    2272    2271    5368
CTETRA      3185       1   12159   12184   12183     429   12564   12565+
+          12560    5142    3694    3148
CTETRA      3186       1   15276   15287   15286     672   15624   15623+
+          15622    4916    4915    6904
CTETRA      3187       1   17172     429   12159     695    5723    5142+
+          12474    6422    5139    6423
CTETRA      3188       1   12129   12130   12177     479   12420   12549+
+          12548    7499    4942    4943
CTETRA      3189       1   13717   13718   13734     163   14345   14416+
+          14414    3601    5074    1832
CTETRA      3190       1   12901      75      76     478    6445    1470+
+           4810    3464    7521    5610
CTETRA      3191       1   17529   15295   15292     241   15655   15653+
+          15645    7675    2155    7676
CTETRA      3192       1   15289   15294   15293     245   15648   15652+
+          15651    2983    2173    6129
CTETRA      3193       1   15287   15289   15293     403   15632   15651+
+          15649    7677    5633    5753
CTETRA      3194       1   15989   15995   15993     147   16129   16131+
+          16130    1779    2296    7678
CTETRA      3195       1   15254   15255   15264     326   15506   15549+
+          15550    2550    7679    2513
CTETRA      3196       1   15264   15265      30     326   15548    6571+
+           2519    2513    2515    2522
CTETRA      3197       1   16032   16081   16079     234   16457   16455+
+          16451    4228    3704    4229
CTETRA      3198       1   17093     502   13385    1036    3653    7680+
+          13422    7681    7682    7683
CTETRA      3199       1   15036     512     277     737    7214    7270+
+           5464    5467    7684    5468
CTETRA      3200       1   17931   15241   15237     512   15455   15456+
+          15431    5780    3961    4831
CTETRA      3201       1   15731      33     668     765    6426    6280+
+           4879    5700    7685    7686
CTETRA      3202       1   15239     234     367     235    2136    6531+
+           5268    2137    2139    3729
CTETRA      3203       1   17054       8   11680     966    1942    1941+
+          11768    7229    7687    7230
CTETRA      3204       1   17665   15859   15864     228   15917   15938+
+          15936    2116    7688    2117
CTETRA      3205       1   17933   17672   15870     738   17693   15971+
+          15973    6530    6319    5471
CTETRA      3206       1   13573     547     351     549    3953    3957+
+           3956    3976    3975    7689
CTETRA      3207       1   17239     485   12859     634    7690    7691+
+          13038    4593    7692    7693
CTETRA      3208       1   15199   15281   15282     111   15602   15606+
+          15608    4095    7694    5543
CTETRA      3209       1   12918   12919     781    1037   13173    5885+
+           7695    7696    7697    7698
CTETRA      3210       1   16034   16091   16089     666   16500   16497+
+          16484    7699    6704    6394
CTETRA      3211       1   12601      37      38    1038    1338    1341+
+           1340    7700    7701    7702
CTETRA      3212       1   15281    1020     565    1039    7576    7703+
+           7704    7705    7706    7707
CTETRA      3213       1   15281     112    1039    1040    7708    7709+
+           7705    7710    7711    7712
CTETRA      3214       1   12913   12922   12914      37   13189   13188+
+          13192    2852    2851    6267
CTETRA      3215       1   17236   12605   17237     253   12636   12638+
+          17258    3254    4449    4448
CTETRA      3216       1   15217   15242     513     234   15460    4234+
+           5410    7713    3967    3706
CTETRA      3217       1   15199   15225   15200     112   15391   15393+
+          15392    4097    1631    1624
CTETRA      3218       1   12097   12100   12104     127   12249   12253+
+          12252    1688    3817    6998
CTETRA      3219       1   17233   12601   12602      38   12626   12628+
+          12627    7714    1340    1344
CTETRA      3220       1   17666   15864   15863     407   15937   15943+
+          15941    5555    3000    7616
CTETRA      3221       1   17573   15036   17933     512   15080   15082+
+          17575    5781    7214    4840
CTETRA      3222       1   15201   15212   15202     364   15330   15329+
+          15331    7715    7716    2746
CTETRA      3223       1   12913   12923      58     217   13191    1407+
+           2853    4315    6815    2820
CTETRA      3224       1   16060   16085   16082     312   16461   16463+
+          16459    4089    2467    4090
CTETRA      3225       1   12603   12604     447     607   12634    4406+
+           5099    6809    4412    4414
CTETRA      3226       1   15199   15281     111     112   15602    7694+
+           4095    4097    7708    1613
CTETRA      3227       1   17278     138     480     231    5826    6570+
+           3466    3469    3855    3470
CTETRA      3228       1   15225     112     117     116    1631    1638+
+           3664    1632    1634    7127
CTETRA      3229       1   17916   15037   17212     814   15086   15085+
+          17215    7717    7718    7719
CTETRA      3230       1   16062   16067   16066     112   16395   16396+
+          16393    4107    1612    7720
CTETRA      3231       1   15040     162     159     161    4510    1819+
+           1810    1813    6893    1814
CTETRA      3232       1   17561     277   15036    1041    6891    5464+
+          15077    7721    7722    7723
CTETRA      3233       1   17538   15216   17539     580   15370   15371+
+          17541    7724    4235    5775
CTETRA      3234       1   17145   12093   17146     582   12226   12225+
+          17162    6528    6800    4247
CTETRA      3235       1   17279     232     138     231    3869    3852+
+           3868    7373    2130    3855
CTETRA      3236       1   12094     558     142     390    6321    4648+
+           7267    6322    6310    7374
CTETRA      3237       1   13658   13659   13672     533   14149   14187+
+          14184    3881    3880    4590
CTETRA      3238       1   17143   12085   17144     390   12231   12230+
+          17167    6106    6317    7129
CTETRA      3239       1   12935   12936   12937     444   13245   13249+
+          13248    6438    7725    4636
CTETRA      3240       1   14721   14722   14726     166   14994   15011+
+          15012    1828    5004    1829
CTETRA      3241       1   17343   17344   12932     918   17348   13218+
+          13221    6896    7726    6897
CTETRA      3242       1   13628     388   13637     389    2896    5479+
+          14074    2897    2899    7727
CTETRA      3243       1   14708   14718   14717     430   14978   14979+
+          14966    4482    3153    4642
CTETRA      3244       1   13557   13635   13639     166   14082   14090+
+          14089    5000    5153    4500
CTETRA      3245       1   14716   14725   14722     471   15006   15007+
+          14991    4531    5168    5006
CTETRA      3246       1   15293   15294   15296     245   15652   15661+
+          15658    6129    2173    2175
CTETRA      3247       1   14717   14718   14725     430   14979   15005+
+          15004    4642    3153    4643
CTETRA      3248       1   12157   12166   12165     484   12500   12501+
+          12496    4294    4296    4290
CTETRA      3249       1   17179   12730   12745     258   12771   12822+
+          12820    7728    7729    2229
CTETRA      3250       1   13635   13641   13639     166   14103   14104+
+          14090    5153    4501    4500
CTETRA      3251       1   14718   14725     430     393   15005    4643+
+           3153    3155    6368    3156
CTETRA      3252       1   13642     460     430     461    6850    4644+
+           4092    6956    3333    4485
CTETRA      3253       1   15199   15227   15225     117   15394   15397+
+          15391    4096    3003    3664
CTETRA      3254       1   13771   13772   13777     359   14547   14568+
+          14578    3764    2701    2702
CTETRA      3255       1   14650     359   14659     517    3745    3767+
+          14738    3746    3748    3769
CTETRA      3256       1   14650     170      65     517    3096    2307+
+           3115    3746    3750    3747
CTETRA      3257       1   17105   12606    1042     995   12719    7730+
+           7731    7401    7403    7732
CTETRA      3258       1   17495   15205   17496      23   15351   15350+
+          17518    3681    3682    5015
CTETRA      3259       1   17502   17503   14650      65   17507   14731+
+          14732    2305    2667    3115
CTETRA      3260       1   13749   13750   13770     517   14520   14549+
+          14551    7733    3941    5131
CTETRA      3261       1   12859   12953   12950     255   13295   13296+
+          13281    7734    5532    4446
CTETRA      3262       1   13750     481     482     545    3483    3486+
+           3485    3942    3944    6188
CTETRA      3263       1   14657   14658   14661     517   14745   14755+
+          14751    3890    3768    3891
CTETRA      3264       1   17455   17456   15737      91   17478   15794+
+          15795    1539    7735    1540
CTETRA      3265       1   12173   12174   12176      99   12532   12541+
+          12538    4275    2875    2884
CTETRA      3266       1   13650   13721   13716      49   14349   14348+
+          14342    3043    5765    4332
CTETRA      3267       1   11689       7     175     899    1875    1878+
+           1877    6729    6731    7736
CTETRA      3268       1   17183     640   12736     643    7191    4684+
+          12778    7737    4687    4686
CTETRA      3269       1   17810   12621   17120     377   12688   12689+
+          12690    2835    2837    7738
CTETRA      3270       1   13722   13723   13724       7   14362   14365+
+          14366    7016    3599    7739
CTETRA      3271       1   12734   12735     129    1043   12775    7740+
+           7003    7741    7742    7743
CTETRA      3272       1   17587   15740   15739    1044   15814   15803+
+          15813    7744    7745    7746
CTETRA      3273       1   17276   14728   14720     388   15015   15016+
+          14984    5455    6732    4142
CTETRA      3274       1   12940      36   12962     642    5328    1331+
+          13339    7747    5913    5914
CTETRA      3275       1   12940   12965      36     640   13341    6995+
+           5328    4675    5198    5204
CTETRA      3276       1   12947     486     641     642    3516    4690+
+           7195    6807    5338    4683
CTETRA      3277       1   11680       7      50     966    7748    3598+
+           7228    7230    7749    7750
CTETRA      3278       1   13621   13622   13665     480   14086   14143+
+          14144    4152    6300    6309
CTETRA      3279       1   13622   13664   13665     136   14135   14145+
+          14143    1720    1724    6308
CTETRA      3280       1   13662   13666   13663     231   14154   14152+
+          14155    3476    3854    3879
CTETRA      3281       1   11788     818     817     837    6233    6120+
+           7751    6234    6236    7752
CTETRA      3282       1   17069   11779   17070     358   11855   11858+
+          17080    7528    2690    2689
CTETRA      3283       1   11779   11789   11788     321   11817   11816+
+          11814    7753    2500    7143
CTETRA      3284       1   17055   11679     937     938   11770    7030+
+           7754    7755    7031    7033
CTETRA      3285       1   11680   11681       7       8   11706    4335+
+           7748    1941    7346    1241
CTETRA      3286       1   11679   11680      50     966   11702    7228+
+           1378    7231    7230    7750
CTETRA      3287       1   17286     156     155     254    1837    1794+
+           1836    3221    3185    3181
CTETRA      3288       1   17153   11878      50       7   11942    7756+
+           7061    4334    3480    3598
CTETRA      3289       1   17911    1045   13627      83    7757    7758+
+          14033    1497    7759    1498
CTETRA      3290       1   13619   13667   13642     430   14158   14161+
+          14159    3158    4145    4092
CTETRA      3291       1   13390   13394     163     491   13458    4040+
+           5082    7760    3564    4042
CTETRA      3292       1   13383     357   13407     847    4367    4366+
+          13526    6776    6304    6303
CTETRA      3293       1   13386     503     633    1046    4578    4581+
+           4580    7761    7762    7763
CTETRA      3294       1   15268   15269     357     495   15566    6462+
+           7044    6171    7764    4373
CTETRA      3295       1   11679   11680   11688      50   11702   11701+
+          11700    1378    7228    5392
CTETRA      3296       1   17224   12906   17922     434   13132   13131+
+          17230    7765    3174    5915
CTETRA      3297       1   14663   14664   14668     544   14765   14784+
+          14785    7766    4007    3938
CTETRA      3298       1   17920     479   12899     970    5614    5768+
+          13093    7767    7491    7252
CTETRA      3299       1   17354   17355   13405    1047   17383   13510+
+          13515    7768    7769    7770
CTETRA      3300       1   14710     388     465     480    4141    4143+
+           3354    3474    4154    4153
CTETRA      3301       1   17284   12875   12869     194   13007   13009+
+          12973    1988    7094    4471
CTETRA      3302       1   12129     479     504     528    7499    5767+
+           3831    3833    4938    3829
CTETRA      3303       1   14725   14727   14726     393   15010   15014+
+          15013    6368    2912    4486
CTETRA      3304       1   17227     504   12895    1048    7249    3645+
+          13094    7771    7772    7773
CTETRA      3305       1   17225   12907     964     913   13138    7216+
+           7774    6872    6874    7218
CTETRA      3306       1   17092   13386     633    1046   13417    4580+
+           7455    7775    7761    7763
CTETRA      3307       1   17093   13387     502     968   13426    7238+
+           3653    7625    7239    7241
CTETRA      3308       1   17313   12738   17314     693   12792   12793+
+          17328    7776    5124    5123
CTETRA      3309       1   15200   15281     112    1019   15601    7708+
+           1624    7777    7573    7778
CTETRA      3310       1      60    1049    1050     753    7779    7780+
+           7781    5598    7782    7783
CTETRA      3311       1   12114   12115   12128      59   12330   12372+
+          12371    6812    2822    6615
CTETRA      3312       1   17152   17153   11879      50   17159   11946+
+          11948    1374    7061    6744
CTETRA      3313       1   13720   13721      50     156   14351    4341+
+           3595    3603    5764    6742
CTETRA      3314       1   13720   13723   13722       7   14361   14362+
+          14357    3597    3599    7016
CTETRA      3315       1   13728   13729   13732     102   14397   14407+
+          14406    1585    1833    4731
CTETRA      3316       1   17243   12611   17244     665   12655   12657+
+          17265    7784    4827    7785
CTETRA      3317       1   17245     947   12613    1051    7786    7095+
+          12661    7787    7788    7789
CTETRA      3318       1   17152   17153      50     156   17159    7061+
+           1374    6741    3478    6742
CTETRA      3319       1   13649   13650   13716      49   14264   14342+
+          14343    5769    3043    4332
CTETRA      3320       1   12896   12897   12910      18   13112   13154+
+          13153    7790    4652    5833
CTETRA      3321       1   12879      75   12904     477    5315    6446+
+          13122    5317    5316    7791
CTETRA      3322       1   17357   13396     476    1004   13478    3449+
+           7792    7793    7478    7794
CTETRA      3323       1   12131      76     478      17    4816    5610+
+           4788    4817    4814    5611
CTETRA      3324       1   12897   12901   12898      17   13105   13104+
+          13106    4651    4813    4812
CTETRA      3325       1   12614     948      20    1002    7101    7100+
+           7098    7459    7637    7460
CTETRA      3326       1   12152      20     437     198    1981    5176+
+           7795    1970    1982    3204
CTETRA      3327       1   12896   12910   12909      18   13153   13151+
+          13147    7790    5833    3838
CTETRA      3328       1   12134   12136   12137     194   12380   12391+
+          12385    5352    5351    7796
CTETRA      3329       1   17242      77   12610    1052    7797    1475+
+          12652    7798    7799    7800
CTETRA      3330       1   12873     194      20    1001    7801    1983+
+           7802    7803    7804    7457
CTETRA      3331       1   17284     198   12875     194    1987    2223+
+          13007    1988    1974    7094
CTETRA      3332       1   12872      20   12873     194    4312    7802+
+          12995    7093    1983    7801
CTETRA      3333       1   12864   12874   12872      20   12991   12994+
+          12997    4311    7805    4312
CTETRA      3334       1   12872   12874   12873      20   12994   12996+
+          12995    4312    7805    7802
CTETRA      3335       1   12147   12154   12152     437   12460   12462+
+          12453    3197    5798    7795
CTETRA      3336       1   17116   12618   12617     759   12698   12677+
+          12697    7806    5639    7372
CTETRA      3337       1   17172     429   12739     671    5723    4905+
+          12829    7807    4908    4907
CTETRA      3338       1   16507     741     707     709    5489    7808+
+           5247    5250    5491    5251
CTETRA      3339       1   17703   17704   16695     906   17706   16898+
+          16741    6777    6779    7809
CTETRA      3340       1   17878   17879   16512     902   17880   16560+
+          16561    7810    6753    6755
CTETRA      3341       1   12931     436   12932     816    3899    3194+
+          13219    6113    6895    7811
CTETRA      3342       1   12746     574   12747     177    6166    4304+
+          12838    1894    4306    1895
CTETRA      3343       1   12882   12890   12886     510   13070   13071+
+          13035    5314    5313    6114
CTETRA      3344       1   13637     422     740    1053    7812    7813+
+           5480    7814    7815    7816
CTETRA      3345       1   16603   16604     452     605   16638    6258+
+           4397    4399    7817    4400
CTETRA      3346       1   14710   14720   14719     465   14985   14987+
+          14986    3354    4144    3355
CTETRA      3347       1   14718   14727   14725     393   15008   15010+
+          15005    3155    2912    6368
CTETRA      3348       1   16601      82     122    1054    1496    7818+
+           7142    7819    7820    7821
CTETRA      3349       1   13558   13559     298     335   13813    5946+
+           6641    6012    5947    5909
CTETRA      3350       1   17173     574   12746    1034    6165    6166+
+          12835    7822    7670    7823
CTETRA      3351       1   14726   14727     150     393   15014    1873+
+           1826    4486    2912    2914
CTETRA      3352       1   17305     429   12746     220    5731    5732+
+          12830    2086    5136    2087
CTETRA      3353       1   17704   13403    1055    1056   13509    7824+
+           7825    7826    7827    7828
CTETRA      3354       1   16520      87      86      93    2807    1514+
+           1537    1546    7104    1547
CTETRA      3355       1   14719   14720   14729     465   14987   15021+
+          15019    3355    4144    5459
CTETRA      3356       1   13554   13744   13746     469   14444   14450+
+          14449    6834    6746    6856
CTETRA      3357       1   17497   15213   17498     120   15346   15345+
+          17517    3901    2758    3906
CTETRA      3358       1   17532   15281   15200    1019   15598   15601+
+          15600    7574    7573    7777
CTETRA      3359       1   17314   12737   17315     644   12784   12783+
+          17327    7507    4692    7829
CTETRA      3360       1   17896   16613   17897    1057   16667   16668+
+          17907    7830    7831    7832
CTETRA      3361       1   17631     424   16038     538    7833    4528+
+          16283    5785    5836    5786
CTETRA      3362       1   13553   13605   13554     296   13974   13973+
+          13975    6631    7072    6835
CTETRA      3363       1   15254     326     332     333    2550    7834+
+           2544    2546    7835    2547
CTETRA      3364       1   17823   16511   17824      86   16579   16580+
+          17826    1536    1538    7106
CTETRA      3365       1   14648   14685   14649     105   14859   14858+
+          14860    4632    4633    5495
CTETRA      3366       1   12737     486   12738     382    4689    5121+
+          12794    7836    7837    2867
CTETRA      3367       1   13776   13778      65      68   14573    2308+
+           1440    1438    3519    1439
CTETRA      3368       1   13621   13665   13662     480   14144   14153+
+          14150    4152    6309    6573
CTETRA      3369       1   13778   13780      65     170   14586    5108+
+           2308    2306    3945    2307
CTETRA      3370       1   17636   17637   15995     147   17642   16128+
+          16127    1778    2283    2296
CTETRA      3371       1   17115   17116   12616     872   17121   12700+
+          12699    7838    7839    6551
CTETRA      3372       1   13549   13581   13580     257   13864   13866+
+          13865    4958    4961    4959
CTETRA      3373       1   17181     720   12737    1058    7840    5330+
+          12787    7841    7842    7843
CTETRA      3374       1   17279   14712     232     231   14957    7844+
+           3869    7373    5695    2130
CTETRA      3375       1      25      23     214      22    2380    2051+
+           2379    2476    1288    2054
CTETRA      3376       1   17635     148   17636     143    4949    2301+
+          17640    1750    1768    1780
CTETRA      3377       1   17315     641   12736     702    7845    4685+
+          12782    7846    7601    5210
CTETRA      3378       1   16723   16724   16728     576   16859   16875+
+          16876    6820    4200    4214
CTETRA      3379       1   12951     250     255      99    2210    2209+
+           2208    2258    2260    5068
CTETRA      3380       1   12171     250     255     253    6444    2209+
+           4455    4458    2212    2211
CTETRA      3381       1   13566   13567   13592     335   13812   13906+
+          13904    6013    7847    3378
CTETRA      3382       1   17601   15724   17602     784   15844   15843+
+          17624    7848    5901    7849
CTETRA      3383       1   15256     673    1059     274    4940    7850+
+           7851    2284    4941    7852
CTETRA      3384       1   17238   12606   12607     825   12641   12643+
+          12642    7155    6145    7853
CTETRA      3385       1   12606     255    1042     995    5896    7854+
+           7730    7403    7855    7732
CTETRA      3386       1   12605     255   12606     617    4459    5896+
+          12640    4452    7856    5216
CTETRA      3387       1   16519      87   16520     288    2362    2807+
+          16550    2363    2365    3921
CTETRA      3388       1   12619     584      60     777    4253    7857+
+           4742    5861    7858    5862
CTETRA      3389       1   12083   12126   12128      61   12359   12368+
+          12366    3231    3130    3132
CTETRA      3390       1   17251   12618   12619     777   12678   12680+
+          12679    6798    7859    5861
CTETRA      3391       1   17877   16514     981     982   16564    7314+
+           7656    7860    7315    7317
CTETRA      3392       1   17824      89      86     284    6242    1522+
+           7106    2341    7861    7862
CTETRA      3393       1   13584   13590   13594     207   13912   13918+
+          13917    3978    2584    3388
CTETRA      3394       1   17502     148      66     143    2668    4950+
+           1447    1785    1768    4930
CTETRA      3395       1   17498   14697   14696     296   14885   14887+
+          14886    7067    6839    6635
CTETRA      3396       1   17117   12086   17118     584   12208   12221+
+          17124    4252    7863    5205
CTETRA      3397       1   17468    1060   15725    1061    7864    7865+
+          15758    7866    7867    7868
CTETRA      3398       1   12739   12743     509     575   12813    3686+
+           4906    7869    4195    7620
CTETRA      3399       1   17171   12739   12743     671   12815   12813+
+          12811    7870    4907    5718
CTETRA      3400       1   17147   17148     226     573   17164    2104+
+           2804    4849    4165    4587
CTETRA      3401       1   17303     510   12743     550    4222    3688+
+          12816    3979    6182    3980
CTETRA      3402       1   12950   12953   12951     255   13296   13302+
+          13293    4446    5532    2208
CTETRA      3403       1   13554   13605   13603     296   13973   13966+
+          13970    6835    7072    2421
CTETRA      3404       1   11880   11898   11897     236   12029   12031+
+          12022    5653    4669    7328
CTETRA      3405       1   12955     250     447     253    4403    4271+
+           4695    2202    2212    4405
CTETRA      3406       1   11892   11893   11896     410   12003   12019+
+          12043    3063    4777    7871
CTETRA      3407       1   11893     410    1062    1063    4777    7872+
+           7873    7874    7875    7876
CTETRA      3408       1   17023   11896   11893    1064   12020   12019+
+          12018    7877    7878    7879
CTETRA      3409       1   17499     218   14697     296    3613    6837+
+          14883    7068    6633    6839
CTETRA      3410       1   11781      78   11790    1065    1479    1481+
+          11822    7880    7881    7882
CTETRA      3411       1   17068   11781   11780     595   11854   11823+
+          11853    7883    7884    7885
CTETRA      3412       1   17015   11874   17016    1066   11927   11926+
+          17031    7886    7887    7888
CTETRA      3413       1   17016   11603   11604     278   11633   11635+
+          11637    2317    7889    7890
CTETRA      3414       1   13603   13605   13604     298   13966   13965+
+          13967    2419    6642    2416
CTETRA      3415       1   17068   11780   17069    1067   11853   11856+
+          17079    7891    7892    7893
CTETRA      3416       1   11777   11786   11785     181   11807   11806+
+          11804    2889    5396    1910
CTETRA      3417       1   13674   13675   13676     181   14195   14276+
+          14277    4873    4874    4867
CTETRA      3418       1   16990    1014     917    1068    7894    7895+
+           6885    7896    7897    7898
CTETRA      3419       1   17909   13392     567    1069   13448    4126+
+           6492    7899    7900    7901
CTETRA      3420       1   16613     849      22    1057    6340    6342+
+           6038    7831    7902    7903
CTETRA      3421       1   15034     914     197     553    6878    6888+
+           6001    3990    7904    7905
CTETRA      3422       1   14711   14712   14713     231   14956   14963+
+          14964    3361    5695    3362
CTETRA      3423       1   14709   14719   14718     430   14982   14981+
+          14980    4490    3154    3153
CTETRA      3424       1   17044   13392   17909    1069   13445   13448+
+          17046    7906    7900    7899
CTETRA      3425       1   13613   13615   13614      25   14020   14021+
+          14017    5042    1298    1297
CTETRA      3426       1   17025   11903   17026     451   12055   12056+
+          17038    7907    7908    7909
CTETRA      3427       1   17782   16909   16911      94   16935   16932+
+          16937    1551    4360    4359
CTETRA      3428       1   17782   17783   16715      95   17797   16811+
+          16814    1552    5996    1553
CTETRA      3429       1   14721   14723   14722     166   14993   14992+
+          14994    1828    7910    5004
CTETRA      3430       1   12084   12094   12085     558   12233   12232+
+          12234    4640    6321    4059
CTETRA      3431       1   16610     122     518     531    3782    3781+
+           3780    3861    7911    3862
CTETRA      3432       1   17818     826   17942    1070    6148    6150+
+          17822    7912    7913    7914
CTETRA      3433       1   16046   16047   16049     355   16330   16350+
+          16351    2759    2659    2661
CTETRA      3434       1   17779   16729      48    1023   16885    7077+
+           1369    7915    7587    7916
CTETRA      3435       1   17001   13627   17911    1045   14034   14033+
+          17008    7917    7758    7757
CTETRA      3436       1   17277   14710   17278     480   14945   14944+
+          17298    6330    3474    3466
CTETRA      3437       1   17829     866   16606    1015    7918    6518+
+          16675    7553    7919    7554
CTETRA      3438       1   17828   17944   16615    1071   17832   16672+
+          16673    7920    7921    7922
CTETRA      3439       1   17875   17876   16515      42   17884   16566+
+          16567    7923    7606    1357
CTETRA      3440       1   17398   13609     774    1072   13987    5851+
+           5850    7924    7925    7926
CTETRA      3441       1   17916   15056   15057     310   15190   15185+
+          15191    4992    4991    4999
CTETRA      3442       1   17924   12931   17345     815   13382   13220+
+          17350    7927    6110    6109
CTETRA      3443       1   17828    1022     774    1073    7581    7928+
+           7929    7930    7931    7932
CTETRA      3444       1   12741     479     648     649    4945    5608+
+           4719    4722    5615    4723
CTETRA      3445       1   17893   16610   17894     519   16661   16662+
+          17903    3793    3783    7933
CTETRA      3446       1   17733   16600     520     521   16688    3788+
+           7934    7935    3789    3791
CTETRA      3447       1   17000   13790   17001     817   14626   14627+
+          17007    6117    6116    7936
CTETRA      3448       1   11779   11780   11789     321   11819   11818+
+          11817    7753    7937    2500
CTETRA      3449       1   17144     832     969     958    7168    7938+
+           7244    7169    7171    7247
CTETRA      3450       1   13650   13692   13651      43   14250   14254+
+          14253    3044    5517    7222
CTETRA      3451       1   17941   11687   17841    1074   11734   11735+
+          17842    7939    7940    7941
CTETRA      3452       1   16504     715   16513     714    7378    5294+
+          16524    7942    5293    5292
CTETRA      3453       1   17789     206   16701    1075    3551    3552+
+          16760    7943    7944    7945
CTETRA      3454       1   17943   17871   16520      93   17883   16576+
+          16577    3761    2812    1546
CTETRA      3455       1   11897   11898   11901     236   12031   12039+
+          12041    7328    4669    4673
CTETRA      3456       1   17877   17878   16513     716   17889   16562+
+          16563    7946    7947    5295
CTETRA      3457       1   16991   13656   16992    1076   14120   14122+
+          17012    7948    7949    7950
CTETRA      3458       1   17813   17941   11695     791   17817   11752+
+          11753    7951    5961    5963
CTETRA      3459       1   16992   13656   13653    1076   14122   14123+
+          14118    7950    7949    7952
CTETRA      3460       1   17024   11895   17025    1016   12010   12009+
+          17037    7557    7556    7953
CTETRA      3461       1   17877   16513   16514     894   16563   16526+
+          16564    7954    6700    7955
CTETRA      3462       1   13689   13691   13690      55   14247   14248+
+          14249    2049    3031    2035
CTETRA      3463       1   16505   16506     204     205   16533    7956+
+           6688    7957    7958    1996
CTETRA      3464       1   16506      70   16515     189    7959    7310+
+          16532    1938    7309    1939
CTETRA      3465       1   13743   13768   13767     408   14525   14528+
+          14526    5807    6064    5808
CTETRA      3466       1   17876   16514   16515     370   16565   16530+
+          16566    7607    2794    2796
CTETRA      3467       1   11898   11900   11901     236   12036   12040+
+          12039    4669    4671    4673
CTETRA      3468       1   16079   16081   16080     513   16455   16456+
+          16453    4268    3703    7960
CTETRA      3469       1   16037   16048   16046     364   16333   16329+
+          16331    6483    7961    2762
CTETRA      3470       1   15247   15248     355     235   15489    2776+
+           2752    2755    2778    2756
CTETRA      3471       1   17433   14721     150     698   15025    1827+
+           1775    7962    5157    5159
CTETRA      3472       1   13660     138     140     178    5461    1747+
+           7092    5462    1898    1897
CTETRA      3473       1   17277     136     142     390    2943    1744+
+           2945    2906    2931    7374
CTETRA      3474       1   17147     573     534     583    4849    4586+
+           7963    4850    4568    6610
CTETRA      3475       1   17146   17147     533     583   17161    5443+
+           4266    4249    4850    4267
CTETRA      3476       1   13713     168   13769     283    3493    1844+
+          14552    3116    3920    4013
CTETRA      3477       1   17145   17146     138     582   17162    7085+
+           1746    6528    4247    4245
CTETRA      3478       1   16045   16052   16053     365   16342   16346+
+          16345    6890    5983    5982
CTETRA      3479       1   17787   16915   16918     344   16968   16967+
+          16969    4391    7964    7965
CTETRA      3480       1   13713   13731   13738     426   14405   14428+
+          14427    3118    3127    4017
CTETRA      3481       1   16006   16010   16011     134   16191   16195+
+          16194    4075    6558    2645
CTETRA      3482       1   15999   16006   16000     131   16154   16157+
+          16156    1700    6419    5310
CTETRA      3483       1   17654   17655   16002     559   17673   16148+
+          16147    7966    7967    7968
CTETRA      3484       1   12930   12937     444     436   13250    4636+
+           4655    3898    4637    3243
CTETRA      3485       1   17662     821   15861     822    7399    6130+
+          15923    7969    6134    6133
CTETRA      3486       1   15860     212   15861     821    7970    6132+
+          15925    7400    6131    6130
CTETRA      3487       1   13680   13688   13681     474   14236   14238+
+          14237    3751    5664    3437
CTETRA      3488       1   11898     467   11900     236    3446    3416+
+          12036    4669    3443    4671
CTETRA      3489       1   12897   12901      17     528   13105    4813+
+           4651    4649    7065    4650
CTETRA      3490       1   15298     133   15306     135    1713    6584+
+          15695    1715    1717    7971
CTETRA      3491       1   17023   11893    1062    1063   12018    7873+
+           7972    7973    7874    7876
CTETRA      3492       1   17653   15853     876     877   15879    6589+
+           6588    7974    6593    6831
CTETRA      3493       1   17655     133   16002    1077    7618    6430+
+          16148    7975    7976    7977
CTETRA      3494       1   12897   12902   12901     528   13110   13111+
+          13105    4649    4937    7065
CTETRA      3495       1   17932   13409     442     249   13542    3575+
+           6331    2191    2190    3576
CTETRA      3496       1   13682   13689   13699     124   14246   14292+
+          14291    1670    2065    7508
CTETRA      3497       1   17653   15852   17654    1078   15874   15873+
+          17674    7978    7979    7980
CTETRA      3498       1   13681   13699   13698     467   14293   14295+
+          14294    3438    3372    3439
CTETRA      3499       1   11896     124     410    1064    6852    4662+
+           7871    7878    7981    7982
CTETRA      3500       1   16993   13653   13683     410   14119   14229+
+          14228    7983    7211    4661
CTETRA      3501       1   16993     410   13683    1079    7983    4661+
+          14228    7984    7985    7986
CTETRA      3502       1   15854     133     134     542    7987    1710+
+           3932    3930    7988    3934
CTETRA      3503       1   17522   15306   15305     133   15698   15694+
+          15700    7989    6584    4079
CTETRA      3504       1   13681   13682     236     125   14241    2141+
+           3441    7990    1671    2142
CTETRA      3505       1   16995   13681     931    1080   14240    7009+
+           7991    7992    7993    7994
CTETRA      3506       1   17522   15854   15851     133   15889   15888+
+          15885    7989    7987    7995
CTETRA      3507       1   17503   15256   15253     147   15501   15498+
+          15496    1763    1786    2304
CTETRA      3508       1   13694     455     472     454    3365    3407+
+           5648    5651    3368    3410
CTETRA      3509       1   15255   15266   15264     326   15551   15547+
+          15549    7679    2514    2513
CTETRA      3510       1   15218   15238   15239     666   15452   15445+
+          15453    6388    7996    5265
CTETRA      3511       1   17599   15727   17600     144   15837   15840+
+          17622    1890    1932    1891
CTETRA      3512       1   17922   17287     164     165   17293    1822+
+           2109    7341    1823    1825
CTETRA      3513       1   14655   14664     428     426   14760    4019+
+           4534    5513    4005    3559
CTETRA      3514       1   15728   15729     326      52   15769    7501+
+           2526    7496    1386    7502
CTETRA      3515       1   17464   17465   15729     881   17484   15768+
+          15770    6646    7997    6647
CTETRA      3516       1   15726     183     144     950    2605    1917+
+           2040    7111    7998    7999
CTETRA      3517       1   16006   16010     134     133   16191    6558+
+           4075    6425    7619    1710
CTETRA      3518       1   13733     282     105     650    6791    4070+
+           1589    4725    8000    8001
CTETRA      3519       1   17655   15854   17656     542   15886   15887+
+          17676    8002    3930    3929
CTETRA      3520       1   11695     797     410     793    5985    8003+
+           4782    5970    5986    5971
CTETRA      3521       1   15271     130      30      31    1695    3840+
+           7040    1698    1697    1316
CTETRA      3522       1   15256   15259   15258     144   15508   15510+
+          15509    1947    1755    1948
CTETRA      3523       1   13548     273   13773      88    2675    3915+
+          14556    2388    2674    3671
CTETRA      3524       1   11789     320     322    1081    2498    2502+
+           2501    8004    8005    8006
CTETRA      3525       1   14655   14656   14673     428   14758   14813+
+          14850    4534    3547    4037
CTETRA      3526       1   12909   12910      19      18   13151    1488+
+           1487    3838    5833    1282
CTETRA      3527       1   14673     428     163     102    4037    3123+
+           4036    4715    4029    1834
CTETRA      3528       1   13717   13719   13718     163   14344   14340+
+          14345    3601    3602    5074
CTETRA      3529       1   17286     102     163     167    4714    1834+
+           1838    1841    5171    1842
CTETRA      3530       1   14647   14686   14648     282   14865   14868+
+          14870    2396    2334    2400
CTETRA      3531       1   17853     320   11789    1081    6906    2498+
+          11844    8007    8005    8004
CTETRA      3532       1   17912   11868   17015    1082   11906   11908+
+          17032    8008    8009    8010
CTETRA      3533       1   12876     254     437     198    3222    5794+
+           3203    2224    2207    3204
CTETRA      3534       1   17912   15055   17087    1083   15172   15169+
+          17088    8011    8012    8013
CTETRA      3535       1   13715     481     543     482    8014    3936+
+           6932    8015    3486    8016
CTETRA      3536       1   13717   13734   13729     163   14414   14415+
+          14394    3601    1832    1831
CTETRA      3537       1   17283   14649   17284     105   14880   14807+
+          17288    1596    5495    1608
CTETRA      3538       1   17152   12133   12153     198   12377   12458+
+          12456    4478    1971    2205
CTETRA      3539       1   17054   11679   17055     938   11771   11770+
+          17065    8017    7031    7755
CTETRA      3540       1   15217     513   15220     301    5410    4217+
+          15369    5747    4216    4215
CTETRA      3541       1   16051     119   16057     197    1651    1646+
+          16371    1968    2654    3972
CTETRA      3542       1   17694   15036   15035     277   15081   15078+
+          15076    5465    5464    5474
CTETRA      3543       1   13646   13727   13709     294   14378   14383+
+          14382    6793    6056    2723
CTETRA      3544       1   16033     666     234     367    5281    4835+
+           6532    3726    5269    6531
CTETRA      3545       1   13725     294   13727     105    2848    6056+
+          14375    1593    4071    5655
CTETRA      3546       1   13671   13672   13700     226   14186   14298+
+          14299    6045    4591    4190
CTETRA      3547       1   12868     194   12873     806    4469    7801+
+          13005    6031    6033    8018
CTETRA      3548       1   17561   15035     277     915   15073    5474+
+           6891    7091    6882    8019
CTETRA      3549       1   14649   14685   14674     105   14858   14861+
+          14806    5495    4633    4713
CTETRA      3550       1   17497   14687     292     295   14888    5040+
+           2404    2402    6848    2403
CTETRA      3551       1   16710   16711   16717      96   16799   16826+
+          16830    2008    1558    2031
CTETRA      3552       1   13669     232     556     230    2131    6372+
+           4597    2127    7324    7448
CTETRA      3553       1   13643   13667   13668     464   14165   14164+
+          14167    4480    4148    3351
CTETRA      3554       1   17279   14713   14712     231   14962   14963+
+          14957    7373    3362    5695
CTETRA      3555       1   17146   12087   17147     583   12191   12190+
+          17161    4249    4251    4850
CTETRA      3556       1   17280   14712   14693     232   14954   14953+
+          14943    5692    7844    7631
CTETRA      3557       1   13750     359   13771     517    6238    3764+
+          14548    3941    3748    3765
CTETRA      3558       1   13750      15     359     517    6187    2809+
+           6238    3941    8020    3748
CTETRA      3559       1   13558     221     298     296    7062    5905+
+           6641    7071    6810    2422
CTETRA      3560       1   14651   14659   14657     517   14742   14744+
+          14739    3749    3769    3890
CTETRA      3561       1   17504   14658   14659     359   14733   14736+
+          14735    2692    2810    3767
CTETRA      3562       1   14704   14706   14707     469   14942   14939+
+          14941    6579    7078    6833
CTETRA      3563       1   14694   14695   14698     294   14879   14899+
+          14898    5827    4032    5638
CTETRA      3564       1   13777      65   13780     517    2721    5108+
+          14580    3766    3747    5132
CTETRA      3565       1   17143   17144     309     390   17167    7246+
+           2460    6106    7129    2932
CTETRA      3566       1   13555     471     460     295    5036    5167+
+           4084    4086    5034    4087
CTETRA      3567       1   13664   13666   13665     138   14142   14146+
+          14145    1727    3851    6569
CTETRA      3568       1   13771   13777   13780     517   14578   14580+
+          14579    3765    3766    5132
CTETRA      3569       1   17433   14721   14726     150   15025   15012+
+          15026    1775    1827    1826
CTETRA      3570       1   14676     170   14678     172    3098    3097+
+          14825    2311    1862    5120
CTETRA      3571       1   13780      65     170     517    5108    2307+
+           3945    5132    3747    3750
CTETRA      3572       1   17360   13389   13397     923   13437   13472+
+          13474    8021    7410    6940
CTETRA      3573       1   13780   13781   13788     170   14588   14615+
+          14617    3945    5113    1854
CTETRA      3574       1   17506      11     857     954    1248    6476+
+           6465    7151    7153    8022
CTETRA      3575       1   14650   14659   14651     517   14738   14742+
+          14743    3746    3769    3749
CTETRA      3576       1   17503   14659   14650     359   14737   14738+
+          14731    6871    3767    3745
CTETRA      3577       1   17638      14     113     507    3760    2950+
+           2358    4924    3660    3659
CTETRA      3578       1   13751     359      15      16    2787    2809+
+           6237    2788    2695    1270
CTETRA      3579       1   13749     517   13770     168    7733    5131+
+          14551    3501    8023    1845
CTETRA      3580       1   17503   17504   14659     359   17509   14735+
+          14737    6871    2692    3767
CTETRA      3581       1   17920   12899   17227     970   13093   13092+
+          17228    7767    7252    7251
CTETRA      3582       1   17389   13389   13390     223   13441   13440+
+          13442    2098    2097    5081
CTETRA      3583       1   17386   14663   14668     543   14798   14785+
+          14799    6946    8024    3937
CTETRA      3584       1   17361   13390   13389     223   13438   13440+
+          13436    5087    5081    2097
CTETRA      3585       1   17386   13399   17387     896   13488   13489+
+          17394    8025    6709    8026
CTETRA      3586       1   17153   12153   12155     254   12457   12466+
+          12464    3479    2204    3179
CTETRA      3587       1   17361   13390     223     940   13438    5081+
+           5087    7041    7043    8027
CTETRA      3588       1   13396     482   13398     922    7477    7476+
+          13479    7474    8028    6936
CTETRA      3589       1   11789     322   11790     402    2501    3923+
+          11820    8029    8030    2964
CTETRA      3590       1   17412   13627   13626      83   14030   14032+
+          14031    1499    1498    8031
CTETRA      3591       1   17499   17500   14643     221   17513   14819+
+          14820    3612    2093    2092
CTETRA      3592       1   17757   13571     344    1084   13831    2617+
+           6511    8032    8033    8034
CTETRA      3593       1   13712   13713   13769     283   14404   14552+
+          14553    2338    3116    4013
CTETRA      3594       1   17310   12744     272     909   12834    2277+
+           8035    8036    6841    6843
CTETRA      3595       1   17788   16699     604     863   16762    4393+
+           8037    6498    6500    6761
CTETRA      3596       1   17758   16915   16916     345   16960   16957+
+          16961    4820    8038    8039
CTETRA      3597       1   17787   17788   16699     604   17794   16762+
+          16763    4392    8037    4393
CTETRA      3598       1   11690     987       7     988    7351    8040+
+           1876    7352    7354    8041
CTETRA      3599       1   14647   14648   14698     294   14870   14897+
+          14905    2397    2401    5638
CTETRA      3600       1   12105   12107   12106     642   12277   12279+
+          12278    4681    5554    4682
CTETRA      3601       1   17824      89     284    1085    6242    7861+
+           2341    8042    8043    8044
CTETRA      3602       1   17759   13573   13572     351   13837   13836+
+          13835    5696    3956    5710
CTETRA      3603       1   14654     283   14667     426    6184    8045+
+          14778    6185    3117    4006
CTETRA      3604       1   13749   13770   13769     168   14551   14555+
+          14554    3501    1845    1844
CTETRA      3605       1   12955     250   12956     259    4403    2192+
+          13314    5064    3252    6826
CTETRA      3606       1   13786   13788   13787     169   14612   14613+
+          14606    2349    1857    1856
CTETRA      3607       1   14646   14679   14681     171   14844   14847+
+          14846    3012    1863    4014
CTETRA      3608       1   14648   14694   14698     294   14896   14898+
+          14897    2401    5827    5638
CTETRA      3609       1   17757   17758   13571    1084   17769   13832+
+          13831    8032    8046    8033
CTETRA      3610       1   13646   13657   13670     556   14175   14188+
+          14181    8047    4046    6767
CTETRA      3611       1   16725     351   16727     345    4209    2639+
+          16870    8048    2638    2637
CTETRA      3612       1   14682   14683   14686     281   14855   14872+
+          14871    3950    6599    2331
CTETRA      3613       1   13786     281     169     602    2347    2350+
+           2349    4380    4382    8049
CTETRA      3614       1   13571   13572   13596     345   13833   13928+
+          13929    2618    4819    2619
CTETRA      3615       1   14678   14680   14679     170   14834   14840+
+          14839    3097    1849    5119
CTETRA      3616       1   16725     256     351     345    4210    4211+
+           4209    8048    6174    2638
CTETRA      3617       1   17631   16703   16710      40   16779   16794+
+          16792    1347    1664    2006
CTETRA      3618       1   17762   13576      94     246   13846    1641+
+           3887    6773    2180    3872
CTETRA      3619       1   17807   15741   17585    1086   15808   15809+
+          15810    8050    8051    8052
CTETRA      3620       1   16711   16712   16715      94   16796   16816+
+          16824    1556    1566    1550
CTETRA      3621       1   12939   12940   12962     642   13279   13339+
+          13340    6805    7747    5914
CTETRA      3622       1   12169     250   12170      99    5067    6143+
+          12521    4274    2260    2876
CTETRA      3623       1   12730     251   12745     258    5049    2226+
+          12822    7729    2230    2229
CTETRA      3624       1   14658     359      15     517    2810    2809+
+           2808    3768    3748    8020
CTETRA      3625       1   13710   13784   13785     282   14597   14595+
+          14598    2847    3739    6054
CTETRA      3626       1   17877     716   16513     894    7946    5295+
+          16563    7954    6701    6700
CTETRA      3627       1   12733     126     271     203    2507    7213+
+           2274    1993    6437    6845
CTETRA      3628       1   17186   17187   12732     925   17189   12754+
+          12753    8053    8054    6957
CTETRA      3629       1   17319   12732   17320     128   12757   12758+
+          17321    3818    1682    2571
CTETRA      3630       1   15218   15219     666     747   15385    8055+
+           6388    6387    8056    6396
CTETRA      3631       1   17875   16515   16516      42   16567   16534+
+          16568    7923    1357    1356
CTETRA      3632       1   17716   16503     838     839   16556    6244+
+           8057    8058    6246    6248
CTETRA      3633       1   12732     127     128     483    1680    1683+
+           1682    3490    8059    3819
CTETRA      3634       1   12732     126     127     926    1681    1677+
+           1680    6959    6961    8060
CTETRA      3635       1   17186   12732   12731     926   12753   12755+
+          12751    8061    6959    8062
CTETRA      3636       1   17287   12906   12867     431   13129   13130+
+          13013    3190    3173    3191
CTETRA      3637       1   12142     528      19      18    3834    3836+
+           4576    5831    3839    1282
CTETRA      3638       1   12134   12137      20     194   12385    8063+
+           7426    5352    7796    1983
CTETRA      3639       1   12864      20      19      18    4311    1279+
+           4310    5832    1283    1282
CTETRA      3640       1   16510   16520   16519      87   16551   16550+
+          16548    2805    2807    2362
CTETRA      3641       1   12152     437   12154     198    7795    5798+
+          12462    1970    3204    2206
CTETRA      3642       1   14653   14654   14683     283   14780   14854+
+          14853    3918    6184    6600
CTETRA      3643       1   14653   14667   14654     283   14776   14778+
+          14780    3918    8045    6184
CTETRA      3644       1   14654   14684   14683     283   14856   14857+
+          14854    6184    4608    6600
CTETRA      3645       1   17315   12737   12736     641   12783   12785+
+          12782    7845    4691    4685
CTETRA      3646       1   13711   13733   13712     281   14398   14400+
+          14399    6790    2337    2336
CTETRA      3647       1   14680   14681     171     281   14848    4014+
+           6057    3951    6061    4379
CTETRA      3648       1   12942   12947     486     641   13275    3516+
+           5557    7193    7195    4690
CTETRA      3649       1   12090   12091   12093      60   12213   12229+
+          12242    8064    8065    8066
CTETRA      3650       1   12926   12928   12927      59   13209   13208+
+          13210    5600    1409    4739
CTETRA      3651       1   13713   13749   13769     168   14522   14554+
+          14552    3493    3501    1844
CTETRA      3652       1   17810      37   12601     871    2849    1338+
+          12623    6546    6814    8067
CTETRA      3653       1   12962   12963   12971      35   13344   13375+
+          13373    1333    1328    3883
CTETRA      3654       1   12866   12905   12908     503   13128   13142+
+          13140    5793    6982    5782
CTETRA      3655       1   12102   12103      36      35   12264    1353+
+           5912    5106    1354    1334
CTETRA      3656       1   12884   12885      73      74   13046    1502+
+           7664    8068    1512    1464
CTETRA      3657       1   13714   13715     481     543   14432    8014+
+           7472    4002    6932    3936
CTETRA      3658       1   11892   11894   11893     410   12002   12004+
+          12003    3063    3064    4777
CTETRA      3659       1   12905     502     503     928    6978    3641+
+           6982    6979    6981    6983
CTETRA      3660       1   12143   12150   12151     502   12440   12444+
+          12443    3654    3638    3637
CTETRA      3661       1   12884      73     484      74    7664    4175+
+           6660    8068    1464    4910
CTETRA      3662       1   14654   14664   14655     426   14761   14760+
+          14762    6185    4005    5513
CTETRA      3663       1   14652     168   14682     169    3742    3916+
+          14841    3743    1847    3952
CTETRA      3664       1   13767     293   13785     376    7442    2385+
+          14591    2831    3008    2832
CTETRA      3665       1   17287     155     165     929    3192    8069+
+           1823    6985    6987    7343
CTETRA      3666       1   17154    1087       7     967    8070    8071+
+           1240    7233    8072    7234
CTETRA      3667       1   13718   13735   13734     223   14413   14417+
+          14416    5075    3555    3124
CTETRA      3668       1   17386     543   13399     896    6946    6708+
+          13488    8025    6710    6709
CTETRA      3669       1   13759   13762   13763     482   14507   14513+
+          14512    8073    6207    3487
CTETRA      3670       1   14668     481   14669     543    3935    6203+
+          14787    3937    3936    7469
CTETRA      3671       1   12951   12952   12956     250   13303   13308+
+          13310    2210    2193    2192
CTETRA      3672       1   14664   14667   14668     544   14779   14786+
+          14784    4007    4009    3938
CTETRA      3673       1   15728     326     328     994    2526    2525+
+           2524    7391    8074    7392
CTETRA      3674       1   13555   13603   13611     295   13972   13994+
+          13993    4086    6636    5016
CTETRA      3675       1   12943   12944     100     101   13268    1570+
+           1580    2597    1571    1573
CTETRA      3676       1   12155     437     431     254    5799    6433+
+           3177    3179    5794    3180
CTETRA      3677       1   13784   13786   13787     171   14604   14606+
+          14605    6796    4378    1858
CTETRA      3678       1   14651   14652   14680     169   14740   14833+
+          14832    1851    3743    1852
CTETRA      3679       1   14679   14680   14681     171   14840   14848+
+          14847    1863    6057    4014
CTETRA      3680       1   11678   11679   11687      50   11698   11697+
+          11696    1379    1378    1388
CTETRA      3681       1   17502      65      66     148    2305    1433+
+           1447    2668    2669    4950
CTETRA      3682       1   11687      50   11688      53    1388    5392+
+          11699    1389    1391    7210
CTETRA      3683       1   11678   11687      54      43   11696    3059+
+           4316    1360    1387    1396
CTETRA      3684       1   17154       8   11878       9    1242    8075+
+          11943    1243    1245    3481
CTETRA      3685       1   17154     431   12149     432    3167    3473+
+          12470    3168    3170    8076
CTETRA      3686       1   12902   12903   12904     478   13121   13126+
+          13124    3459    3458    3465
CTETRA      3687       1   17287   12906     431     434   13129    3173+
+           3190    5916    3174    3176
CTETRA      3688       1   17497     292     298     296    2404    2418+
+           6055    2405    2407    2422
CTETRA      3689       1   14688     469     460     295    6829    3393+
+           6715    6855    6747    4087
CTETRA      3690       1   13395    1088       7    1089    8077    8078+
+           8079    8080    8081    8082
CTETRA      3691       1   14644   14707   14706     173   14938   14939+
+          14931    2079    8083    2080
CTETRA      3692       1   17311   12745   17312    1090   12824   12823+
+          17335    8084    8085    8086
CTETRA      3693       1   15205   15244   15243     119   15468   15471+
+          15465    2060    2059    2652
CTETRA      3694       1   17116   17117   12618     759   17122   12695+
+          12698    7806    5640    5639
CTETRA      3695       1   13551   13579   13567     186   13868   13871+
+          13798    8087    4931    2716
CTETRA      3696       1   13774   13775      65     148   14562    1432+
+           5110    5389    4954    2669
CTETRA      3697       1   14644   14677   14645     173   14828   14835+
+          14836    2079    3099    8088
CTETRA      3698       1   16033   16043   16042     367   16311   16310+
+          16309    3726    3725    5282
CTETRA      3699       1   12924     162      61     217    3136    3138+
+           3137    5193    3056    5194
CTETRA      3700       1   12126     162      61     436    3260    3138+
+           3130    3241    3196    3242
CTETRA      3701       1   13553   13558   13605     296   13968   13964+
+          13974    6631    7071    7072
CTETRA      3702       1   17630     452   16703      40    3281    8089+
+          16778    6818    6763    1664
CTETRA      3703       1   15211     538     364    1091    5435    4854+
+           5795    8090    8091    8092
CTETRA      3704       1   16703   16706   16704     121   16783   16788+
+          16789    1660    8093    1679
CTETRA      3705       1   12916   12919   12917      60   13167   13169+
+          13168    5869    5883    6795
CTETRA      3706       1   12911   12925   12924     159   13199   13203+
+          13201    6494    6915    7424
CTETRA      3707       1   12113   12117   12114     159   12314   12316+
+          12315    1817    6513    6512
CTETRA      3708       1   14647     293     171     282    2394    6062+
+           3013    2396    2395    4015
CTETRA      3709       1   14690   14703   14691     459   14911   14910+
+          14912    3339    6965    3340
CTETRA      3710       1   17147     533     534     226    5443    4589+
+           7963    2804    4592    4583
CTETRA      3711       1   13766     408   13767     376    3017    5808+
+          14530    3018    3009    2831
CTETRA      3712       1   12925     162     159     646    3133    1819+
+           6915    4702    4701    6917
CTETRA      3713       1   13657   13658   13671     534   14172   14185+
+          14189    4043    3876    6765
CTETRA      3714       1   13740     173     176     218    3077    3078+
+           3076    2091    2082    2709
CTETRA      3715       1   13741   13742   13766     173   14471   14529+
+          14531    2710    3079    3019
CTETRA      3716       1   12924   12925   12933     162   13203   13225+
+          13223    3136    3133    3135
CTETRA      3717       1   12084   12123   12126     436   12346   12360+
+          12358    3245    3261    3241
CTETRA      3718       1   12731     127   12732     483    3807    1680+
+          12755    3489    8059    3490
CTETRA      3719       1   13782   13783     171     174   14608    3023+
+           4388    1870    6374    4389
CTETRA      3720       1   14702   14703   14707     408   14918   14940+
+          14937    3010    6963    6974
CTETRA      3721       1   14645     376   14702     173    8094    3011+
+          14935    8088    3021    3086
CTETRA      3722       1   17343   12932   12925     162   13221   13222+
+          13198    4509    3134    3133
CTETRA      3723       1   16036   16037   16046     364   16288   16331+
+          16332    4851    6483    2762
CTETRA      3724       1   12745     251    1090    1092    2226    8095+
+           8085    8096    8097    8098
CTETRA      3725       1   17936      27   15046    1093    7186    7183+
+          15137    8099    8100    8101
CTETRA      3726       1   13606   13608   13607      27   13978   13980+
+          13979    1305    8102    6525
CTETRA      3727       1   17495   17496   14714      25   17518   14973+
+          14975    5349    8103    8104
CTETRA      3728       1   17497   17498   14696     296   17517   14886+
+          14890    2405    7067    6635
CTETRA      3729       1   17403   13557   13610     319   14001   13999+
+          14003    3398    8105    2496
CTETRA      3730       1   12098   12104   12103      34   12255   12261+
+          12260    1358    7001    1351
CTETRA      3731       1   13611      25     315     678    5043    6967+
+           2478    5009    8106    5010
CTETRA      3732       1   14722   14725     166     471   15007    6363+
+           5004    5006    5168    5007
CTETRA      3733       1   12618     684     526     908    5056    5055+
+           5053    6803    8107    8108
CTETRA      3734       1   17144     136     309     390    1741    2930+
+           7246    7129    2931    2932
CTETRA      3735       1   11777     192     181     387    7380    4870+
+           2889    2892    8109    2893
CTETRA      3736       1   13635     150     166    1094    5152    1830+
+           5153    8110    8111    8112
CTETRA      3737       1   17070     989   11778     991    8113    7364+
+          11857    7536    7533    7382
CTETRA      3738       1   17432   14721   17433     698   14996   15025+
+          17441    7419    5157    7962
CTETRA      3739       1   17834   17835   11693     916   17849   11747+
+          11748    8114    8115    8116
CTETRA      3740       1   15218     666     303     747    6388    4834+
+           6386    6387    6396    6384
CTETRA      3741       1   17365   13704     261     263   14371    8117+
+           2240    2243    8118    2244
CTETRA      3742       1   16083   16087   16084     301   16470   16472+
+          16471    2439    5405    4830
CTETRA      3743       1   16615      27    1095    1071    7185    8119+
+           8120    7922    8121    8122
CTETRA      3744       1   11683   11692     392     395   11716    4620+
+           2911    2917    2919    3530
CTETRA      3745       1   17050   11684   11683     986   11760   11720+
+          11763    8123    7542    7338
CTETRA      3746       1   17385   13398     921     922   13482    6935+
+           8124    7473    6936    6938
CTETRA      3747       1   17785   16727   16726     351   16871   16869+
+          16868    5708    2639    5707
CTETRA      3748       1   17779   17780   16729    1023   17803   16884+
+          16885    7915    7588    7587
CTETRA      3749       1   13590   13593   13594     339   13921   13923+
+          13918    3386    5716    3387
CTETRA      3750       1   13572     351     345     664    5710    2638+
+           4819    4822    5712    4823
CTETRA      3751       1   16725   16727   16728     345   16870   16874+
+          16873    8048    2637    6014
CTETRA      3752       1   16033   16089   16081     666   16483   16485+
+          16458    5281    6394    4833
CTETRA      3753       1   17786   16718     345     603   16834    4384+
+           6011    8125    4385    4387
CTETRA      3754       1   17784   16726     547    1096   16862    6564+
+           3964    8126    8127    8128
CTETRA      3755       1   13575   13576   13587      94   13845   13893+
+          13887    3873    1641    1640
CTETRA      3756       1   15869     301     513    1097    5422    4216+
+           5770    8129    8130    8131
CTETRA      3757       1   17746   15045   17940    1018   15116   15119+
+          17748    8132    8133    8134
CTETRA      3758       1   16712      94     122     895    1566    3871+
+           8135    6707    8136    8137
CTETRA      3759       1   15034     146     365    1098    1762    6004+
+           6002    8138    8139    8140
CTETRA      3760       1   17895     840   16612     841    8141    6249+
+          16665    7079    6253    6252
CTETRA      3761       1   16708     547     339     207    6563    3954+
+           2578    2566    6565    2577
CTETRA      3762       1   17472   15721   15722    1099   15746   15748+
+          15747    8142    8143    8144
CTETRA      3763       1   13563   13568   13564     121   13808   13810+
+          13809    6764    3289    1652
CTETRA      3764       1   16712   16713     122      97   16797    1666+
+           8135    1567    1663    1667
CTETRA      3765       1   17496   14714      25     292   14973    8104+
+           8103    3902    5041    2381
CTETRA      3766       1   13614      25     965    1100    1297    7674+
+           7225    8145    8146    8147
CTETRA      3767       1   13557     318     470     699    2490    4188+
+           3397    5177    5178    8148
CTETRA      3768       1   17944   17898   16615    1071   17908   16671+
+          16672    7921    8149    7922
CTETRA      3769       1   16607     210     209    1101    2016    2018+
+           2015    8150    8151    8152
CTETRA      3770       1   13715   13763     481     482   14514    3484+
+           8014    8015    3487    3486
CTETRA      3771       1   17406   17407   13637    1102   17427   14073+
+          14075    8153    8154    8155
CTETRA      3772       1   17734   16599   16598      46   16690   16620+
+          16692    2925    2924    8156
CTETRA      3773       1   17402   15043   15042     315   15109   15111+
+          15107    2480    8157    8158
CTETRA      3774       1   16598      46   16599      47    8156    2924+
+          16620    8159    1367    8160
CTETRA      3775       1   17940   17779   16698    1103   17792   16757+
+          16756    8161    8162    8163
CTETRA      3776       1   13637     388     740    1104    5479    5481+
+           5480    8164    8165    8166
CTETRA      3777       1   17233   12601      38    1038   12626    1340+
+           7714    8167    7700    7702
CTETRA      3778       1   17733   16599   17734     397   16691   16690+
+          17744    7586    2927    2926
CTETRA      3779       1   13398     543     482    1003    6933    8016+
+           7476    7468    7467    8168
CTETRA      3780       1   16600     398     520     943    2936    8169+
+           3788    7051    7053    8170
CTETRA      3781       1   14715   14722   14723     317   14990   14992+
+          14988    5032    5005    8171
CTETRA      3782       1   14721     166     698     999    1828    5158+
+           5157    7421    8172    7422
CTETRA      3783       1   16599   16609   16608    1105   16622   16621+
+          16619    8173    8174    8175
CTETRA      3784       1   13713   13738     481     427   14427    4602+
+           3491    3119    4601    3494
CTETRA      3785       1   15738   15739     242    1032   15800    2972+
+           2971    7651    7650    8176
CTETRA      3786       1   17633   16707   17634     184   16820   16821+
+          17649    1922    3385    3380
CTETRA      3787       1   17431   14721   17432     999   14995   14996+
+          17436    8177    7421    7420
CTETRA      3788       1   16041     360     627     424    4526    4542+
+           4522    3105    3610    4529
CTETRA      3789       1   17632   16710   16716     335   16793   16831+
+          16823    2554    4749    5944
CTETRA      3790       1   15207     627   15208     424    5789    4543+
+          15316    5432    4529    4550
CTETRA      3791       1   15278     286     353     608    7344    2647+
+           6616    5690    6311    5727
CTETRA      3792       1   15304     134     287     540    2351    2355+
+           2354    3926    8178    8179
CTETRA      3793       1   16006     134     131     133    4075    1707+
+           6419    6425    1710    1704
CTETRA      3794       1   12961      37      34     216    6160    1335+
+           3886    4314    6268    5246
CTETRA      3795       1   17523   15304     287     540   15687    2354+
+           8180    8181    3926    8179
CTETRA      3796       1   17178   12745   12744     258   12821   12827+
+          12825    8182    2229    2228
CTETRA      3797       1   17654   15852     559    1078   15873    4067+
+           7966    7980    7979    8183
CTETRA      3798       1   17655     133   15854     542    7618    7987+
+          15886    8002    7988    3930
CTETRA      3799       1   17656   15854   15855     541   15887   15895+
+          15893    3928    3927    4073
CTETRA      3800       1   17522   15306     133     875   15698    6584+
+           7989    8184    6585    6587
CTETRA      3801       1   17665     565   15859    1106    8185    4119+
+          15917    8186    8187    8188
CTETRA      3802       1   12114     217   12115      59    4288    2819+
+          12330    6812    2823    2822
CTETRA      3803       1   17251   12619   17252     653   12679   12681+
+          17273    6797    4744    8189
CTETRA      3804       1   17252    1049   12620    1050    8190    8191+
+          12682    8192    7780    8193
CTETRA      3805       1   15281     228     112    1019    8194    2998+
+           7708    7573    8195    7778
CTETRA      3806       1   17468   17469   15725    1060   17474   15756+
+          15758    7864    8196    7865
CTETRA      3807       1   17534   15232   17535     260   15425   15428+
+          17545    2237    2239    8197
CTETRA      3808       1   17531     563   15283    1107    8198    4113+
+          15603    8199    8200    8201
CTETRA      3809       1   15739     242    1108    1044    2972    8202+
+           8203    7746    8204    8205
CTETRA      3810       1   17587   15739   17588    1108   15813   15816+
+          17610    8206    8203    8207
CTETRA      3811       1   17454   17455   15738     404   17479   15796+
+          15798    8208    8209    2973
CTETRA      3812       1   16058   16069   16068     242   16406   16405+
+          16404    7396    4803    2158
CTETRA      3813       1   17587   15739    1108    1044   15813    8203+
+           8206    7744    7746    8205
CTETRA      3814       1   17586   15740   17587    1109   15811   15814+
+          17609    8210    8211    8212
CTETRA      3815       1   12620     374    1050     753    5887    8213+
+           8193    8214    8215    7783
CTETRA      3816       1   17527   15295   17528     237   15663   15656+
+          17555    5757    2145    8216
CTETRA      3817       1   15980   15981   16064     239   16178   16390+
+          16391    2968    5577    5493
CTETRA      3818       1   17318   12734     930    1043   12769    7004+
+           8217    8218    7741    8219
CTETRA      3819       1   16063   16064     239     212   16388    5493+
+           7663    8220    2170    2150
CTETRA      3820       1   17807     666     712     951    5271    5273+
+           5272    7114    7116    8221
CTETRA      3821       1   12956   12957   12958     259   13316   13324+
+          13323    6826    5135    5065
CTETRA      3822       1   17524   15279   17525     764   15594   15593+
+          17548    5687    5689    6337
CTETRA      3823       1   17525   15857   15856     608   15903   15905+
+          15902    5567    5582    6312
CTETRA      3824       1   16064     245     239     212    2169    5487+
+           5493    2170    2172    2150
CTETRA      3825       1   12157   12158   12180     484   12497   12557+
+          12558    4294    4180    4181
CTETRA      3826       1   13741   13747     459     469   14460    6597+
+           6966    7074    6598    3394
CTETRA      3827       1   17461   15252   17462     622   15524   15523+
+          17487    4494    8222    4495
CTETRA      3828       1   15984   16030   16017      31   16269   16274+
+          16277    1315    1317    1324
CTETRA      3829       1   16044     365   16053     355    3708    5982+
+          16343    3724    2753    2660
CTETRA      3830       1   15217   15224   15218     303   15372   15375+
+          15374    5746    5749    6386
CTETRA      3831       1   17535   15232   15231     308   15428   15427+
+          15429    2725    8223    2726
CTETRA      3832       1   12731   12732     127     926   12755    1680+
+           3807    8062    6959    8060
CTETRA      3833       1   15266     326   15983      31    2514    2516+
+           7147    3814    2518    1323
CTETRA      3834       1   17466   15727   15728     188   15764   15766+
+          15765    6092    1933    8224
CTETRA      3835       1   15199   15225     112     117   15391    1631+
+           4097    4096    3664    1638
CTETRA      3836       1   17535   15230   17536     362   15417   15416+
+          17543    8225    2728    4948
CTETRA      3837       1   15235     355     235     366    2766    2756+
+           2777    2769    2768    3741
CTETRA      3838       1   13744     460   13745     469    4085    3330+
+          14448    6746    3393    3392
CTETRA      3839       1   15865     952     308     953    7121    8226+
+           2737    7124    7123    8227
CTETRA      3840       1   15282     405     111     406    4130    2992+
+           5543    4131    2979    5541
CTETRA      3841       1   16081   16089     303     666   16485    6393+
+           3701    4833    6394    4834
CTETRA      3842       1   17309     268   12750    1035    6792    2263+
+          12854    8228    7672    7671
CTETRA      3843       1   15201   15202   15235     367   15331   15495+
+          15494    8229    2771    2770
CTETRA      3844       1   15213     538     120     972    5791    3907+
+           2758    7260    7259    8230
CTETRA      3845       1   14688   14689   14716     460   14928   14968+
+          14970    6715    3390    5166
CTETRA      3846       1   17923   17253   12621     710   17275   12685+
+          12687    8231    6817    5257
CTETRA      3847       1   15206   15208   15207     627   15317   15316+
+          15318    5788    4543    5789
CTETRA      3848       1   13742   13748   13743     408   14468   14467+
+          14469    5806    6412    5807
CTETRA      3849       1   16036   16038   16039     538   16282   16293+
+          16287    4853    5786    5387
CTETRA      3850       1   16068   16075   16078     111   16432   16440+
+          16439    2160    2977    1611
CTETRA      3851       1   17315   12941   12942     641   13255   13257+
+          13253    7845    4677    7193
CTETRA      3852       1   15202   15212   15210     364   15329   15332+
+          15335    2746    7716    2747
CTETRA      3853       1   15203   15210     118     355   15337    7125+
+           2662    5960    2744    2760
CTETRA      3854       1   15722     843     364    1099    6284    8232+
+           5376    8144    8233    8234
CTETRA      3855       1   15210     118     364     726    7125    2763+
+           2747    5371    8235    5372
CTETRA      3856       1   16035   16038   16036     538   16280   16282+
+          16281    5787    5786    4853
CTETRA      3857       1   15220   15228   15224     301   15408   15409+
+          15373    4215    8236    5750
CTETRA      3858       1   17537   15228     301    1110   15406    8236+
+           4504    8237    8238    8239
CTETRA      3859       1   11781     299    1082      26    2427    8240+
+           8241    1302    2429    8242
CTETRA      3860       1   17536   15228   17537    1110   15407   15406+
+          17542    8243    8238    8237
CTETRA      3861       1   11780   11789     321     322   11818    2500+
+           7937    3922    2501    2503
CTETRA      3862       1   17399      27   13609    1072    7182    8244+
+          13986    8245    8246    7925
CTETRA      3863       1   16606     866     865    1111    6518    6520+
+           6517    8247    8248    8249
CTETRA      3864       1   17828   17829     776    1022   17831    8250+
+           5856    7581    7583    8251
CTETRA      3865       1   17928   15244   17495     535   15469   15467+
+          17519    8252    8253    3893
CTETRA      3866       1   17928   17495   14724     323   17519   15002+
+          15003    8254    8255    2505
CTETRA      3867       1   13784     281     171     282    6794    4379+
+           6796    3739    2335    4015
CTETRA      3868       1   17696   15034   17697     553   15066   15064+
+          17698    8256    3990    8257
CTETRA      3869       1   13559   13604   13605     298   13961   13965+
+          13963    5946    2416    6642
CTETRA      3870       1   14687   14696   14688     295   14891   14919+
+          14922    6848    6634    6855
CTETRA      3871       1   13784   13786     171     281   14604    4378+
+           6796    6794    2347    4379
CTETRA      3872       1   17430   15042   15043     315   15112   15111+
+          15113    2484    8158    8157
CTETRA      3873       1   17628      24      23     551    1290    1292+
+           1289    3982    8258    3983
CTETRA      3874       1   13713   13738   13714     481   14427   14430+
+          14429    3491    4602    7472
CTETRA      3875       1   17360     690   13389     897    7012    5096+
+          13437    8259    6713    6712
CTETRA      3876       1   12916     582   12918     783    7425    4280+
+          13162    5891    8260    8261
CTETRA      3877       1   14669   14671     543     482   14793    7470+
+           7469    6204    8262    8016
CTETRA      3878       1   17696   15033   15034     914   15070   15069+
+          15066    8263    6876    6878
CTETRA      3879       1   17357   17358   13398    1003   17375   13477+
+          13476    8264    7466    7468
CTETRA      3880       1   17385   13398   17386     921   13482   13487+
+          17393    8124    6935    8265
CTETRA      3881       1   15203   15246   15248     355   15479   15488+
+          15486    5960    5954    2776
CTETRA      3882       1   17669   15866   15867     458   15952   15958+
+          15956    8266    3321    8267
CTETRA      3883       1   17359   13737   13736     544   14425   14426+
+          14423    6703    4004    4596
CTETRA      3884       1   15204   15214   15205     119   15353   15352+
+          15354    2651    2679    2060
CTETRA      3885       1   15034     197     146     553    6001    6003+
+           1762    3990    7905    3991
CTETRA      3886       1   13714   13737   13715     543   14431   14420+
+          14432    4002    4001    6932
CTETRA      3887       1   17359   13397     544     923   13475    6390+
+           6703    8268    6940    6942
CTETRA      3888       1   14684     102   14685     283    4606    4712+
+          14863    4608    4607    6601
CTETRA      3889       1   16016   16017   16030      31   16232   16274+
+          16273    7139    1324    1317
CTETRA      3890       1   13714     543     481     544    4002    3936+
+           7472    4003    3940    3939
CTETRA      3891       1   17598   15728     993     994   15835    7390+
+           8269    8270    7391    7393
CTETRA      3892       1   13642   13643   13748     461   14166   14462+
+          14461    6956    6953    3349
CTETRA      3893       1   13643     430     464     461    4479    4149+
+           4480    6953    4485    4709
CTETRA      3894       1   16000   16005   16001     616   16162   16164+
+          16167    5311    5306    8271
CTETRA      3895       1   14691     459     408     461    3340    6409+
+           6964    3342    3332    4710
CTETRA      3896       1   13643   13668   13644     464   14167   14179+
+          14180    4480    3351    4705
CTETRA      3897       1   14692   14693   14712     464   14894   14953+
+          14955    7438    7445    5694
CTETRA      3898       1   13644     555   13645     297    8272    4021+
+          14178    6373    4024    2413
CTETRA      3899       1   13669     230     464     233    2127    8273+
+           3350    2132    7325    3370
CTETRA      3900       1   14702     408   14707     173    3010    6974+
+          14937    3086    3020    8083
CTETRA      3901       1   13742   13747   13748     459   14470   14464+
+          14468    6408    6597    3348
CTETRA      3902       1   14691   14703   14701     408   14910   14913+
+          14902    6964    6963    3006
CTETRA      3903       1   15251     668     499      33    5154    6278+
+           6485    6282    6280    3777
CTETRA      3904       1   17535   15232     308     260   15428    8223+
+           2725    8197    2239    8274
CTETRA      3905       1   14701   14703   14702     408   14913   14918+
+          14917    3006    6963    3010
CTETRA      3906       1   15251   15261   15260      33   15529   15528+
+          15527    6282    3812    6283
CTETRA      3907       1   17841   11687      53    1074   11735    1389+
+           7209    7941    7940    8275
CTETRA      3908       1   15254   15264   15272     326   15550   15572+
+          15574    2550    2513    2532
CTETRA      3909       1   13651   13723   13721      50   14360   14359+
+          14358    7220    3596    4341
CTETRA      3910       1   13574   13584   13594      98   13878   13917+
+          13919    4355    2004    3977
CTETRA      3911       1   17505   15273   15275     276   15577   15586+
+          15584    2797    5404    4932
CTETRA      3912       1   17926   14670   17506     954   14790   14788+
+          17511    8276    8277    7151
CTETRA      3913       1     113      13     507      10    1620    4841+
+           3659    3661    1255    3662
CTETRA      3914       1   15741     747     666    1112    6683    6396+
+           6696    8278    8279    8280
CTETRA      3915       1   14654   14667   14664     426   14778   14779+
+          14761    6185    4006    4005
CTETRA      3916       1   17596   15730   17597     853   15831   15834+
+          17619    6351    6353    8281
CTETRA      3917       1   15992   15994   15993     326   16114   16116+
+          16115    2531    8282    8283
CTETRA      3918       1   13650   13651   13721      50   14253   14358+
+          14349    7221    7220    4341
CTETRA      3919       1   11885     181     140     178    4886    1909+
+           4885    5839    4877    1897
CTETRA      3920       1   15984     326      30      31    2517    2522+
+           1313    1315    2518    1316
CTETRA      3921       1   17637   16720   16722      86   16849   16847+
+          16844    1513    1533    4839
CTETRA      3922       1   17278   14710   14713     466   14944   14958+
+          14961    3468    3356    3359
CTETRA      3923       1   13662   13663   13668     231   14155   14163+
+          14162    3476    3879    3352
CTETRA      3924       1   17637   15996   15995     276   16138   16146+
+          16128    2293    4922    2294
CTETRA      3925       1   13659   13666   13660     138   14140   14139+
+          14141    5682    3851    5461
CTETRA      3926       1   14661   14671   14669     482   14792   14793+
+          14782    6201    8262    6204
CTETRA      3927       1   13660   13666   13664     138   14139   14142+
+          14137    5461    3851    1727
CTETRA      3928       1   13754   13761   13760      10   14502   14503+
+          14494    1254    1264    1263
CTETRA      3929       1   13581     576   13595     257    4960    4204+
+          13925    4961    4202    2216
CTETRA      3930       1   13619   13640   13620     393   14110   14100+
+          14111    3161    3151    4493
CTETRA      3931       1   13620   13638   13621     465   14097   14085+
+          14098    5354    4171    4150
CTETRA      3932       1   14717     430     460     461    4642    4644+
+           4519    4488    4485    3333
CTETRA      3933       1   12131   12132   12187      76   12410   12582+
+          12581    4816    5625    1471
CTETRA      3934       1   13640     465     393     736    5353    4169+
+           3151    5452    5451    8284
CTETRA      3935       1   17276     137     680     681    2902    8285+
+           5020    5022    5457    5023
CTETRA      3936       1   15282   15290   15291     405   15637   15639+
+          15636    4130    2978    5542
CTETRA      3937       1   13622     388     137     480    2959    2895+
+           1721    6300    4154    6301
CTETRA      3938       1   13621   13638   13629     388   14085   14084+
+          14083    4151    4170    2960
CTETRA      3939       1   13628   13629   13638     388   14064   14084+
+          14087    2896    2960    4170
CTETRA      3940       1   17411   17412   13626    1113   17422   14031+
+          14037    8286    8287    8288
CTETRA      3941       1   13694     455     454      63    3365    3368+
+           5651    3367    3297    3295
CTETRA      3942       1   17150   17151   11891      63   17163   11999+
+          12000    3293    1426    3308
CTETRA      3943       1   17818   11790      57     933   11848    8289+
+           1403    8290    7018    8291
CTETRA      3944       1   17852     402   11790     933    2962    2964+
+          11846    8292    7019    7018
CTETRA      3945       1   17399   13607      27     796   13976    6525+
+           7182    5979    5981    7181
CTETRA      3946       1   17897     867   16614    1114    8293    6522+
+          16669    8294    8295    8296
CTETRA      3947       1   12158     429      73     574    3147    3149+
+           3146    5143    5138    4172
CTETRA      3948       1   17856   17857   11786     732   17865   11837+
+          11838    8297    7526    5398
CTETRA      3949       1   17525   15280   17526     610   15591   15592+
+          17547    5568    4418    5559
CTETRA      3950       1   17857   17858   11785     182   17864   11835+
+          11836    8298    8299    1911
CTETRA      3951       1   17898   16615    1071    1115   16671    7922+
+           8149    8300    8301    8302
CTETRA      3952       1   16614      27   16615    1114    6521    7185+
+          16647    8296    8303    8304
CTETRA      3953       1   17765   13602    1116    1117   13958    8305+
+           8306    8307    8308    8309
CTETRA      3954       1   17892   16608   16609     980   16658   16621+
+          16659    7301    8310    7302
CTETRA      3955       1   12077   12171   12168     253   12513   12514+
+          12499    4427    4458    4457
CTETRA      3956       1   12162   12170     250     251   12517    6143+
+           3249    2234    5048    2196
CTETRA      3957       1   17891   16608    1116    1118   16657    8311+
+           8312    8313    8314    8315
CTETRA      3958       1   17892   16609   17893     904   16659   16660+
+          17902    7300    7299    8316
CTETRA      3959       1   17764     904    1025     905    6769    8317+
+           7593    6770    6772    8318
CTETRA      3960       1   15737     403      91     878    7058    8319+
+           1540    6607    8320    8321
CTETRA      3961       1   17891   16607   16608     208   16656   16617+
+          16657    8322    2013    8323
CTETRA      3962       1   13584      96   13586     207    2002    2019+
+          13882    3978    2011    2021
CTETRA      3963       1   17765    1119   16913    1120    8324    8325+
+          16948    8326    8327    8328
CTETRA      3964       1   12886   12890   12891     509   13071   13075+
+          13074    7617    7657    4900
CTETRA      3965       1   17221     157     153     199    1799    2068+
+           1788    1975    1977    8329
CTETRA      3966       1   17807   17935     711    1086   17808    8330+
+           5262    8050    8331    8332
CTETRA      3967       1   15233   15237   15234     277   15434   15436+
+          15435    5486    3714    3713
CTETRA      3968       1   12960   12961   12964     126   13336   13366+
+          13359    1674    3885    1675
CTETRA      3969       1   17318   12731   17319     527   12765   12756+
+          17323    3808    3810    8333
CTETRA      3970       1   17186     925   12732     926    8053    6957+
+          12753    8061    6960    6959
CTETRA      3971       1   15730      33   15731     765    7144    6426+
+          15775    6176    7685    5700
CTETRA      3972       1   12912   12961   12959     216   13337   13335+
+          13331    2069    4314    2075
CTETRA      3973       1   17671   15869   17672    1097   15966   15967+
+          17692    8334    8129    8335
CTETRA      3974       1   15225     308   15232     115    2740    8223+
+          15423    1629    8336    8337
CTETRA      3975       1   17310   12744   17311     272   12834   12828+
+          17337    8035    2277    8338
CTETRA      3976       1   15235   15240   15239     235   15448   15449+
+          15443    2777    2138    2137
CTETRA      3977       1   17310   12748   12744     267   12843   12842+
+          12834    8339    2255    2863
CTETRA      3978       1   12901     478      17     528    3464    5611+
+           4813    7065    4792    4650
CTETRA      3979       1   15232     308     260    1027    8223    8274+
+           2239    7609    8340    7612
CTETRA      3980       1   12861     104     100     484    1582    1584+
+           1581    3505    4292    4291
CTETRA      3981       1   15221   15222   15227     242   15387   15403+
+          15405    7646    8341    2994
CTETRA      3982       1   12099   12103   12102      35   12262   12264+
+          12263    8342    1354    5106
CTETRA      3983       1   15236   15239   15238     666   15442   15445+
+          15439    5266    5265    7996
CTETRA      3984       1   17456   15737      91     878   15794    1540+
+           7735    6605    6607    8321
CTETRA      3985       1   12611      76     665     845    4826    4828+
+           4827    6293    6292    8343
CTETRA      3986       1   12880   12881      76      74   13047    6442+
+           6441    1511    6181    1472
CTETRA      3987       1   12612      17     662    1121    4798    4801+
+           4800    8344    8345    8346
CTETRA      3988       1   17245   12613   17246    1051   12661   12663+
+          17267    7787    7789    8347
CTETRA      3989       1   17243   12611     665     845   12655    4827+
+           7784    8348    6293    8343
CTETRA      3990       1   15224     312     303     300    6625    5751+
+           5749    3334    2468    2437
CTETRA      3991       1   17452   17453   15740    1122   17481   15802+
+          15804    8349    8350    8351
CTETRA      3992       1   17244   12611   12612     665   12657   12659+
+          12658    7785    4827    8352
CTETRA      3993       1   12130   12141   12131     528   12411   12409+
+          12412    4790    4787    4791
CTETRA      3994       1   17459   17460   15734     721   17493   15783+
+          15785    5340    8353    5341
CTETRA      3995       1   12141     528   12142      18    4787    3834+
+          12413    1275    3839    5831
CTETRA      3996       1   12604     447     253     645    4406    4405+
+           4404    4698    6727    4699
CTETRA      3997       1   17635      66     148     143    2218    4950+
+           4949    1750    4930    1768
CTETRA      3998       1   17467   17468   15726     950   17473   15759+
+          15761    7110    8354    7111
CTETRA      3999       1   17453   17454   15739     748   17480   15799+
+          15801    6927    8355    5551
CTETRA      4000       1   12898   12901   12900      76   13104   13107+
+          13101    4811    4810    6443
CTETRA      4001       1   17469   15724   15725    1060   15755   15757+
+          15756    8196    8356    7865
CTETRA      4002       1   17242   12610   17243    1052   12652   12654+
+          17264    7798    7800    8357
CTETRA      4003       1   12613     947      20    1051    7095    7097+
+           4544    7789    7788    8358
CTETRA      4004       1   15195     183     360     627    2613    4525+
+           2704    4541    4523    4542
CTETRA      4005       1   17468   15725   15726    1061   15758   15760+
+          15759    7866    7868    8359
CTETRA      4006       1   12134   12137   12135      20   12385   12387+
+          12386    7426    8063    4489
CTETRA      4007       1   15277   15286   15285     744   15620   15621+
+          15616    6602    6905    5588
CTETRA      4008       1   17240   17241   12884    1123   17262   13051+
+          13050    8360    8361    8362
CTETRA      4009       1   12608    1124    1123    1125    8363    8364+
+           8365    8366    8367    8368
CTETRA      4010       1   17240     883   12883    1126    8369    8370+
+          13048    8371    8372    8373
CTETRA      4011       1   12859   12883   12860     485   13041   13062+
+          13063    7691    8374    5534
CTETRA      4012       1   13549      66     148     257    4952    4950+
+           4953    4958    2222    4951
CTETRA      4013       1   12607     634     485    1127    8375    7692+
+           6661    8376    8377    8378
CTETRA      4014       1   15725     183   15726    1061    2608    2605+
+          15760    7868    8379    8359
CTETRA      4015       1   17786   17787   16718     603   17799   16833+
+          16834    8125    7131    4385
CTETRA      4016       1   12860   12953     255     100   13297    5532+
+           8380    5374    5375    5533
CTETRA      4017       1   12606   12607     485     995   12643    6661+
+           6144    7403    8381    8382
CTETRA      4018       1   17106   12607   12606     995   12717   12643+
+          12720    7402    8381    7403
CTETRA      4019       1   15279   15304   15303     286   15684   15685+
+          15680    5686    2353    6556
CTETRA      4020       1   17106   17107   12607     884   17140   12718+
+          12717    6846    8383    6663
CTETRA      4021       1   12607     485     885    1127    6661    6665+
+           6664    8376    8378    8384
CTETRA      4022       1   17657   15855     286     848   15894    2649+
+           2648    6316    6315    6912
CTETRA      4023       1   17810   17923   12621     710   17812   12687+
+          12688    8385    8231    5257
CTETRA      4024       1   17857     182   11785    1128    8298    1911+
+          11836    8386    8387    8388
CTETRA      4025       1   17249   12617   17250    1129   12673   12675+
+          17271    8389    8390    8391
CTETRA      4026       1   17115   12616   12615     801   12699   12671+
+          12702    8392    6017    6016
CTETRA      4027       1   17250     684   12618     908    8393    5056+
+          12676    6802    8107    6803
CTETRA      4028       1   12086   12088   12087     526   12197   12196+
+          12198    8394    4565    8395
CTETRA      4029       1   17810   12601   17923     871   12623   12625+
+          17812    6546    8067    6547
CTETRA      4030       1   12913   12923   12922      58   13191   13190+
+          13189    2853    1407    2854
CTETRA      4031       1   12090   12092   12091      60   12212   12214+
+          12213    8064    5581    8065
CTETRA      4032       1   17810   17120   17918     377   12690   17131+
+          17811    2835    7738    5233
CTETRA      4033       1   11778   11787   11786     192   11811   11810+
+          11808    7362    5930    5397
CTETRA      4034       1   12098   12099      37      35   12265    8396+
+           3884    1359    8342    1337
CTETRA      4035       1   17810   17918   17100     705   17811   17130+
+          12622    5234    5236    8397
CTETRA      4036       1   16008   16011   16013     353   16193   16200+
+          16202    5726    2643    7340
CTETRA      4037       1   17116     934   12617     935    8398    7021+
+          12697    7427    7024    7023
CTETRA      4038       1     533     534     232     583    4589    3878+
+           3870    4267    6610    5693
CTETRA      4039       1   15295   15296     212     238   15662    2151+
+           2143    2146    7653    2147
CTETRA      4040       1   17923   12601   17233    1038   12625   12626+
+          17254    8399    7700    8167
CTETRA      4041       1   12160   12165     104     574   12493    3235+
+           6136    7465    5145    4305
CTETRA      4042       1   17182   12736   12737     720   12779   12785+
+          12786    8400    8401    5330
CTETRA      4043       1   12860   12861   12944     100   13058   13270+
+          13271    5374    1581    1570
CTETRA      4044       1   17279   14712   17280     232   14957   14954+
+          17295    3869    7844    5692
CTETRA      4045       1   13658     533     534     232    3881    4589+
+           3876    3431    3870    3878
CTETRA      4046       1   13659   13663   13666     232   14147   14152+
+          14140    3433    3432    3853
CTETRA      4047       1   15288   15291   15289     403   15634   15640+
+          15631    8402    5620    5633
CTETRA      4048       1   17174   12749   12747     104   12849   12848+
+          12845    2601    2600    3237
CTETRA      4049       1   12862   12887   12894     104   13055   13085+
+          13084    2607    4319    4318
CTETRA      4050       1   17185   12731   12734     127   12752   12768+
+          12766    3815    3807    6975
CTETRA      4051       1   15869     734     301    1097    5425    5424+
+           5422    8129    8403    8130
CTETRA      4052       1   17185     127   12734     998    3815    6975+
+          12766    8404    8405    7415
CTETRA      4053       1   17667   15863   15865     952   15942   15948+
+          15946    7120    8406    7121
CTETRA      4054       1   17807     711     666    1086    5262    7113+
+           5271    8050    8332    8407
CTETRA      4055       1   14722   14723     317     166   14992    8171+
+           5005    5004    7910    5001
CTETRA      4056       1   12963   12964   12969      34   13351   13367+
+          13376    1326    1699    1327
CTETRA      4057       1   12169   12171   12170     250   12520   12519+
+          12521    5067    6444    6143
CTETRA      4058       1   15286     672   15293     239    6904    5752+
+          15650    6088    5505    5754
CTETRA      4059       1   15739     747   15740     748    5550    6684+
+          15803    5551    5553    6928
CTETRA      4060       1   17185   17186   12731     932   17188   12751+
+          12752    7013    8408    7014
CTETRA      4061       1   12964   12967   12968     127   13352   13356+
+          13355    1678    7000    8409
CTETRA      4062       1   13593     351     339     256    5717    3958+
+           5716    6172    4211    2586
CTETRA      4063       1   12734     127     129     998    6975    1693+
+           7003    7415    8405    7416
CTETRA      4064       1   16699      89     344     604    6748    6504+
+           4390    4393    6759    4394
CTETRA      4065       1   15262   15271   15265      31   15561   15562+
+          15543    1696    1698    6572
CTETRA      4066       1   17279     582     533     583    4244    4246+
+           3866    4281    4250    4267
CTETRA      4067       1   13556   13639   13617     471   14091   14094+
+          14092    5037    3400    3399
CTETRA      4068       1   17657   15856   17658     742   15898   15899+
+          17679    5497    5499    8410
CTETRA      4069       1   17145     142   12093     582    1743    7266+
+          12226    6528    4260    6800
CTETRA      4070       1   17522     133   15305     560    7989    4079+
+          15700    8411    4082    4081
CTETRA      4071       1   12915   12918   12916     582   13160   13162+
+          13161    4259    4280    7425
CTETRA      4072       1   17147   12087   12088     583   12190   12196+
+          12195    4850    4251    4567
CTETRA      4073       1   17146   12093   12087     582   12225   12227+
+          12191    4247    6800    4248
CTETRA      4074       1   11892   11896   11901     124   12043   12042+
+          12046    3309    6852    3310
CTETRA      4075       1   17658   15856   15857     611   15899   15905+
+          15906    8412    8413    4422
CTETRA      4076       1   11897     124     275     356    6851    6853+
+           2290    2672    8414    4207
CTETRA      4077       1   17658   15857   17659     611   15906   15907+
+          17680    8412    4422    4421
CTETRA      4078       1   15737      91     403     413    1540    8319+
+           7058    3041    7395    8415
CTETRA      4079       1   15222   15227     242     117   15403    2994+
+           8341    6629    3003    2162
CTETRA      4080       1   13683     410     106    1079    4661    6239+
+           1591    7986    7985    8416
CTETRA      4081       1   15307     668   15309     616    5155    8417+
+          15715    5284    5287    4857
CTETRA      4082       1   15998   15999   16024     132   16150   16242+
+          16245    6774    1702    6488
CTETRA      4083       1   15301     134   15305     133    1708    4080+
+          15688    1709    1710    4079
CTETRA      4084       1   15981   16009   16007     744   16176   16179+
+          16173    5578    5507    6338
CTETRA      4085       1   11897     236     124     356    7328    2140+
+           6851    2672    7329    8414
CTETRA      4086       1   16018   16021   16020     668   16224   16227+
+          16221    6289    6279    4884
CTETRA      4087       1   15284     609   15296     240    5566    5760+
+          15660    8418    5761    2152
CTETRA      4088       1   11896   11897   11901     124   12025   12041+
+          12042    6852    6851    3310
CTETRA      4089       1   15290     406   15292     212    2980    8419+
+          15643    2028    2982    2029
CTETRA      4090       1   17022   11896   17023    1064   12024   12020+
+          17035    8420    7878    7877
CTETRA      4091       1   12075   12088   12089     526   12194   12204+
+          12201    4554    4565    4555
CTETRA      4092       1   11881     694   11889     227    5926    5128+
+          11985    3754    5927    3755
CTETRA      4093       1   15735   15736     672     270   15790    5367+
+           6079    6069    2272    5369
CTETRA      4094       1   16064   16065   16072     212   16389   16420+
+          16419    2170    8421    2171
CTETRA      4095       1   11889   11890     227     193   11998    3756+
+           3755    5239    5843    4186
CTETRA      4096       1   15732     616     668     667    4861    5287+
+           4880    4862    4864    8422
CTETRA      4097       1   17535     308   15230     362    2725    2727+
+          15417    8225    8423    2728
CTETRA      4098       1   13676   13685   13677     192   14203   14205+
+          14204    4868    5844    4869
CTETRA      4099       1   11784     140   11785     182    6324    1908+
+          11802    8424    1912    1911
CTETRA      4100       1   13660   13673     533     178   14197    6988+
+           5460    5462    6989    5439
CTETRA      4101       1   17835   17836   11692     524   17848   11745+
+          11746    8425    7284    3797
CTETRA      4102       1   15983   15994   15984     326   16112   16111+
+          16113    2516    8282    2517
CTETRA      4103       1    1130     916     917    1068    8426    6887+
+           8427    8428    8429    7898
CTETRA      4104       1   15984   15994   15992     326   16111   16114+
+          16117    2517    8282    2531
CTETRA      4105       1   17837   17838   11690    1131   17846   11741+
+          11742    8430    8431    8432
CTETRA      4106       1   15983   15984   16017      31   16113   16277+
+          16276    1323    1315    1324
CTETRA      4107       1   13677   13686   13678     192   14214   14211+
+          14216    4869    4912    1956
CTETRA      4108       1   11778   11788   11787    1021   11813   11812+
+          11811    8433    7579    7578
CTETRA      4109       1   15261   15262   15265      31   15533   15543+
+          15542    3813    1696    6572
CTETRA      4110       1   11777   11778   11786     192   11809   11808+
+          11807    7380    7362    5397
CTETRA      4111       1   15260   15261   15266      33   15528   15544+
+          15545    6283    3812    3811
CTETRA      4112       1   15730     852      33     853    6350    8434+
+           7144    6353    6352    7567
CTETRA      4113       1   17001     770   13791     337    5777    5779+
+          14635    2559    8435    2560
CTETRA      4114       1   17784   16726   16709     547   16862   16861+
+          16860    3964    6564    5991
CTETRA      4115       1   16007   16009   16008     744   16179   16181+
+          16180    6338    5507    5729
CTETRA      4116       1   16708   16726     339     547   16866    5706+
+           2578    6563    6564    3954
CTETRA      4117       1   16017   16021   16018      33   16225   16224+
+          16226    1321    3778    6290
CTETRA      4118       1   15731     880     668     767    6619    8436+
+           4879    5714    6621    6427
CTETRA      4119       1   16019     247     442     475    2182    3413+
+           4751    4753    3825    3435
CTETRA      4120       1   15983   16017   16018      33   16276   16226+
+          16275    1322    1321    6290
CTETRA      4121       1   17785   16908   16916     351   16924   16959+
+          16958    5708    5698    5697
CTETRA      4122       1   16016     247   16019     475    3594    2182+
+          16218    6568    3825    4753
CTETRA      4123       1   16017   16022   16021     475   16230   16231+
+          16225    7138    3776    3775
CTETRA      4124       1   15251   15252   15307     668   15530   15702+
+          15701    5154    7107    5155
CTETRA      4125       1   15299     668     131     499    5156    5286+
+           6432    6487    6278    6421
CTETRA      4126       1   13556   13611   13610     317   13996   13998+
+          13997    5003    4099    4098
CTETRA      4127       1   15240   15241     234     512   15459    3960+
+           2135    4832    3961    3963
CTETRA      4128       1   17760   13574     547     598   13840    6260+
+           3973    7323    4358    8437
CTETRA      4129       1   16726     339     547     351    5706    3954+
+           6564    5707    3958    3957
CTETRA      4130       1   17747    1093   15046    1132    8438    8101+
+          15125    8439    8440    8441
CTETRA      4131       1   17695   15035   15033     365   15075   15074+
+          15071    6889    5475    6875
CTETRA      4132       1   13612     315      25     316    2479    6967+
+           8442    2483    2482    8443
CTETRA      4133       1   13618   13642   13745     460   14160   14446+
+          14445    4094    6850    3330
CTETRA      4134       1   16049     118     355     197    2749    2760+
+           2661    2782    5956    2783
CTETRA      4135       1   17829    1015    1018    1133    7553    7564+
+           7563    8444    8445    8446
CTETRA      4136       1   15047      23      25      24    8447    2380+
+           8448    8449    1292    1300
CTETRA      4137       1   17783   17784   16709     798   17800   16860+
+          16813    8450    5992    5994
CTETRA      4138       1   17306   12747   17307     177   12836   12837+
+          17338    1893    1895    7063
CTETRA      4139       1   17747   15046   15044    1132   15125   15124+
+          15123    8439    8441    8451
CTETRA      4140       1   17695   15033   17696    1134   15071   15070+
+          17699    8452    8453    8454
CTETRA      4141       1   16031   16032   16079     512   16322   16451+
+          16450    3697    3696    4230
CTETRA      4142       1   13573   13574   13594     547   13839   13919+
+          13920    3953    6260    3994
CTETRA      4143       1   16599   16600   16609     398   16624   16623+
+          16622    2934    2936    7050
CTETRA      4144       1   15210     118     355     364    7125    2760+
+           2744    2747    2763    2748
CTETRA      4145       1   17891   16608   17892    1116   16657   16658+
+          17901    8312    8311    8455
CTETRA      4146       1   17829   16598   16607     210   16650   16616+
+          16653    8456    7550    2016
CTETRA      4147       1   17765    1135   13602    1117    8457    8458+
+          13958    8307    8459    8308
CTETRA      4148       1   15740     747   15741    1112    6684    6683+
+          15806    8460    8279    8278
CTETRA      4149       1   13611      25   13612     315    5043    8442+
+          14010    2478    6967    2479
CTETRA      4150       1   12896   12902   12897     528   13108   13110+
+          13112    3828    4937    4649
CTETRA      4151       1   17828   16615    1022    1071   16673    7582+
+           7581    7920    7922    8461
CTETRA      4152       1   12131   12141      17     528   12409    1274+
+           4817    4791    4787    4650
CTETRA      4153       1   17828   17829   16607     776   17831   16653+
+          16652    5856    8250    5857
CTETRA      4154       1   17828     774     211    1073    7929    8462+
+           2024    7930    7932    8463
CTETRA      4155       1   15218   15224   15223     303   15375   15381+
+          15380    6386    5749    6381
CTETRA      4156       1   16084   16087   16088     301   16472   16476+
+          16475    4830    5405    5402
CTETRA      4157       1   17398   17399   13609    1072   17415   13986+
+          13987    7924    8245    7925
CTETRA      4158       1   17668   15865     308     953   15947    2737+
+           3318    8464    7124    8227
CTETRA      4159       1   16599   16608      47    1105   16619    8465+
+           8160    8173    8175    8466
CTETRA      4160       1   15200     112    1029    1028    1624    8467+
+           7628    7622    8468    7630
CTETRA      4161       1   15861     212     406     822    6132    2982+
+           8469    6133    6135    8470
CTETRA      4162       1    1136    1116    1117    1120    8471    8309+
+           8472    8473    8474    8475
CTETRA      4163       1   12878     477   12904     478    7236    7791+
+          13125    5601    3457    3465
CTETRA      4164       1   16607      80   16608     208    1491    1490+
+          16617    2013    8476    8323
CTETRA      4165       1   17828     211   17944    1073    2024    2026+
+          17832    7930    8463    8477
CTETRA      4166       1   13562   13570      89     780   13826    6505+
+           5873    5876    6510    5877
CTETRA      4167       1   17666   15863   17667    1137   15941   15942+
+          17687    8478    8479    8480
CTETRA      4168       1   16504   16505    1138    1139   16529    8481+
+           8482    8483    8484    8485
CTETRA      4169       1   15281   15282     111     406   15606    5543+
+           7694    8486    4131    5541
CTETRA      4170       1   16503   16504   16513     714   16525   16524+
+          16523    8487    7942    5292
CTETRA      4171       1   17878   16512   16513     902   16561   16522+
+          16562    7810    6755    7150
CTETRA      4172       1   15731     765     668     623    5700    7686+
+           4879    4498    5701    4881
CTETRA      4173       1   17455     561   15738     404    8488    4101+
+          15796    8209    8489    2973
CTETRA      4174       1   15739    1140     242     748    8490    8491+
+           2972    5551    8492    5552
CTETRA      4175       1   16058   16059   16090     242   16407   16488+
+          16490    7396    7397    8493
CTETRA      4176       1   15283   15292     406     243   15642    8419+
+           4111    8494    2164    8495
CTETRA      4177       1   15293     245   15296     239    6129    2175+
+          15658    5754    5487    2149
CTETRA      4178       1   16064   16072   16073     245   16419   16421+
+          16418    2169    2168    5492
CTETRA      4179       1   17696     914   15034     553    8263    6878+
+          15066    8256    7904    3990
CTETRA      4180       1   12131      17     478     528    4817    5611+
+           4788    4791    4650    4792
CTETRA      4181       1   17878   16513     716    1141   16562    5295+
+           7947    8496    8497    8498
CTETRA      4182       1   15228   15230   15229     300   15414   15415+
+          15413    2734    2730    3316
CTETRA      4183       1   16069   16075     242     405   16431    2976+
+           4803    8499    2991    2990
CTETRA      4184       1   15197   15291   15288     403   15633   15634+
+          15619    5621    5620    8402
CTETRA      4185       1   17933     512   15036     737    4840    7214+
+          15082    7265    7684    5467
CTETRA      4186       1   15291     405     403     755    5542    2988+
+           5620    5617    5619    8500
CTETRA      4187       1   15225   15232     112     115   15423    1625+
+           1631    1629    8337    1630
CTETRA      4188       1   15198   15199   15282     111   15396   15608+
+          15609    2995    4095    5543
CTETRA      4189       1   17695   15035     365     739   15075    5475+
+           6889    8501    5476    5478
CTETRA      4190       1   15198   15282   15291     111   15609   15636+
+          15635    2995    5543    5544
CTETRA      4191       1   16071   16076   16075     405   16430   16434+
+          16433    2987    4133    2991
CTETRA      4192       1   17694   15035   17695     739   15076   15075+
+          17700    6533    5476    8501
CTETRA      4193       1   17663   15862   17664    1142   15933   15931+
+          17685    8502    8503    8504
CTETRA      4194       1   16699   16721   16719      89   16841   16836+
+          16839    6748    1520    1519
CTETRA      4195       1   16512     901      89     902    6752    8505+
+           7361    6755    6754    8506
CTETRA      4196       1   16044   16045   16053     365   16323   16345+
+          16343    3708    6890    5982
CTETRA      4197       1   15204     118   15214     119    2664    2676+
+          15353    2651    1645    2679
CTETRA      4198       1   16503     839   16504     976    6246    8507+
+          16525    8508    8509    8510
CTETRA      4199       1   15866     308     300     458    2736    2457+
+           8511    3321    3320    8512
CTETRA      4200       1   16049   16050   16056     118   16353   16363+
+          16362    2749    5989    2750
CTETRA      4201       1   16512      89     779     902    7361    5874+
+           8513    6755    8506    8514
CTETRA      4202       1   17654   15852   15851     559   15873   15875+
+          15871    7966    4067    8515
CTETRA      4203       1   15740     890     747    1109    6685    6687+
+           6684    8211    8516    8517
CTETRA      4204       1   16080   16081   16084     513   16456   16486+
+          16479    7960    3703    4226
CTETRA      4205       1   15856     608   15857     611    6312    5582+
+          15905    8413    5584    4422
CTETRA      4206       1   17670   15868   17671    1143   15961   15962+
+          17691    8518    8519    8520
CTETRA      4207       1   15297     132   15298     718    3622    1711+
+          15671    5322    6575    5323
CTETRA      4208       1   17524   15856   15855     286   15901   15900+
+          15897    5685    2650    2649
CTETRA      4209       1   17537   15228   15220     301   15406   15408+
+          15366    4504    8236    4215
CTETRA      4210       1   17931   15241     512     579   15455    3961+
+           5780    8521    4231    4233
CTETRA      4211       1   16032   16043   16033     235   16313   16311+
+          16314    3699    3728    3727
CTETRA      4212       1   15217     513     303     234    5410    3702+
+           5746    7713    3706    3705
CTETRA      4213       1   15230     308     300     362    2727    2457+
+           2730    2728    8423    2729
CTETRA      4214       1   17670   16088   16087     301   16480   16476+
+          16482    5741    5402    5405
CTETRA      4215       1   15999   16002   16006     133   16151   16155+
+          16154    1703    6430    6425
CTETRA      4216       1   17712   16507   16506    1144   16589   16537+
+          16592    8522    8523    8524
CTETRA      4217       1   15265     326   15266      31    2515    2514+
+          15546    6572    2518    3814
CTETRA      4218       1   16505   16515   16514     189   16531   16530+
+          16528    1937    1939    2793
CTETRA      4219       1   15979   15980     403     672   16183    2967+
+           7054    8525    5514    5366
CTETRA      4220       1   15850    1145     212    1146    8526    8527+
+           8528    8529    8530    8531
CTETRA      4221       1   15721     367    1147    1148    5260    8532+
+           8533    8534    8535    8536
CTETRA      4222       1   16514     891    1149     982    6692    8537+
+           8538    7315    8539    8540
CTETRA      4223       1   17604   15721   17605    1150   15849   15744+
+          17627    8541    8542    8543
CTETRA      4224       1   17824     284   17938    1085    2341    2343+
+          17825    8042    8044    8544
CTETRA      4225       1   17316     640   12735    1151    5200    7192+
+          12777    8545    8546    8547
CTETRA      4226       1   17703   13402   13401     304   13498   13500+
+          13499    8548    8549    2441
CTETRA      4227       1   13572   13573   13593     351   13836   13915+
+          13916    5710    3956    5717
CTETRA      4228       1   17471   17472   15722    1099   17475   15747+
+          15749    8550    8142    8144
CTETRA      4229       1   17472   15721    1147    1148   15746    8533+
+           8551    8552    8534    8536
CTETRA      4230       1   17807   17605   15721     711   15742   15744+
+          15743    5262    8553    5263
CTETRA      4231       1   15304   15305     134     540   15692    4080+
+           2351    3926    3925    8178
CTETRA      4232       1   15998   16024   16023     132   16245   16246+
+          16240    6774    6488    6490
CTETRA      4233       1   17713   16506   16505     205   16591   16533+
+          16594    8554    7958    7957
CTETRA      4234       1   16022   16023   16024     499   16241   16246+
+          16244    3773    6491    6489
CTETRA      4235       1   15250   15299   15297     499   15675   15673+
+          15669    3626    6487    3620
CTETRA      4236       1   17570   15853     442     414   15882    6332+
+           3634    3053    6333    3636
CTETRA      4237       1   17932   15853   17653     877   15881   15879+
+          17675    6591    6593    7974
CTETRA      4238       1   17520   15298     135     718   15670    1715+
+           8555    5321    5323    6576
CTETRA      4239       1   15201     364   15202     725    7715    2746+
+          15331    8556    5363    5362
CTETRA      4240       1   17471   15722    1152    1099   15749    8557+
+           8558    8550    8144    8559
CTETRA      4241       1   12928      59      60     374    1409    1415+
+           6611    5612    5613    8560
CTETRA      4242       1   16507     709     708    1153    5250    5252+
+           5249    8561    8562    8563
CTETRA      4243       1   17807   15721   17930     712   15743   15745+
+          17809    5272    8564    8565
CTETRA      4244       1   17351   13401     305     371   13496    2444+
+           2443    2801    2803    8566
CTETRA      4245       1   15202   15210   15203     355   15335   15337+
+          15336    2745    2744    5960
CTETRA      4246       1   15723     727     364    1154    5380    5379+
+           5377    8567    8568    8569
CTETRA      4247       1   17410     310   15056     854    4998    4991+
+          15177    6376    8570    6377
CTETRA      4248       1   16507     708     304    1153    5249    8571+
+           8572    8561    8563    8573
CTETRA      4249       1   17763   13577   13576     122   13848   13851+
+          13850    2176    4110    2177
CTETRA      4250       1   17818      57     888    1070    1403    6679+
+           6675    7912    8574    8575
CTETRA      4251       1   17818     888     826    1070    6675    6674+
+           6148    7912    8575    7913
CTETRA      4252       1   17818      57   11773     505    1403    1405+
+          11827    8576    8577    3650
CTETRA      4253       1   17183   12111   12110     640   12309   12299+
+          12297    7191    5203    5192
CTETRA      4254       1   16699      89   16719     344    6748    1519+
+          16839    4390    6504    4824
CTETRA      4255       1   17819      29   11773    1155    1309    3265+
+          11824    8578    8579    8580
CTETRA      4256       1   17853   11789   11790     402   11844   11820+
+          11845    2963    8029    2964
CTETRA      4257       1   17894   16610   16611     425   16662   16631+
+          16663    8581    8582    3112
CTETRA      4258       1   17894   16611   17895     566   16663   16664+
+          17900    8583    4122    8584
CTETRA      4259       1   12926   12929   12934     444   13231   13235+
+          13234    5880    3246    5881
CTETRA      4260       1   17412    1156   13626    1113    8585    8586+
+          14031    8287    8587    8288
CTETRA      4261       1   13613   13615      25     214   14020    1298+
+           5042    2409    2475    2379
CTETRA      4262       1   17352     462   13401     463    7599    8588+
+          13497    3345    7600    8589
CTETRA      4263       1   17713    1144   16506    1157    8590    8524+
+          16591    8591    8592    8593
CTETRA      4264       1   16506    1157    1144    1158    8593    8592+
+           8524    8594    8595    8596
CTETRA      4265       1   17824      86   16511     284    7106    1538+
+          16580    2341    7862    2342
CTETRA      4266       1   17823      89   16512     746    5525    7361+
+          16557    5526    5528    8597
CTETRA      4267       1   17495   15244     119     535   15467    2059+
+           2058    3893    8253    6542
CTETRA      4268       1   13612      25   13614     316    8442    1297+
+          14014    2483    8443    8598
CTETRA      4269       1   17495     315   14724     323    6968    2485+
+          15002    8255    2506    2505
CTETRA      4270       1   17495      25   14714     315    5349    8104+
+          14975    6968    6967    8599
CTETRA      4271       1   17495   17496      25      23   17518    8103+
+           5349    3681    5015    2380
CTETRA      4272       1   16507      92   16508     621    1544    1543+
+          16541    8600    4475    4474
CTETRA      4273       1   16506   16507     307    1144   16537    8601+
+           8602    8524    8523    8603
CTETRA      4274       1   14647   14698   14700     293   14905   14907+
+          14906    2394    5637    5802
CTETRA      4275       1   14648   14649   14694     294   14860   14882+
+          14896    2401    5828    5827
CTETRA      4276       1   17756   13562     779     780   13794    5875+
+           8604    6509    5876    5878
CTETRA      4277       1   17754   13792   13708     306   14639   14638+
+          14330    2447    8605    2448
CTETRA      4278       1   17754   13789   13792     892   14622   14641+
+          14639    8606    6693    8607
CTETRA      4279       1   14645     171   14646     376    1864    3012+
+          14845    8094    3015    3014
CTETRA      4280       1   13787     169     170     546    1856    1853+
+           1855    3949    3948    8608
CTETRA      4281       1   13764   13779   13776      68   14570   14572+
+          14564    3101    3102    1438
CTETRA      4282       1   14663   14668     543     544   14785    3937+
+           8024    7766    3938    3940
CTETRA      4283       1   13714   13763   13749     481   14515   14519+
+          14521    7472    3484    3500
CTETRA      4284       1   16703   16713   16711      97   16800   16795+
+          16798    1662    1663    1559
CTETRA      4285       1   13559   13560   13604     298   13817   13962+
+          13961    5946    6063    2416
CTETRA      4286       1   16050   16057     118     197   16370    1644+
+           5989    1966    3972    5956
CTETRA      4287       1   16044   16053   16047     355   16343   16344+
+          16325    3724    2660    2659
CTETRA      4288       1   17148     229     225     226    3419    2124+
+           2102    2104    6042    2105
CTETRA      4289       1   17783   16709   16715      98   16813   16812+
+          16811    5995    5668    1563
CTETRA      4290       1   15723    1154     728    1159    8567    8609+
+           5381    8610    8611    8612
CTETRA      4291       1   16612     121     452     840    3141    4398+
+           6251    6249    8613    6250
CTETRA      4292       1   13576   13588   13587      97   13894   13892+
+          13893    1642    1659    1643
CTETRA      4293       1   13564   13586   13588      97   13885   13891+
+          13889    1655    4106    1659
CTETRA      4294       1   13682     124   13699     236    1670    7508+
+          14291    2141    2140    3442
CTETRA      4295       1   11899     474     225     467    3445    3428+
+           3418    3447    3440    3405
CTETRA      4296       1   13680     694     474     227    5680    5681+
+           3751    3752    5927    3753
CTETRA      4297       1   13584   13586   13585     207   13882   13881+
+          13883    3978    2021    2574
CTETRA      4298       1   16602   16611     122     121   16632    3110+
+           4109    3303    3111    1665
CTETRA      4299       1   16601     122   16610     531    7142    3782+
+          16627    8614    7911    3861
CTETRA      4300       1   13689   13693   13699     215   14262   14312+
+          14292    2063    3325    3324
CTETRA      4301       1   17890   16607   17891     208   16655   16656+
+          17905    2022    2013    8322
CTETRA      4302       1   17628      27     803    1160    7187    7190+
+           8615    8616    8617    8618
CTETRA      4303       1   13690   13691   13692      55   14248   14258+
+          14251    2035    3031    5515
CTETRA      4304       1   15283   15292   15290     406   15642   15643+
+          15638    4111    8419    2980
CTETRA      4305       1   17636      90   16720      88    5229    1535+
+          16852    2673    2389    4283
CTETRA      4306       1   16719      90     576     344    1534    4664+
+           6828    4824    4668    4667
CTETRA      4307       1   13572   13593   13596     345   13916   13930+
+          13928    4819    6173    2619
CTETRA      4308       1   13677   13678   13696     192   14216   14283+
+          14284    4869    1956    8619
CTETRA      4309       1   15256    1059     147     274    7851    8620+
+           1786    2284    7852    2285
CTETRA      4310       1   17147   11888     178     227   11977    5939+
+           5442    4182    5940    5436
CTETRA      4311       1   12165   12166     100     484   12501    5529+
+           3233    4290    4296    4291
CTETRA      4312       1   17146     138     533     178    7085    3867+
+           4266    5463    1898    5439
CTETRA      4313       1   13672   13673   13695     533   14198   14279+
+          14280    4590    6988    5438
CTETRA      4314       1   17637     273     276     147    2281    2298+
+           2293    2283    2282    2295
CTETRA      4315       1   14651   14657   14652     169   14739   14741+
+          14740    1851    3744    3743
CTETRA      4316       1   13774   13775   13777      65   14562   14575+
+          14569    5110    1432    2721
CTETRA      4317       1   17632   16041   16038     424   16285   16290+
+          16284    3103    3105    4528
CTETRA      4318       1   13548   13581   13549     148   13859   13864+
+          13867    2391    4956    4953
CTETRA      4319       1   16510     279      87     280    2322    3914+
+           2805    2330    2329    2952
CTETRA      4320       1   13547   13773   13753      88   14545   14544+
+          14539    3668    3671    3669
CTETRA      4321       1   16511      86     900     285    1538    8621+
+           6738    2345    8622    6740
CTETRA      4322       1   13548   13582   13581      90   13856   13860+
+          13859    2390    1526    4955
CTETRA      4323       1   17504   15253   15273     276   15497   15578+
+          15576    2297    2303    5404
CTETRA      4324       1   17936      24   17628     551    7188    1290+
+          17652    8623    8258    3982
CTETRA      4325       1   17928     536   17495     927    8624    3895+
+          17519    8625    7227    6969
CTETRA      4326       1   16603     605     121     809    4399    4401+
+           3140    6053    6052    8626
CTETRA      4327       1   12082   12090      61      60   12215    4654+
+           1413    1411    8064    1412
CTETRA      4328       1   16611     121   16612     566    3111    3141+
+          16635    4122    4124    8627
CTETRA      4329       1   12619      60     584     586    4742    7857+
+           4253    5207    5860    5208
CTETRA      4330       1   16601      81     122      82    1493    8628+
+           7142    1496    1495    7818
CTETRA      4331       1   15210   15212   15211     364   15332   15334+
+          15333    2747    7716    5795
CTETRA      4332       1   15722     364     843     844    5376    8232+
+           6284    6287    8629    6288
CTETRA      4333       1   13560     214   13604     298    7298    2408+
+          13962    6063    2417    2416
CTETRA      4334       1   12884     484     485     883    6660    4295+
+           6659    8630    8631    6658
CTETRA      4335       1   13560   13616   13604     214   14019   14018+
+          13962    7298    3912    2408
CTETRA      4336       1   16050   16057   16056     118   16370   16369+
+          16363    5989    1644    2750
CTETRA      4337       1   17496      25      23     292    8103    2380+
+           5015    3902    2381    2383
CTETRA      4338       1   17939   16606     865    1111   16677    6517+
+           8632    8633    8247    8249
CTETRA      4339       1   12079   12080   12161     259   12272   12481+
+          12482    5060    5062    2232
CTETRA      4340       1   16614     867      27    1114    6522    6524+
+           6521    8296    8295    8303
CTETRA      4341       1   17761   13575   13574      98   13843   13842+
+          13841    4354    2003    4355
CTETRA      4342       1   17761   17762   13575     799   17773   13844+
+          13843    6008    8634    5998
CTETRA      4343       1   14668   14669   14672     543   14787   14803+
+          14804    3937    7469    7423
CTETRA      4344       1   17357   13398   13396    1004   13476   13479+
+          13478    7793    7479    7478
CTETRA      4345       1   17896   16612   16613     841   16666   16639+
+          16667    7080    6252    6990
CTETRA      4346       1   12958     486     446     259    3517    5333+
+           5063    5065    5061    3253
CTETRA      4347       1   12951     255   12953      99    2208    5532+
+          13302    2258    5068    5388
CTETRA      4348       1   13736   13737   13738     544   14426   14433+
+          14441    4596    4004    4018
CTETRA      4349       1   17387   13397   17388     629   13490   13473+
+          17395    7456    4538    4537
CTETRA      4350       1   13396     482    1161    1162    7477    8635+
+           8636    8637    8638    8639
CTETRA      4351       1   17177   17178   12744     750   17201   12825+
+          12826    8640    5563    5565
CTETRA      4352       1   12606     485   12607     825    6144    6661+
+          12643    6145    6147    7853
CTETRA      4353       1   12732     126   12733     128    1681    2507+
+          12760    1682    1684    2572
CTETRA      4354       1   12945   12954   12952     101   13304   13305+
+          13300    2596    7137    2265
CTETRA      4355       1   17178   17179   12745     258   17199   12820+
+          12821    8182    7728    2229
CTETRA      4356       1   16598   16599   16608      47   16620   16619+
+          16618    8159    8160    8465
CTETRA      4357       1   12167   12169   12173     255   12512   12531+
+          12529    5521    5066    5522
CTETRA      4358       1   17312   12745   12730     692   12823   12822+
+          12819    8641    6404    5117
CTETRA      4359       1   17746   17747   15044    1163   17749   15123+
+          15118    8642    8643    8644
CTETRA      4360       1   16708   16709     547     207   16829    5991+
+           6563    2566    8645    6565
CTETRA      4361       1   12606     255     825     955    5896    6146+
+           6145    7157    8646    7158
CTETRA      4362       1   17765    1135    1117    1120    8457    8459+
+           8307    8326    8647    8475
CTETRA      4363       1   16600   16610   16609     943   16626   16625+
+          16623    7051    8648    7052
CTETRA      4364       1   17779      47   16913      48    1368    8649+
+          16944    1369    1371    8650
CTETRA      4365       1   17276   12937   12931     558   13247   13251+
+          13252    6334    4634    4639
CTETRA      4366       1   17344   17345   12931     816   17347   13220+
+          13217    8651    6111    6113
CTETRA      4367       1   12959   12961     126     216   13335    3885+
+           6163    2075    4314    5245
CTETRA      4368       1   12096   12097   12122     126   12248   12340+
+          12343    8652    1687    5762
CTETRA      4369       1   12121     126   12122     216    6922    5762+
+          12344    6923    5245    5763
CTETRA      4370       1   12117   12121   12120     153   12336   12339+
+          12327    6926    6924    6854
CTETRA      4371       1   16994   13682   16995     125   14231   14232+
+          17009    2288    1671    8653
CTETRA      4372       1   12864   12865   12910      19   12998   13148+
+          13149    4310    5800    1488
CTETRA      4373       1   12613   12614      20     631   12665    7098+
+           4544    4547    6999    4548
CTETRA      4374       1   17838     987   11690    1131    8654    7351+
+          11741    8431    8655    8432
CTETRA      4375       1   12141   12142   12145      18   12413   12423+
+          12422    1275    5831    4809
CTETRA      4376       1   12611      17   12612     665    4805    4798+
+          12659    4827    4829    8352
CTETRA      4377       1   17813     417   17941    1030    3060    8656+
+          17817    7632    8657    8658
CTETRA      4378       1   17813   11687   17941     417   11733   11734+
+          17817    3060    3062    8656
CTETRA      4379       1   12134   12144   12152      20   12430   12452+
+          12454    7426    1280    1981
CTETRA      4380       1   17243   12610   12611     845   12654   12656+
+          12655    8348    6291    6293
CTETRA      4381       1   17152   12153   17153     254   12456   12457+
+          17159    4477    2204    3479
CTETRA      4382       1   12148   12151   12150     503   12447   12444+
+          12445    5804    3640    3639
CTETRA      4383       1   17242   12609   12610      77   12651   12653+
+          12652    7797    8659    1475
CTETRA      4384       1   12133   12134   12152     194   12379   12454+
+          12455    1972    5352    1973
CTETRA      4385       1   17241      77   12881    1164    8660    8661+
+          13052    8662    8663    8664
CTETRA      4386       1   12610      77      76    1052    1475    1477+
+           1474    7800    7799    8665
CTETRA      4387       1   16994   13683   13682     123   14230   14233+
+          14231    2287    7519    1668
CTETRA      4388       1   17153   11878   11879      50   11942   11947+
+          11946    7061    7756    6744
CTETRA      4389       1   17309   12748   17310     267   12844   12843+
+          17339    5179    2255    8339
CTETRA      4390       1   17151      49      55      63    1425    2034+
+           5766    1426    1427    2048
CTETRA      4391       1   14655     102   14684     426    5512    4606+
+          14851    5513    4610    4609
CTETRA      4392       1   13654   13692   13691      54   14260   14258+
+          14243    7326    5516    3030
CTETRA      4393       1   12947   12948   12958     446   13283   13319+
+          13321    3514    3513    5063
CTETRA      4394       1   12614     956      20     957    7161    8666+
+           7098    7164    7163    8667
CTETRA      4395       1   17818    1165   11782     826    8668    8669+
+          11828    6148    8670    6149
CTETRA      4396       1   12889     100     485     484    4303    5530+
+           5535    3506    4291    4295
CTETRA      4397       1   12169     255   12171     250    5066    4455+
+          12520    5067    2209    6444
CTETRA      4398       1   12956     259     250     251    6826    3252+
+           2192    2195    2235    2196
CTETRA      4399       1   17244   12612   17245     662   12658   12660+
+          17266    8671    4800    6952
CTETRA      4400       1   12944   12945   12952     101   13269   13300+
+          13299    1571    2596    2265
CTETRA      4401       1   17069   11780   11779     834   11856   11819+
+          11855    7529    6222    6221
CTETRA      4402       1   12916   12918   12919     781   13162   13173+
+          13167    5884    7695    5885
CTETRA      4403       1   12916   12926   12934      60   13212   13234+
+          13236    5869    5868    5870
CTETRA      4404       1   12618     526     760     908    5053    7008+
+           5642    6803    8108    8672
CTETRA      4405       1   15862     406    1142    1166    4117    8673+
+           8503    8674    8675    8676
CTETRA      4406       1   17911   15055   17040     936   15175   15173+
+          17042    8677    7027    7026
CTETRA      4407       1   11780   11781   11790     594   11823   11822+
+          11821    8678    8679    8680
CTETRA      4408       1   11786     732     192    1167    5398    5400+
+           5397    8681    8682    8683
CTETRA      4409       1   17913   17154   12149     432   17156   12470+
+          12600    8684    3168    8076
CTETRA      4410       1   13719     156   13720       7    1795    3603+
+          14347    1796    1798    3597
CTETRA      4411       1   17284      62   17285     202    1417    3205+
+          17290    1989    5647    5510
CTETRA      4412       1   12114   12128   12127      59   12371   12369+
+          12365    6812    6615    6813
CTETRA      4413       1   11780   11781     594     595   11823    8679+
+           8678    7885    7884    4343
CTETRA      4414       1   17016   11874     278    1066   11926    2318+
+           2317    7888    7887    8685
CTETRA      4415       1   17016     278   11875     385    2317    2319+
+          11930    8686    8687    2882
CTETRA      4416       1   12180   12188     484      74   12587    4302+
+           4181    1463    7475    4910
CTETRA      4417       1   17016   11875   17017     385   11930   11932+
+          17030    8686    2882    8688
CTETRA      4418       1   17813      54     417    1030    3058    3061+
+           3060    7632    7634    8657
CTETRA      4419       1   12115   12119   12116      58   12323   12322+
+          12324    2821    2844    2843
CTETRA      4420       1   13662     480   13666     231    6573    6574+
+          14154    3476    3470    3854
CTETRA      4421       1   17153   12155     155     254   12464    3178+
+           3477    3479    3179    3181
CTETRA      4422       1   17278   17279   12915     582   17294   13158+
+          13159    4258    4244    4259
CTETRA      4423       1   13559   13566   13565     335   13814   13816+
+          13815    5947    6013    5948
CTETRA      4424       1   13630   13634     310     309   14070    3772+
+           3771    5253    2940    2461
CTETRA      4425       1   12934   12936   12935     444   13244   13245+
+          13241    5881    7725    6438
CTETRA      4426       1   17278   12915   12935     142   13159   13240+
+          13238    2946    4257    6439
CTETRA      4427       1   17284   14674     102     105   14805    4711+
+           1574    1608    4713    1588
CTETRA      4428       1   17055   11678   17056      45   11772   11731+
+          17066    7638    1363    5959
CTETRA      4429       1   11880     694     474     903    5129    5681+
+           5652    6756    7070    6757
CTETRA      4430       1   13680   13687   13688     694   14224   14234+
+          14236    5680    5672    5679
CTETRA      4431       1   12082   12092   12090      60   12209   12212+
+          12215    1411    5581    8064
CTETRA      4432       1   17019   11889   17020     706   11989   11988+
+          17027    5240    5242    5840
CTETRA      4433       1   17147   11882   11888     227   11979   11978+
+          11977    4182    3757    5940
CTETRA      4434       1   12617     526     632     934    5052    4556+
+           6534    7021    8689    7022
CTETRA      4435       1   12857   12870     632     195   12976    4964+
+           4842    4984    4973    4975
CTETRA      4436       1   13680   13681   13698     474   14237   14294+
+          14290    3751    3437    3427
CTETRA      4437       1   12869   12875   12873     194   13009   13011+
+          13010    4471    7094    7801
CTETRA      4438       1   13699     124     215     236    7508    2064+
+           3324    3442    2140    4672
CTETRA      4439       1   11882   11890   11888     227   11993   11991+
+          11978    3757    3756    5940
CTETRA      4440       1   17151      55   11891      63    5766    3024+
+          11999    1426    2048    3308
CTETRA      4441       1   11881   11882   11899     225   11995   12027+
+          12032    4187    2103    3418
CTETRA      4442       1   13695     226     178     227    2112    5440+
+           1906    2113    2115    5436
CTETRA      4443       1   13690      49   13693      55    2033    2046+
+          14261    2035    2034    2045
CTETRA      4444       1   13716   13717   13729     156   14352   14394+
+          14393    4329    3600    4330
CTETRA      4445       1   17145   12094   12093     142   12236   12244+
+          12226    1743    7267    7266
CTETRA      4446       1   12916     782     582     783    5890    8690+
+           7425    5891    5893    8260
CTETRA      4447       1   12868   12869   12873     194   12980   13010+
+          13005    4469    4471    7801
CTETRA      4448       1   12736     643     641     992    4686    4688+
+           4685    7386    8691    8692
CTETRA      4449       1   17181   12737   12738     382   12787   12794+
+          12789    7404    7836    2867
CTETRA      4450       1   12940   12947     641     642   13277    7195+
+           4676    7747    6807    4683
CTETRA      4451       1   16703     452     121      40    8089    4398+
+           1660    1664    6763    1653
CTETRA      4452       1   17313   12730   12738     691   12791   12790+
+          12792    5115    5114    6407
CTETRA      4453       1   12934     142     773    1168    5819    5822+
+           5821    8693    8694    8695
CTETRA      4454       1   12083   12090   12095     444   12217   12238+
+          12237    3229    4653    8696
CTETRA      4455       1   12077   12078   12171     253   12281   12515+
+          12513    4427    4428    4458
CTETRA      4456       1   11892     124     215      55    3309    2064+
+           3311    2062    2067    2066
CTETRA      4457       1   17317   12734   17318    1043   12772   12769+
+          17324    8697    7741    8218
CTETRA      4458       1   13653   13691   13683     410   14242   14244+
+          14229    7211    3028    4661
CTETRA      4459       1   17283   17284   12869     194   17288   12973+
+          12972    1960    1988    4471
CTETRA      4460       1   11888     227   11890     193    5940    3756+
+          11991    5842    4186    5843
CTETRA      4461       1   12096   12100   12097     126   12247   12249+
+          12248    8652    3888    1687
CTETRA      4462       1   17019   11883   11889     193   11959   11997+
+          11989    5238    4918    5239
CTETRA      4463       1   17184   12734     997     998   12767    7414+
+           7571    8698    7415    7417
CTETRA      4464       1   12109      36     129     640    5202    7198+
+           5188    5190    5204    5191
CTETRA      4465       1   12961   12969   12964      34   13365   13367+
+          13366    3886    1327    1699
CTETRA      4466       1   17071   11778   11777     991   11860   11809+
+          11859    7537    7382    7381
CTETRA      4467       1   12939   12947   12940     642   13278   13277+
+          13279    6805    6807    7747
CTETRA      4468       1   17819   11781      28      56   11850    8699+
+           1307    1402    1401    8700
CTETRA      4469       1   17915     537   11773    1169    3903    3905+
+          11825    8701    8702    8703
CTETRA      4470       1   16076   16077   16078     406   16436   16444+
+          16443    4134    8704    4135
CTETRA      4471       1   17919   12733   17187     203   12761   12759+
+          17194    1994    1993    6844
CTETRA      4472       1   17184   17185   12734     998   17190   12766+
+          12767    8698    8404    7415
CTETRA      4473       1   13674   13676   13677     181   14277   14204+
+          14278    4873    4867    4866
CTETRA      4474       1   17314   12738   12737     486   12793   12794+
+          12784    5122    5121    4689
CTETRA      4475       1   12963     129   12967     127    1691    2056+
+          13350    1692    1693    7000
CTETRA      4476       1   13696     181     192     178    5437    4870+
+           8619    1907    4877    1955
CTETRA      4477       1   13622   13623   13664     136   14057   14134+
+          14135    1720    2458    1724
CTETRA      4478       1   12136   12139     620     195   12388    4981+
+           6035    6034    4982    4974
CTETRA      4479       1   11876   11879   11877      43   11949   11954+
+          11955    1394    6745    1395
CTETRA      4480       1   13649   13693      49      63   14265    2046+
+           5769    1430    2047    1427
CTETRA      4481       1   12136   12139   12138     620   12388   12390+
+          12389    6035    4981    6954
CTETRA      4482       1   12934     773      60    1170    5821    5872+
+           5870    8705    8706    8707
CTETRA      4483       1   14690   14704   14703     459   14923   14926+
+          14911    3339    6577    6965
CTETRA      4484       1   13674     181   13696     178    4873    5437+
+          14285    4888    4877    1907
CTETRA      4485       1   12618     760   12619     777    5642    8708+
+          12680    7859    8709    5861
CTETRA      4486       1   11775   11776     140     831   11801    7154+
+           6323    6209    8710    8711
CTETRA      4487       1   17073   11776   11775     831   11864   11801+
+          11863    6208    8710    6209
CTETRA      4488       1   17148   17149     472     573   17165    3406+
+           6041    4165    4845    4585
CTETRA      4489       1   12077   12101   12078     447   12259   12280+
+          12281    4426    3262    4272
CTETRA      4490       1   17226     502   12907     913    8712    6977+
+          13136    6873    7217    6874
CTETRA      4491       1   13386     502     503    1046    8713    3641+
+           4578    7761    8714    7762
CTETRA      4492       1   17757   16918   16915     344   16965   16967+
+          16962    6511    7965    7964
CTETRA      4493       1   16504   16505   16514     891   16529   16528+
+          16527    8715    6690    6692
CTETRA      4494       1   17092   13385   13386    1036   13421   13420+
+          13417    8716    7683    8717
CTETRA      4495       1   12909     502     504     528    3643    3647+
+           3646    3837    4577    3829
CTETRA      4496       1   16699   16702      89     863   16767    6749+
+           6748    6500    6499    6760
CTETRA      4497       1   17785   17786   16727     352   17802   16872+
+          16871    5709    6559    2640
CTETRA      4498       1   12144     437   12152      20    3198    7795+
+          12452    1280    5176    1981
CTETRA      4499       1   16724   16725   16728     256   16865   16873+
+          16875    4198    4210    4213
CTETRA      4500       1   17226   13385   13387     502   13419   13425+
+          13423    8712    7680    7238
CTETRA      4501       1   17224     433   12906     434    8718    3171+
+          13132    7765    3175    3174
CTETRA      4502       1   13571     345     344    1084    2618    2620+
+           2617    8033    8719    8034
CTETRA      4503       1   12863   12874   12864      20   12992   12991+
+          12993    7102    7805    4311
CTETRA      4504       1   12151      19     502     503    4613    4575+
+           3637    3640    5783    3641
CTETRA      4505       1   17384   13400   13396    1171   13495   13494+
+          13481    8720    8721    8722
CTETRA      4506       1   12865   12872   12877     437   12999   13020+
+          13019    4336    5174    3202
CTETRA      4507       1   17759   13573     351     549   13837    3956+
+           5696    7293    3976    7689
CTETRA      4508       1   17091   13386   13384     633   13415   13414+
+          13416    7454    4580    8723
CTETRA      4509       1   12148   12150   12149     503   12445   12437+
+          12446    5804    3639    4054
CTETRA      4510       1   17703     109   13402    1172    1602    1601+
+          13498    8724    8725    8726
CTETRA      4511       1   16506    1144     307    1158    8524    8603+
+           8602    8594    8596    8727
CTETRA      4512       1   17351      70   13708      71    1455    8728+
+          14326    1457    1456    1945
CTETRA      4513       1   12905   12907   12908     502   13139   13143+
+          13142    6978    6977    5830
CTETRA      4514       1   13717   13729     156     163   14394    4330+
+           3600    3601    1831    1840
CTETRA      4515       1   17305   12746   17306     219   12830   12831+
+          17336    2085    2084    8729
CTETRA      4516       1   12747     104   12749     588    3237    2600+
+          12848    4278    8730    4279
CTETRA      4517       1   17351      72     959     305    1458    8731+
+           8732    2443    2452    8733
CTETRA      4518       1   17356   17357   13396     476   17377   13478+
+          13491    3448    7792    3449
CTETRA      4519       1   12887   12893   12894     574   13083   13089+
+          13085    4320    6806    4321
CTETRA      4520       1   17172   12746   12739     429   12833   12832+
+          12829    5723    5732    4905
CTETRA      4521       1   12872     437      19      20    5174    3200+
+           4309    4312    5176    1279
CTETRA      4522       1   16708   16726   16725     339   16866   16867+
+          16864    2578    5706    4208
CTETRA      4523       1   17784   17785   16726    1096   17801   16868+
+          16862    8126    8734    8127
CTETRA      4524       1   16726     351     547    1096    5707    3957+
+           6564    8127    8735    8128
CTETRA      4525       1   13585   13592   13590     184   13905   13913+
+          13911    2573    3377    2585
CTETRA      4526       1   13574   13575   13584      98   13842   13877+
+          13878    4355    2003    2004
CTETRA      4527       1   17917   13388   17094     971   13433   13432+
+          17098    7497    7255    7254
CTETRA      4528       1   15195   15209   15196     183   15321   15323+
+          15322    2613    4928    1919
CTETRA      4529       1   16707   16708   16725     339   16818   16864+
+          16863    3384    2578    4208
CTETRA      4530       1   17829   16615   16606     866   16674   16648+
+          16675    7918    7584    6518
CTETRA      4531       1   17241      74   12884    1173    8736    8068+
+          13051    8737    8738    8739
CTETRA      4532       1   12188     484      74     883    4302    4910+
+           7475    6657    8631    7518
CTETRA      4533       1   12602      35   12603     686    1343    5097+
+          12631    5078    5080    6823
CTETRA      4534       1   12180   12181   12189      74   12562   12593+
+          12591    1463    1465    6450
CTETRA      4535       1   16605   16606   16614      27   16646   16645+
+          16644    7189    6515    6521
CTETRA      4536       1   17829     210   16607    1101    8456    2016+
+          16653    8740    8151    8150
CTETRA      4537       1   13575   13587   13584      96   13887   13886+
+          13877    2001    4105    2002
CTETRA      4538       1   17639   16696      84     291   16747    8741+
+           3718    2374    7640    5414
CTETRA      4539       1   16083   16085   16087     300   16465   16473+
+          16470    2438    2454    3667
CTETRA      4540       1   16612     121     840    1174    3141    8613+
+           6249    8742    8743    8744
CTETRA      4541       1   15225     308     115     116    2740    8336+
+           1629    1632    2742    1633
CTETRA      4542       1   17241   12609    1164    1173   12649    8745+
+           8662    8737    8746    8747
CTETRA      4543       1   12075   12088     526     573   12194    4565+
+           4554    4167    4166    4566
CTETRA      4544       1   16059   16090     242     117   16488    8493+
+           7397    7387    5537    2162
CTETRA      4545       1   15280   15285     609     608   15613    5586+
+           4417    4415    5587    4416
CTETRA      4546       1   12868   12871   12870     620   12987   12986+
+          12979    4467    4966    4965
CTETRA      4547       1   15219   15223   15222     747   15382   15384+
+          15383    8056    6383    6628
CTETRA      4548       1   17763   13577     122    1175   13848    4110+
+           2176    8748    8749    8750
CTETRA      4549       1   12615     620     856    1000    6015    8751+
+           6457    7441    7535    8752
CTETRA      4550       1   15739     747     242    1044    5550    5549+
+           2972    7746    8753    8204
CTETRA      4551       1   16082   16083   16091     747   16464   16495+
+          16493    5538    6626    6682
CTETRA      4552       1   17112   12613     630     631   12705    4546+
+           8754    6972    4547    4549
CTETRA      4553       1   15225     312   15231     308    2738    3315+
+          15421    2740    2739    2726
CTETRA      4554       1   17454   15738   15739     404   15798   15800+
+          15799    8208    2973    2975
CTETRA      4555       1   12904     477      75     478    7791    5316+
+           6446    3465    3457    7521
CTETRA      4556       1   15281   15283   15282     406   15605   15607+
+          15606    8486    4111    4131
CTETRA      4557       1   16059   16068   16067     117   16402   16403+
+          16398    7387    2161    1637
CTETRA      4558       1   15225   15226   15231     312   15398   15420+
+          15421    2738    3313    3315
CTETRA      4559       1   15198   15221   15227     242   15400   15405+
+          15395    2993    7646    2994
CTETRA      4560       1   15222     117     242     747    6629    2162+
+           8341    6628    5540    5549
CTETRA      4561       1   12098   12103   12099      35   12260   12262+
+          12265    1359    1354    8342
CTETRA      4562       1   16066   16067   16078     112   16396   16441+
+          16442    7720    1612    1614
CTETRA      4563       1   15197     242   15291     756    6622    5616+
+          15633    5622    8755    5623
CTETRA      4564       1   15225   15231   15232     308   15421   15427+
+          15423    2740    2726    8223
CTETRA      4565       1   17632   16716     184     335   16823    2568+
+           1921    2554    5944    2555
CTETRA      4566       1   13579   13591   13592     184   13908   13910+
+          13907    6365    2588    3377
CTETRA      4567       1   17632     221     335     338    3605    5908+
+           2554    2562    3606    5949
CTETRA      4568       1   16710     207   16716     335    2009    2565+
+          16831    4749    2576    5944
CTETRA      4569       1   13565   13566   13585     335   13816   13876+
+          13875    5948    6013    2575
CTETRA      4570       1   17184   12734   12735     997   12767   12775+
+          12773    7571    7414    8756
CTETRA      4571       1   12735     640     129    1151    7192    5191+
+           7740    8547    8546    8757
CTETRA      4572       1   13558     298     221     335    6641    5905+
+           7062    6012    5909    5908
CTETRA      4573       1   13558   13567   13566     335   13801   13812+
+          13811    6012    7847    6013
CTETRA      4574       1   12108   12110   12109     129   12294   12295+
+          12293    6996    5189    5188
CTETRA      4575       1   17631   17632   16038     424   17647   16284+
+          16283    7833    3103    4528
CTETRA      4576       1   16709     547      98     798    5991    6261+
+           5668    5994    5993    8758
CTETRA      4577       1   17317   12735   12734    1043   12776   12775+
+          12772    8697    7742    7741
CTETRA      4578       1   16028   16029   16030      30   16265   16271+
+          16270    3841    6294    1314
CTETRA      4579       1   15297     442     132     415    3623    3625+
+           3622    3049    8759    6785
CTETRA      4580       1   16019   16023   16022     442   16238   16241+
+          16229    4751    6594    4752
CTETRA      4581       1   13406   13407     130     496   13532    3846+
+           2185    3588    5073    3589
CTETRA      4582       1   12879   12882   12886     510   13031   13035+
+          13034    5318    5314    6114
CTETRA      4583       1   16015   16029     130     247   16266    2681+
+           3430    2183    3642    3824
CTETRA      4584       1   17169   17170   12742     719   17207   12817+
+          12808    7277    7627    5325
CTETRA      4585       1   12893      73     429     574    3164    3149+
+           5736    6806    4172    5138
CTETRA      4586       1   17170   17171   12743     830   17208   12811+
+          12812    6196    8760    6197
CTETRA      4587       1   12158   12159   12183     429   12477   12560+
+          12559    3147    5142    3148
CTETRA      4588       1   17712     709   16507    1153    5490    5250+
+          16589    8761    8562    8561
CTETRA      4589       1   17894     425   16611     566    8581    3112+
+          16663    8583    4123    4122
CTETRA      4590       1   12869     620     195     194    4468    4974+
+           6040    4471    4470    1961
CTETRA      4591       1   12614     806    1031    1002    8762    8763+
+           7644    7459    8764    8765
CTETRA      4592       1   17246   12614    1031    1002   12664    7644+
+           7643    7636    7459    8765
CTETRA      4593       1   12858   12920   12921     526   13183   13172+
+          13180    4560    3804    4561
CTETRA      4594       1   16712   16713   16714     122   16797   16807+
+          16806    8135    1666    7305
CTETRA      4595       1   12136     620   12137     194    6035    6955+
+          12391    5351    4470    7796
CTETRA      4596       1   13385     502   13386    1036    7680    8713+
+          13420    7683    7682    8717
CTETRA      4597       1   15302   15305   15306     133   15690   15694+
+          15693    1714    4079    6584
CTETRA      4598       1   12868   12870   12869     620   12979   12978+
+          12980    4467    4965    4468
CTETRA      4599       1   17577     601   13407    1176    6307    4374+
+          13525    8766    8767    8768
CTETRA      4600       1   17224   17225   12905     928   17231   13135+
+          13134    8769    7624    6979
CTETRA      4601       1   15251      33     499     475    6282    3777+
+           6485    6486    3779    3627
CTETRA      4602       1   17932   13409   17570     442   13542   13543+
+          17571    6331    3575    3634
CTETRA      4603       1   17304   12743   12739     575   12814   12813+
+          12809    4193    4195    7869
CTETRA      4604       1   12884      73   12888     484    7664    3162+
+          13064    6660    4175    4174
CTETRA      4605       1   12181      75     509     510    1466    3684+
+           3683    4903    5219    3687
CTETRA      4606       1   12179   12187   12182      75   12583   12585+
+          12584    6115    1467    5217
CTETRA      4607       1   15273   15274   15275     327   15583   15587+
+          15586    6167    6782    6168
CTETRA      4608       1   15253   15254   15272     147   15499   15574+
+          15575    2304    5412    5406
CTETRA      4609       1   12864      19   12910      18    4310    1488+
+          13149    5832    1282    5833
CTETRA      4610       1   13547      87      86      88    1529    1514+
+           1531    3668    1518    1517
CTETRA      4611       1   12130   12179   12177     478   12555   12553+
+          12549    4789    3456    3455
CTETRA      4612       1   17537   15868   15867     301   15964   15963+
+          15960    4504    5421    2432
CTETRA      4613       1   17670     301   15868    1143    5741    5421+
+          15961    8518    8770    8519
CTETRA      4614       1   17585   15741     893    1177   15809    6697+
+           8771    8772    8773    8774
CTETRA      4615       1   17632   16716   17633     184   16823   16822+
+          17648    1921    2568    1922
CTETRA      4616       1   12183     509      73     429    3692    3685+
+           3145    3148    3695    3149
CTETRA      4617       1   12887   12888   12893     574   13060   13082+
+          13083    4320    4173    6806
CTETRA      4618       1   13641     150     393     166    3142    2914+
+           3144    4501    1830    4487
CTETRA      4619       1   17173   12747     574     445   12839    4304+
+           6165    5187    3240    7503
CTETRA      4620       1   12158   12183   12180      73   12559   12561+
+          12557    3146    3145    1461
CTETRA      4621       1   12886   12891      73     509   13074    3163+
+           1504    7617    4900    3685
CTETRA      4622       1   17521   15306   17522     875   15696   15698+
+          17559    7642    6585    8184
CTETRA      4623       1   12160   12165   12164     104   12493   12494+
+          12491    6136    3235    6137
CTETRA      4624       1   12181   12183   12185     509   12563   12571+
+          12568    3683    3692    4902
CTETRA      4625       1   16022   16023     499     442   16241    6491+
+           3773    4752    6594    3624
CTETRA      4626       1   12891   12892   12893     429   13077   13081+
+          13080    4901    7135    5736
CTETRA      4627       1   14716   14717   14725     460   14969   15004+
+          15006    5166    4519    4645
CTETRA      4628       1   17234   12603   17235     689   12630   12632+
+          17256    8775    5092    5091
CTETRA      4629       1   12158   12160   12159     574   12476   12475+
+          12477    5143    7465    5144
CTETRA      4630       1   14719     465   14729     393    3355    5459+
+          15019    3157    4169    2913
CTETRA      4631       1   15852     132     559    1078    4065    4068+
+           4067    7979    8776    8183
CTETRA      4632       1   17528     237   15295     241    8216    2145+
+          15656    8777    2156    2155
CTETRA      4633       1   17244   12612     662    1121   12658    4800+
+           8671    8778    8344    8346
CTETRA      4634       1   17529   15292   17530     243   15645   15644+
+          17553    8779    2164    8780
CTETRA      4635       1   12907   12909   12908     502   13144   13145+
+          13143    6977    3643    5830
CTETRA      4636       1   17529   15292     243     244   15645    2164+
+           8779    8781    2165    2167
CTETRA      4637       1   12865     437   12908      19    4336    4337+
+          13141    5800    3200    1486
CTETRA      4638       1   12133   12152   12153     198   12455   12459+
+          12458    1971    1970    2205
CTETRA      4639       1   17311   12745    1090    1092   12824    8085+
+           8084    8782    8096    8098
CTETRA      4640       1   17661   15860   17662    1178   15918   15919+
+          17683    8783    8784    8785
CTETRA      4641       1   12872     198      20     194    5175    1982+
+           4312    7093    1974    1983
CTETRA      4642       1   12147   12151   12148     503   12450   12447+
+          12451    5805    3640    5804
CTETRA      4643       1   17664   15862   15859     565   15931   15930+
+          15916    8786    4120    4119
CTETRA      4644       1   12142   12151   12145      19   12441   12442+
+          12423    4576    4613    4395
CTETRA      4645       1   12142   12143     502     504   12421    3654+
+           4574    3832    6930    3647
CTETRA      4646       1   12177     478     477     479    3455    3457+
+           3454    4943    3462    5603
CTETRA      4647       1   17663   15861   15862     822   15924   15934+
+          15933    8787    6133    8788
CTETRA      4648       1   15277   15308     672     744   15706    5719+
+           5740    6602    5720    5509
CTETRA      4649       1   17807     712   17930     951    5272    8565+
+          17809    7114    8221    8789
CTETRA      4650       1   17452   15741     870    1112   15805    6545+
+           6544    8790    8278    8791
CTETRA      4651       1   15235   15239   15236     367   15443   15442+
+          15444    2770    5268    5267
CTETRA      4652       1   17807     666   15741    1086    5271    6696+
+          15808    8050    8407    8051
CTETRA      4653       1   15741     666     870    1112    6696    8792+
+           6545    8278    8280    8791
CTETRA      4654       1   12912   12924   12923     217   13196   13195+
+          13193    2072    5193    6815
CTETRA      4655       1   16033   16034   16089     666   16312   16484+
+          16483    5281    7699    6394
CTETRA      4656       1   17855     787   11787    1179    6725    5933+
+          11840    8793    8794    8795
CTETRA      4657       1   15235   15239     367     235   15443    5268+
+           2770    2777    2137    3729
CTETRA      4658       1   17342   17343   12925     646   17346   13198+
+          13197    6916    4700    4702
CTETRA      4659       1   17454    1140   15739     748    8796    8490+
+          15799    8355    8492    5551
CTETRA      4660       1   13611     317     295     679    4099    5035+
+           5016    5012    5014    5018
CTETRA      4661       1   13662     466     480     231    3475    3467+
+           6573    3476    3363    3470
CTETRA      4662       1   12934     444   12935     142    5881    6438+
+          13241    5819    4647    6439
CTETRA      4663       1   13637   13638   13640     465   14088   14099+
+          14095    5449    4171    5353
CTETRA      4664       1   12094     444   12095     142    6913    8696+
+          12240    7267    4647    7268
CTETRA      4665       1   12926   12929     444      61   13231    3246+
+           5880    5599    3247    3232
CTETRA      4666       1   12934     444    1168    1170    5881    8797+
+           8693    8705    8798    8799
CTETRA      4667       1   12090     444      61      60    4653    3232+
+           4654    8064    5882    1412
CTETRA      4668       1   12929   12936   12934     444   13242   13244+
+          13235    3246    7725    5881
CTETRA      4669       1   14690     460     459     461    3391    3329+
+           3339    3341    3333    3332
CTETRA      4670       1   17143   17144   11902     882   17167   12050+
+          12051    6652    8800    8801
CTETRA      4671       1   12918     582     583     869    4280    4250+
+           4282    6539    8802    6540
CTETRA      4672       1   17210   15038   15040     162   15092   15098+
+          15096    3071    3070    4510
CTETRA      4673       1   12911     159   12924     217    6494    7424+
+          13201    6929    3057    5193
CTETRA      4674       1   13620     480   13662     466    5453    6573+
+          14151    5454    3467    3475
CTETRA      4675       1   14648   14649     294     105   14860    5828+
+           2401    4632    5495    4071
CTETRA      4676       1   12119   12120   12122     216   12329   12342+
+          12341    5195    5758    5763
CTETRA      4677       1   13728   13730   13729     102   14396   14395+
+          14397    1585    5494    1833
CTETRA      4678       1   17433   14730   17434     149   15029   15028+
+          17442    6733    1769    3996
CTETRA      4679       1   12083   12095   12084     444   12237   12239+
+          12241    3229    8696    3244
CTETRA      4680       1   12165   12166   12176     100   12501   12537+
+          12539    3233    5529    3234
CTETRA      4681       1   17526   15858   15857     609   15913   15914+
+          15904    5558    8803    5583
CTETRA      4682       1   15981   15982   16063     609   16174   16383+
+          16384    5575    8804    8805
CTETRA      4683       1   13725   13726   13728     105   14376   14391+
+          14392    1593    1606    1587
CTETRA      4684       1   12859   12860   12953     255   13063   13297+
+          13295    7734    8380    5532
CTETRA      4685       1   13646     294     556     107    6793    4028+
+           8047    5824    4035    4034
CTETRA      4686       1   17283   14694   14649     107   14881   14882+
+          14880    1594    5430    5829
CTETRA      4687       1   17283     107   14649     105    1594    5829+
+          14880    1596    1595    5495
CTETRA      4688       1   14661   14662   14671     482   14756   14794+
+          14792    6201    6202    8262
CTETRA      4689       1   12860   12889   12861     100   13057   13056+
+          13058    5374    4303    1581
CTETRA      4690       1   17170   12743   12742     510   12812   12818+
+          12817    5312    3688    4221
CTETRA      4691       1   12963      36   12965     129    1332    6995+
+          13345    1691    7198    2055
CTETRA      4692       1   14652   14657   14660     168   14741   14749+
+          14746    3742    3498    3499
CTETRA      4693       1   14660   14669   14667     481   14781   14783+
+          14777    3497    6203    3502
CTETRA      4694       1   12952     250      99     251    2193    2260+
+           2259    2194    2196    2264
CTETRA      4695       1   17235   12603   12604     645   12632   12634+
+          12633    5910    6726    4698
CTETRA      4696       1   12103   12109   12106      36   12290   12291+
+          12284    1353    5202    7196
CTETRA      4697       1   13749     481   13750     517    3500    3483+
+          14520    7733    3892    3941
CTETRA      4698       1   14652   14660   14653     168   14746   14748+
+          14747    3742    3499    3917
CTETRA      4699       1   17506     482      12     954    6862    8806+
+           1249    7151    8807    7152
CTETRA      4700       1   17506   14662      15     482   14753    6200+
+           6230    6862    6202    6186
CTETRA      4701       1   13396     482     476    1004    7477    8808+
+           3449    7478    7480    7794
CTETRA      4702       1   17362   13394   13390     491   13457   13458+
+          13439    8809    3564    7760
CTETRA      4703       1   14657   14659   14658     517   14744   14736+
+          14745    3890    3769    3768
CTETRA      4704       1   13751   13772   13771     359   14541   14547+
+          14546    2787    2701    3764
CTETRA      4705       1   14676   14677      68     172   14830    1887+
+           1450    2311    1888    1889
CTETRA      4706       1   14645   14677     172     173   14835    1888+
+           1865    8088    3099    1868
CTETRA      4707       1   17355   13400    1180    1006   13493    8810+
+           8811    8812    7485    8813
CTETRA      4708       1   13779      68     176     172    3102    1886+
+           1880    1883    1889    1884
CTETRA      4709       1   13552   13740   13764     176   14453   14535+
+          14534    3518    3076    3100
CTETRA      4710       1   12739   12892     509     429    8814    7134+
+           4906    4905    7135    3695
CTETRA      4711       1   14658      15   14661     517    2808    6199+
+          14755    3768    8020    3891
CTETRA      4712       1   13550   13776   13775      67   14565   14566+
+          14561    2325    1441    1435
CTETRA      4713       1   13776   13779   13778      68   14572   14574+
+          14573    1438    3102    3519
CTETRA      4714       1   13714   13715   13763     481   14432   14514+
+          14515    7472    8014    3484
CTETRA      4715       1   13397     544     628     629    6390    6939+
+           4535    4538    6392    4539
CTETRA      4716       1   17385   13396    1161    1162   13480    8636+
+           8815    8816    8637    8639
CTETRA      4717       1   17506      15      10      12    6230    1265+
+           1246    1249    8817    1250
CTETRA      4718       1   13765   13782   13779     172   14581   14583+
+          14571    1882    1867    1883
CTETRA      4719       1   17704   13403   17934    1055   13509   13519+
+          17707    7825    7824    8818
CTETRA      4720       1   13764   13765   13779     176   14538   14571+
+          14570    3100    1881    1880
CTETRA      4721       1   13741     469     459     421    7074    3394+
+           6966    3083    8819    8820
CTETRA      4722       1   13740   13741   13765     173   14459   14532+
+          14537    3077    2710    2765
CTETRA      4723       1   17708   16510   17709     279   16584   16583+
+          17719    2320    2322    2327
CTETRA      4724       1   13767     408   13768     293    5808    6064+
+          14528    7442    3005    2386
CTETRA      4725       1   17355   17356   13400    1006   17378   13492+
+          13493    8812    7483    7485
CTETRA      4726       1   17364    1088   13395    1089    8821    8077+
+          13459    8822    8081    8080
CTETRA      4727       1   17364   13393   13395    1088   13456   13460+
+          13459    8821    8823    8077
CTETRA      4728       1   17355   13400   13405    1047   13493   13511+
+          13510    7769    8824    7770
CTETRA      4729       1   11776   11777   11785     181   11805   11804+
+          11803    2890    2889    1910
CTETRA      4730       1   13566   13592   13585     335   13904   13905+
+          13876    6013    3378    2575
CTETRA      4731       1   17287     155     163     165    3192    1839+
+           1820    1823    8069    1824
CTETRA      4732       1   17153   17154   11878       7   17157   11943+
+          11942    4334    1240    3480
CTETRA      4733       1   11681   11690       7     942   11708    1876+
+           4335    7047    7356    8825
CTETRA      4734       1   11785     181   11786     732    1910    5396+
+          11806    7527    5399    5398
CTETRA      4735       1   13670   13671   13702     472   14190   14305+
+          14301    5654    6044    6360
CTETRA      4736       1   17283     195     455     196    1962    5671+
+           3296    1963    1965    3299
CTETRA      4737       1   13698   13703   13701     467   14314   14302+
+          14309    3439    3371    3403
CTETRA      4738       1   17636   16720   17637      88   16852   16849+
+          17642    2673    4283    1516
CTETRA      4739       1   13770   13771   13780     517   14550   14579+
+          14616    5131    3765    5132
CTETRA      4740       1   17149     455   17150     454    3408    3369+
+          17166    3409    3368    3292
CTETRA      4741       1   17149   17150   11900     454   17166   12038+
+          12037    3409    3292    3417
CTETRA      4742       1   13693   13703   13699     454   14310   14313+
+          14312    3326    3373    3327
CTETRA      4743       1   13700   13701   13702     229   14307   14303+
+          14306    2123    2125    6361
CTETRA      4744       1   17813   11695   11686     410   11753   11727+
+          11754    5275    4782    3034
CTETRA      4745       1   17636   17637     273      88   17642    2281+
+           2280    2673    1516    2674
CTETRA      4746       1   17171   17172   12739     671   17206   12829+
+          12815    7870    7807    4907
CTETRA      4747       1   13693   13694   13703     454   14269   14311+
+          14310    3326    5651    3373
CTETRA      4748       1   17145     138   17146     178    1746    7085+
+          17162    1896    1898    5463
CTETRA      4749       1   17278   17279     138     231   17294    3868+
+           5826    3469    7373    3855
CTETRA      4750       1   13593     256   13596     345    6172    4203+
+          13930    6173    6174    2619
CTETRA      4751       1   17758     345   13571    1084    4820    2618+
+          13832    8046    8719    8033
CTETRA      4752       1   13660   13674   13673     178   14199   14200+
+          14197    5462    4888    6989
CTETRA      4753       1   16699   16700   16721      89   16773   16842+
+          16841    6748    6750    1520
CTETRA      4754       1   16503   16513   16512     714   16523   16522+
+          16521    8487    5292    7148
CTETRA      4755       1   17404   13635     166    1094   14081    5153+
+           5162    8826    8110    8112
CTETRA      4756       1   17659   15858   17660    1181   15909   15908+
+          17681    8827    8828    8829
CTETRA      4757       1   14714     317   14723     315    8830    8171+
+          14989    8599    2488    2486
CTETRA      4758       1   12886   12890     509     510   13071    7657+
+           7617    6114    5313    3687
CTETRA      4759       1   16710   16717   16716     207   16830   16832+
+          16831    2009    3375    2565
CTETRA      4760       1   13617   13618     460     471   14107    4094+
+           4093    3399    3401    5167
CTETRA      4761       1   16998   13686   16999     761   14219   14218+
+          17005    5660    5659    5847
CTETRA      4762       1   13572     351   13593     345    5710    5717+
+          13916    4819    2638    6173
CTETRA      4763       1   13613   13616   13615     214   14022   14023+
+          14020    2409    3912    2475
CTETRA      4764       1   17404   15050   15052     166   15146   15157+
+          15156    5162    5161    8831
CTETRA      4765       1   17635   16724   16723     257   16857   16859+
+          16858    2221    4201    5231
CTETRA      4766       1   13591   13595   13593     256   13926   13927+
+          13922    2214    2213    6172
CTETRA      4767       1   13580   13581   13595     257   13866   13925+
+          13924    4959    4961    2216
CTETRA      4768       1   16710      96   16717     207    2008    2031+
+          16830    2009    2011    3375
CTETRA      4769       1   17633     185     186    1182    1925    1929+
+           1928    8832    8833    8834
CTETRA      4770       1   16703   16711   16710      40   16798   16799+
+          16794    1664    2012    2006
CTETRA      4771       1   13565   13585   13586     335   13875   13881+
+          13884    5948    2575    5952
CTETRA      4772       1   17631     298      39      41    5906    6639+
+           1345    1348    6811    1349
CTETRA      4773       1   12905     502   12908     503    6978    5830+
+          13142    6982    3641    5782
CTETRA      4774       1   13744   13747   13746     469   14455   14457+
+          14450    6746    6598    6856
CTETRA      4775       1   17226   12895   12907     502   13095   13137+
+          13136    8712    3644    6977
CTETRA      4776       1   17227   12899   12895     504   13092   13096+
+          13094    7249    3827    3645
CTETRA      4777       1   12125   12127   12126     162   12362   12363+
+          12361    4703    1815    3260
CTETRA      4778       1   17407   13628   13637     389   14061   14074+
+          14073    8835    2897    7727
CTETRA      4779       1   17407   17408   13628     389   17424   14058+
+          14061    8835    5447    2897
CTETRA      4780       1   11787     787    1012    1179    5933    7523+
+           7522    8795    8794    8836
CTETRA      4781       1   13637     388   13638     465    5479    4170+
+          14088    5449    4143    4171
CTETRA      4782       1   12085   12124   12123     558   12348   12351+
+          12345    4059    4058    4641
CTETRA      4783       1   14688     460     471     295    6715    5167+
+           4530    6855    4087    5034
CTETRA      4784       1   14709   14713   14710     466   14959   14958+
+          14960    4491    3359    3356
CTETRA      4785       1   17916     814   17143     735    7717    6102+
+          17155    5444    6104    5445
CTETRA      4786       1   12924     159     162     217    7424    1819+
+           3136    5193    3057    3056
CTETRA      4787       1   16017     475      33      31    7138    3779+
+           1321    1324    3823    1325
CTETRA      4788       1   17434   14730   14729     151   15028   15027+
+          15024    3997    1772    8837
CTETRA      4789       1   11694     797   11695     795    8838    5985+
+          11725    5977    5987    5978
CTETRA      4790       1   17836   17837   11691     637   17847   11743+
+          11744    8839    7232    4625
CTETRA      4791       1   17211     439   15039     625    8840    3212+
+          15084    8841    4512    4511
CTETRA      4792       1   12911   12924   12912     217   13201   13196+
+          13202    6929    5193    2072
CTETRA      4793       1   12883     883     885    1126    8370    8842+
+           8843    8373    8372    8844
CTETRA      4794       1   17281   17282     472     556   17297    4049+
+           4571    4573    4050    4048
CTETRA      4795       1   13647   13670   13694     455   14183   14271+
+          14270    5415    5426    3365
CTETRA      4796       1   12608    1183    1011     883    8845    8846+
+           7513    7516    8847    7517
CTETRA      4797       1   12075     573     632     195    4167    4844+
+           4553    4848    4847    4975
CTETRA      4798       1   13642     430   13643     461    4092    4479+
+          14166    6956    4485    6953
CTETRA      4799       1   17282     556   14695     107    4050    4031+
+          14877    4063    4034    4033
CTETRA      4800       1   12881   12885   12884      74   13044   13046+
+          13045    6181    1512    8068
CTETRA      4801       1   15262   15263   15271     130   15541   15563+
+          15561    1694    5072    1695
CTETRA      4802       1   14709   14710   14719     466   14960   14986+
+          14982    4491    3356    3358
CTETRA      4803       1   13748     408     459     461    6412    6409+
+           3348    3349    4710    3332
CTETRA      4804       1   12896   12909     528      18   13147    3837+
+           3828    7790    3838    3839
CTETRA      4805       1   13670   13702   13694     472   14301   14300+
+          14271    5654    6360    5648
CTETRA      4806       1   17280     232     534     583    5692    3878+
+           6371    4865    5693    6610
CTETRA      4807       1   13645   13657   13646     556   14173   14175+
+          14174    4023    4046    8047
CTETRA      4808       1   12918     869    1037    1184    6539    8848+
+           7696    8849    8850    8851
CTETRA      4809       1   13646     556   13670     107    8047    6767+
+          14181    5824    4034    5427
CTETRA      4810       1   12863      20      18     661    7102    1283+
+           4793    4795    8852    4796
CTETRA      4811       1   17856     732   11786    1167    8297    5398+
+          11838    8853    8682    8681
CTETRA      4812       1   11776     181     140     252    2890    1909+
+           7154    2198    6215    8854
CTETRA      4813       1   17183     643   12736     992    7737    4686+
+          12778    7385    8691    7386
CTETRA      4814       1   16996     694   13687     443    5678    5672+
+          14227    3226    5675    3227
CTETRA      4815       1   16995   13681   13688     763   14240   14238+
+          14239    7194    5665    5667
CTETRA      4816       1   13679     694     227     193    6082    5927+
+           4183    4185    5673    4186
CTETRA      4817       1   12612     589      17     619    4286    8855+
+           4798    4465    4464    8856
CTETRA      4818       1   17315   12736   17316     702   12782   12781+
+          17326    7846    5210    5209
CTETRA      4819       1   12737     720     486    1058    5330    5332+
+           4689    7843    7842    8857
CTETRA      4820       1   13679   13687   13680     694   14222   14224+
+          14223    6082    5672    5680
CTETRA      4821       1   17150     215   11900     454    3290    3414+
+          12038    3292    3291    3417
CTETRA      4822       1   17107   12608   12607     884   12715   12647+
+          12718    8383    8858    6663
CTETRA      4823       1   11881   11899   11898     474   12032   12033+
+          12030    5919    3445    3444
CTETRA      4824       1   11882     226     225     227    2106    2105+
+           2103    3757    2115    2114
CTETRA      4825       1   17240   12607   12608     885   12645   12647+
+          12646    8859    6664    8860
CTETRA      4826       1   12608   12609      74    1011   12650    1482+
+           7515    7513    8861    7514
CTETRA      4827       1   13672   13695   13700     226   14280   14296+
+          14298    4591    2112    4190
CTETRA      4828       1   17250   12617   12618     684   12675   12677+
+          12676    8393    5054    5056
CTETRA      4829       1   13677   13696     181     192   14284    5437+
+           4866    4869    8619    4870
CTETRA      4830       1   12616   12617     632     935   12674    6534+
+           4969    7428    7023    7025
CTETRA      4831       1   13680   13698   13697     474   14290   14289+
+          14288    3751    3427    3426
CTETRA      4832       1   13679   13687     694     193   14222    5672+
+           6082    4185    5674    5673
CTETRA      4833       1   17117   12619   12618     760   12696   12680+
+          12695    5641    8708    5642
CTETRA      4834       1   13650      50   13721      49    7221    4341+
+          14349    3043    1373    5765
CTETRA      4835       1   11688      50   11689     731    5392    6728+
+          11703    5393    5395    7208
CTETRA      4836       1   12863   12897   12898      17   13156   13106+
+          13155    4794    4651    4812
CTETRA      4837       1   12879   12880   12901      75   13036   13115+
+          13116    5315    1510    6445
CTETRA      4838       1   13717   13721   13720     156   14350   14351+
+          14346    3600    5764    3603
CTETRA      4839       1   12878   12879   12904     477   13030   13122+
+          13125    7236    5317    7791
CTETRA      4840       1   14655     428   14673     102    4534    4037+
+          14850    5512    4029    4715
CTETRA      4841       1   12606     485     255     995    6144    5523+
+           5896    7403    8382    7855
CTETRA      4842       1   17238   17239   12859     825   17260   13038+
+          13039    7155    8862    8863
CTETRA      4843       1   17237   12606   17238     955   12639   12641+
+          17259    8864    7157    7156
CTETRA      4844       1   12872   12873   12875     194   12995   13011+
+          13024    7093    7801    7094
CTETRA      4845       1   12144   12147   12152     437   12449   12453+
+          12452    3198    3197    7795
CTETRA      4846       1   14648     294     282     105    2401    2399+
+           2400    4632    4071    4070
CTETRA      4847       1   15262     247     130     475    3412    3824+
+           1694    3436    3825    3820
CTETRA      4848       1   13646   13709     556     294   14382    4027+
+           8047    6793    2723    4028
CTETRA      4849       1   14648   14686   14685     282   14868   14869+
+          14859    2400    2334    2333
CTETRA      4850       1   13712   13769   13786     281   14553   14602+
+          14601    2336    2348    2347
CTETRA      4851       1   13733     283     281     650    2340    2339+
+           2337    4725    4727    8865
CTETRA      4852       1   17283     196      63     201    1963    3300+
+           3298    1984    1986    5656
CTETRA      4853       1   14653     168   14667     283    3917    3503+
+          14776    3918    3920    8045
CTETRA      4854       1   12147   12148   12154     437   12451   12461+
+          12460    3197    5803    5798
CTETRA      4855       1   17498   17499   14697     296   17515   14883+
+          14885    7067    7068    6839
CTETRA      4856       1   17499   14643   14697     218   14820   14884+
+          14883    3613    2708    6837
CTETRA      4857       1   12097   12104   12098      34   12252   12255+
+          12254    1685    7001    1358
CTETRA      4858       1   17410   13625   13634     310   14039   14066+
+          14065    4998    3770    3772
CTETRA      4859       1   17354      13   13404      85    6454    5809+
+          13513    8866    5810    1508
CTETRA      4860       1   17074   11774     657    1185   11865    4767+
+           4766    8867    8868    8869
CTETRA      4861       1   13547   13548   13773      88   13858   14556+
+          14545    3668    2388    3671
CTETRA      4862       1   17086   15056   17916     677   15180   15190+
+          17089    8870    4994    4993
CTETRA      4863       1   17934   17639      13     599   17645    4562+
+           8871    8872    4363    4935
CTETRA      4864       1   13754   13755   13761      10   14475   14504+
+          14502    1254    1256    1264
CTETRA      4865       1   13761      16      15      10    3655    1270+
+           1261    1264    1268    1265
CTETRA      4866       1   13548   13549   13774     148   13867   14558+
+          14557    2391    4953    5389
CTETRA      4867       1   17858   11784   11785     182   11834   11802+
+          11835    8299    8424    1911
CTETRA      4868       1   17504     273     276      16    2299    2298+
+           2297    2694    2696    2800
CTETRA      4869       1   11778   11779   11788    1021   11815   11814+
+          11813    8433    8873    7579
CTETRA      4870       1   11776   11785     140     181   11803    1908+
+           7154    2890    1910    1909
CTETRA      4871       1   11778   11787     192     990   11811    5930+
+           7362    7365    8874    7366
CTETRA      4872       1   17637     276     273      16    2293    2298+
+           2281    6219    2800    2696
CTETRA      4873       1   17015     596   11874    1066    4345    6227+
+          11927    7886    8875    7887
CTETRA      4874       1   13752   13753   13773      14   14501   14544+
+          14543    1258    2949    2785
CTETRA      4875       1   17637     273      88      16    2281    2674+
+           1516    6219    2696    5232
CTETRA      4876       1   17504   15273   17505     276   15576   15577+
+          17508    2297    5404    2797
CTETRA      4877       1   13590   13591     339     184   13914    2587+
+           3386    2585    2588    2579
CTETRA      4878       1   17068     595   11780    1067    7883    7885+
+          11853    7891    8876    7892
CTETRA      4879       1   11775   11784   11783     309   11799   11798+
+          11796    6325    6327    7271
CTETRA      4880       1   12896     528   12897      18    3828    4649+
+          13112    7790    3839    4652
CTETRA      4881       1   17144     309     140     958    7246    6326+
+           3537    7169    7248    8877
CTETRA      4882       1   16511      86      87     900    1538    1514+
+           2806    6738    8621    8878
CTETRA      4883       1   17858   11784     961     745   11834    7177+
+           8879    5518    5520    8880
CTETRA      4884       1   17637   16720      86      88   16849    1533+
+           1513    1516    4283    1517
CTETRA      4885       1   17859   11783   11784     441   11832   11798+
+          11833    8881    3218    8882
CTETRA      4886       1   13740   13765   13764     176   14537   14538+
+          14535    3076    1881    3100
CTETRA      4887       1   14677   14678   14679     172   14831   14839+
+          14838    1888    5120    1866
CTETRA      4888       1   11872    1186     192    1187    8883    8884+
+           2779    8885    8886    8887
CTETRA      4889       1   12863   12864   12897      18   12993   13157+
+          13156    4793    5832    4652
CTETRA      4890       1   13554   13744     469     295   14444    6746+
+           6834    4533    4088    6747
CTETRA      4891       1   11885   11886   11887     181   11963   11973+
+          11972    4886    4878    4887
CTETRA      4892       1   17810   17100   12601     590   12622   12624+
+          12623    6274    5917    4298
CTETRA      4893       1   11775   11776   11784     140   11801   11800+
+          11799    6323    7154    6324
CTETRA      4894       1   16506     307    1188    1158    8602    8888+
+           8889    8594    8727    8890
CTETRA      4895       1   17839   11689   11690     175   11739   11707+
+          11740    8891    1877    1879
CTETRA      4896       1   17365     262     987     263    2242    7350+
+           8892    2243    2245    8893
CTETRA      4897       1   11681       7     593     942    4335    8894+
+           4339    7047    8825    7048
CTETRA      4898       1   11681     974     941     593    7274    8895+
+           7046    4339    7275    7045
CTETRA      4899       1   17638   16722   16730      87   16843   16888+
+          16889    2316    2315    2357
CTETRA      4900       1   17100   17101   12601     591   17129   12729+
+          12624    5918    5631    4299
CTETRA      4901       1   11777   11786     181     192   11807    5396+
+           2889    7380    5397    4870
CTETRA      4902       1   17834   11693   11694     858   11748   11721+
+          11749    8896    8897    8898
CTETRA      4903       1   17026   11611     346     348   11676    8899+
+           2621    2624    8900    2625
CTETRA      4904       1   13673   13674   13696     178   14200   14285+
+          14282    6989    4888    1907
CTETRA      4905       1   12130   12142   12141     528   12414   12413+
+          12411    4790    3834    4787
CTETRA      4906       1   13713   13714   13749     481   14429   14521+
+          14522    3491    7472    3500
CTETRA      4907       1   14660   14661   14669     481   14750   14782+
+          14781    3497    3889    6203
CTETRA      4908       1   16517     704      84     772    5227    5256+
+           5255    5814    8901    5815
CTETRA      4909       1   17505      14     507      10    2799    3660+
+           4933    1272    1260    3662
CTETRA      4910       1   13715   13759   13763     482   14497   14512+
+          14514    8015    8073    3487
CTETRA      4911       1   11609     410     962     963    8902    8903+
+           8904    8905    8906    7205
CTETRA      4912       1   13685   13686     192     761   14215    4912+
+           5844    5848    5659    7614
CTETRA      4913       1   16991    1008     858     859    7488    8907+
+           6469    6472    7490    6473
CTETRA      4914       1   14695     556     293     294    4031    4026+
+           5636    4032    4028    2398
CTETRA      4915       1   15033   15034     365    1098   15069    6002+
+           6875    8908    8138    8140
CTETRA      4916       1   17939   16606   17727     865   16677   16676+
+          17737    8632    6517    8909
CTETRA      4917       1   16703     452   16706     121    8089    3287+
+          16783    1660    4398    8093
CTETRA      4918       1   14643   14706   14697     218   14930   14932+
+          14884    2708    2083    6837
CTETRA      4919       1   17496   15205   15214      23   15350   15352+
+          15355    5015    3682    5355
CTETRA      4920       1   13742     408     173     420    5806    3020+
+           3079    3081    6411    3082
CTETRA      4921       1   16602   16603     121     456   16634    3140+
+           3303    3301    5308    3302
CTETRA      4922       1   17936   15047   15048      24   15140   15134+
+          15138    7188    8449    7223
CTETRA      4923       1   17729   16604   16603     605   16680   16638+
+          16683    5302    7817    4399
CTETRA      4924       1   13546   13583   13547      87   13853   13861+
+          13862    3758    1530    1529
CTETRA      4925       1   17728   16604   17729     804   16681   16680+
+          17739    6255    6027    6026
CTETRA      4926       1   17631   17632     221     335   17647    3605+
+           5904    5907    2554    5908
CTETRA      4927       1   13553   13746   13740     218   14451   14454+
+          14452    2090    6630    2091
CTETRA      4928       1   13580   13595   13591     257   13924   13926+
+          13909    4959    2216    2215
CTETRA      4929       1   13765     172     176     173    1882    1884+
+           1881    2765    1868    3078
CTETRA      4930       1   17401   13614     965    1100   14013    7225+
+           8910    8911    8145    8147
CTETRA      4931       1   14705     469     295     296    6830    6747+
+           8912    6840    6836    2406
CTETRA      4932       1   14688   14689     460     469   14928    3390+
+           6715    6829    6578    3393
CTETRA      4933       1   17401   17402   13612     316   17419   14005+
+          14012    8913    2481    2483
CTETRA      4934       1   13607   13614   13615      24   14016   14021+
+          14026    6526    1299    1296
CTETRA      4935       1   13613     214      25     292    2409    2379+
+           5042    2411    2382    2381
CTETRA      4936       1   16604   16605      22     804   16642    6036+
+           6039    6027    6256    6354
CTETRA      4937       1   17498   17499     221     424   17515    3612+
+           8914    5837    5431    3611
CTETRA      4938       1   13560   13568   13561     452   13821   13804+
+          13822    6263    6262    6357
CTETRA      4939       1   17630      40   17631      39    6818    1347+
+          17646    6638    1346    1345
CTETRA      4940       1   17629     214   17630     120    2050    3279+
+          17650    3711    2424    5895
CTETRA      4941       1   13554   13603   13555     295   13970   13972+
+          13971    4533    6636    4086
CTETRA      4942       1   13603   13613   13611     292   14007   14009+
+          13994    2420    2411    5017
CTETRA      4943       1   13604   13616   13613     214   14018   14022+
+          14008    2408    3912    2409
CTETRA      4944       1   17936   17628   16051     508   17652   16372+
+          16502    8915    3673    3968
CTETRA      4945       1   13606   13607   13615      24   13979   14026+
+          14027    1295    6526    1296
CTETRA      4946       1   13611     292     678     679    5017    8916+
+           5009    5012    5019    5013
CTETRA      4947       1   17496   17497   14687     292   17516   14888+
+          14889    3902    2404    5040
CTETRA      4948       1   17495   14714   14724     315   14975   15001+
+          15002    6968    8599    2485
CTETRA      4949       1   17629   17630   16055     120   17650   16358+
+          16359    3711    5895    3712
CTETRA      4950       1   16604   16613   16612     452   16640   16639+
+          16637    6258    6257    6251
CTETRA      4951       1   13778   13781   13780     170   14587   14588+
+          14586    2306    5113    3945
CTETRA      4952       1   17829   17735   16598      32   16649   16651+
+          16650    1318    1320    8917
CTETRA      4953       1   17634     184     340     468    3380    4191+
+           2581    3381    3383    6075
CTETRA      4954       1   14688   14705     469     295   14920    6830+
+           6829    6855    8912    6747
CTETRA      4955       1   14697   14706   14705     218   14932   14934+
+          14933    6837    2083    6838
CTETRA      4956       1   16605      27   16614      22    7189    6521+
+          16644    6036    1304    6037
CTETRA      4957       1   15738     561     242     404    4101    4100+
+           2971    2973    8489    2974
CTETRA      4958       1   15281    1039    1189    1040    7705    8918+
+           8919    7710    7712    8920
CTETRA      4959       1   14708   14711   14709     430   14948   14950+
+          14949    4482    4481    4490
CTETRA      4960       1   15281    1189     406    1040    8919    8921+
+           8486    7710    8920    8922
CTETRA      4961       1   15202   15248   15235     355   15487   15492+
+          15495    2745    2776    2766
CTETRA      4962       1   17634   16707   16724     256   16821   16856+
+          16855    2580    4212    4198
CTETRA      4963       1   15199   15200   15281     112   15392   15601+
+          15602    4097    1624    7708
CTETRA      4964       1   16090     242     117     747    8493    2162+
+           5537    5539    5549    5540
CTETRA      4965       1   16059     242   16068     117    7397    2158+
+          16402    7387    2162    2161
CTETRA      4966       1   15198   15227   15199     111   15395   15394+
+          15396    2995    2996    4095
CTETRA      4967       1   15724     784     627     861    5901    5903+
+           5900    6479    8923    6480
CTETRA      4968       1   15292     212     406     243    2029    2982+
+           8419    2164    2163    8495
CTETRA      4969       1   17470    1154   15723    1159    8924    8567+
+          15752    8925    8611    8610
CTETRA      4970       1   17528   15295   17529     241   15656   15655+
+          17554    8777    2155    7675
CTETRA      4971       1   15203   15210   15215     118   15337   15358+
+          15357    2662    7125    2663
CTETRA      4972       1   16065   16074   16072     212   16424   16425+
+          16420    8421    7654    2171
CTETRA      4973       1   13644     855     464    1190    6413    6415+
+           4705    8926    8927    8928
CTETRA      4974       1   14704   14705   14706     469   14929   14934+
+          14942    6579    6830    7078
CTETRA      4975       1   13775   13776   13778      65   14566   14573+
+          14576    1432    1440    2308
CTETRA      4976       1   16063   16065   16064     212   16387   16389+
+          16388    8220    8421    2170
CTETRA      4977       1   14688     471   14715     295    4530    4532+
+          14971    6855    5034    5033
CTETRA      4978       1   17662   15861   17663     822   15923   15924+
+          17684    7969    6133    8787
CTETRA      4979       1   15292   15295   15294     212   15653   15654+
+          15647    2029    2143    2030
CTETRA      4980       1   13611   13613   13612      25   14009   14011+
+          14010    5043    5042    8442
CTETRA      4981       1   17403   15050   17404     470   15145   15146+
+          17417    3395    8929    3396
CTETRA      4982       1   17661   15850   15860    1178   15891   15920+
+          15918    8783    8930    8784
CTETRA      4983       1   15206   15209   15208     627   15325   15324+
+          15317    5788    4929    4543
CTETRA      4984       1   17563     146   15034    1098    8931    1762+
+          15062    8932    8139    8138
CTETRA      4985       1   17498   15213   15207     538   15345   15347+
+          15311    3908    5791    5434
CTETRA      4986       1   16709      98     547     207    5668    6261+
+           5991    8645    3376    6565
CTETRA      4987       1   16038   16040   16039     627   16291   16294+
+          16293    4527    5683    8933
CTETRA      4988       1   15245   15247   15246     365   15482   15483+
+          15481    8934    2754    6010
CTETRA      4989       1   15243   15245   15246     365   15477   15481+
+          15480    6009    8934    6010
CTETRA      4990       1   15278   15303     353     286   15679    4077+
+           6616    7344    6556    2647
CTETRA      4991       1   14687   14715     317     295   14976    5032+
+           8935    6848    5033    5035
CTETRA      4992       1   17521   15298   15306     135   15672   15695+
+          15696    8936    1715    7971
CTETRA      4993       1   17562   15233   15245     365   15433   15475+
+          15474    6879    5485    8934
CTETRA      4994       1   17563   15034   15033    1098   15062   15069+
+          15067    8932    8138    8908
CTETRA      4995       1   17562   15245   17563    1098   15474   15476+
+          17567    8937    8938    8932
CTETRA      4996       1   17522   15304   17523     540   15699   15687+
+          17560    3924    3926    8181
CTETRA      4997       1   15303   15304   15305     134   15685   15692+
+          15691    4078    2351    4080
CTETRA      4998       1   14687   14715   14714     317   14976   14977+
+          14974    8935    5032    8830
CTETRA      4999       1   16002   16010   16006     133   16190   16191+
+          16155    6430    7619    6425
CTETRA      5000       1   16004     353     744     616    5724    5730+
+           6644    5725    4444    5722
CTETRA      5001       1   12097   12119   12122     216   12334   12341+
+          12340    5244    5195    5763
CTETRA      5002       1   17604   15722   15721     843   15847   15748+
+          15849    6285    6284    8939
CTETRA      5003       1   17401   13612   13614     316   14012   14014+
+          14013    8913    2483    8598
CTETRA      5004       1   15980   16064   16073     239   16391   16418+
+          16417    2968    5493    2969
CTETRA      5005       1   16071   16073   16072     245   16422   16421+
+          16423    2986    5492    2168
CTETRA      5006       1   17663   15862    1142    1166   15933    8503+
+           8502    8940    8674    8676
CTETRA      5007       1   17386   13398     543     921   13487    6933+
+           6946    8265    6935    6934
CTETRA      5008       1   17926   17506   15269     597   17511   15590+
+          15720    8941    4351    6463
CTETRA      5009       1   15268   15270   15269     495   15565   15557+
+          15566    6171    3584    7764
CTETRA      5010       1   12134      20   12152     194    7426    1981+
+          12454    5352    1983    1973
CTETRA      5011       1   15267   15268   15274     327   15571   15581+
+          15580    4617    6170    6782
CTETRA      5012       1   17936   15046   17747    1093   15137   15125+
+          17750    8099    8101    8438
CTETRA      5013       1   17940    1103   16698    1191    8161    8163+
+          16756    8942    8943    8944
CTETRA      5014       1   14714   14723   14724     315   14989   14999+
+          15001    8599    2486    2485
CTETRA      5015       1   12743     509     511     830    3686    3690+
+           3689    6197    8945    6198
CTETRA      5016       1   16001   16005   16004     616   16164   16166+
+          16165    8271    5306    5725
CTETRA      5017       1   15246     365     355     197    6010    2753+
+           5954    5955    5984    2783
CTETRA      5018       1   11687      43      53    1074    1387    1390+
+           1389    7940    8946    8275
CTETRA      5019       1   15234   15248   15247     235   15491   15489+
+          15485    3715    2778    2755
CTETRA      5020       1   14688   14696   14705     295   14919   14921+
+          14920    6855    6634    8912
CTETRA      5021       1   14705     218     469     296    6838    7073+
+           6830    6840    6633    6836
CTETRA      5022       1   17150   11891   11900     215   12000   12044+
+          12038    3290    3307    3414
CTETRA      5023       1   17936   16697   17628      27   16750   16752+
+          17652    7186    8947    7187
CTETRA      5024       1   17149   11900     229     454   12037    3452+
+           3451    3409    3417    3463
CTETRA      5025       1   17628      27      22      24    7187    1304+
+           1287    1290    1306    1291
CTETRA      5026       1   13691      54   13692      55    3030    5516+
+          14258    3031    1397    5515
CTETRA      5027       1   15201   15202     367     725   15331    2771+
+           8229    8556    5362    7371
CTETRA      5028       1   17628   16705   17629      22   16777   16776+
+          17651    1287    6994    2053
CTETRA      5029       1   14729   14730     150     151   15027    1771+
+           1874    8837    1772    1774
CTETRA      5030       1   12127      61     162     217    3131    3138+
+           1815    3055    5194    3056
CTETRA      5031       1   17728     803   16605    1192    8948    6025+
+          16678    8949    8950    8951
CTETRA      5032       1   17276   17924     680     766   17300    5021+
+           5020    5703    5797    5704
CTETRA      5033       1   15237     277     512     235    3714    7270+
+           4831    3716    3710    3700
CTETRA      5034       1   15233   15234   15247     277   15435   15485+
+          15484    5486    3713    5484
CTETRA      5035       1   15233   15247   15245     365   15484   15482+
+          15475    5485    2754    8934
CTETRA      5036       1   17431   14723   14721     946   14997   14993+
+          14995    7088    7090    8952
CTETRA      5037       1   17562   15033     365    1193   15068    6875+
+           6879    8953    8954    8955
CTETRA      5038       1   17430   17928   14724     323   17438   15003+
+          15000    2504    8254    2505
CTETRA      5039       1   15725    1060     183    1061    7865    8956+
+           2608    7868    7867    8379
CTETRA      5040       1   15195   15208   15209     627   15314   15324+
+          15321    4541    4543    4929
CTETRA      5041       1   13612   13613   13614      25   14011   14017+
+          14014    8442    5042    1297
CTETRA      5042       1   17936   17628     508     551   17652    3673+
+           8915    8623    3982    3984
CTETRA      5043       1   17430     315   14723     945    2484    2486+
+          14998    8957    8958    7087
CTETRA      5044       1   13555   13617   13744     460   14093   14443+
+          14442    4084    4093    4085
CTETRA      5045       1   17633     221     360     424    3604    3608+
+           4893    3104    3611    3610
CTETRA      5046       1   17252   12619   12620     653   12681   12683+
+          12682    8189    4744    4746
CTETRA      5047       1   16043   16044   16047     235   16315   16325+
+          16324    3728    3709    3740
CTETRA      5048       1   14691     408     464     461    6964    4706+
+           7436    3342    4710    4709
CTETRA      5049       1   14691   14701     464     408   14902    7437+
+           7436    6964    3006    4706
CTETRA      5050       1   17760   13574   13573     547   13840   13839+
+          13838    3973    6260    3953
CTETRA      5051       1   17600   15726   15725     343   15839   15760+
+          15842    6580    2610    2609
CTETRA      5052       1   14690   14691   14708     461   14912   14946+
+          14947    3341    3342    4483
CTETRA      5053       1   14711     464     430     461    4704    4149+
+           4481    4484    4709    4485
CTETRA      5054       1   13618     393     430     639    3160    3156+
+           3159    4656    4658    6849
CTETRA      5055       1   13745   13748   13747     459   14463   14464+
+          14456    3328    3348    6597
CTETRA      5056       1   14718   14719   14727     393   14981   15009+
+          15008    3155    3157    2912
CTETRA      5057       1   17280   17281     534     556   17296    4572+
+           6371    6370    4573    4047
CTETRA      5058       1   13645     556     293     297    4023    4026+
+           2412    2413    4025    2414
CTETRA      5059       1   13645   13646   13709     556   14174   14382+
+          14384    4023    8047    4027
CTETRA      5060       1   12102   12107     447     642   12283    3264+
+           3263    5104    5554    5105
CTETRA      5061       1   13712   13769     281     283   14553    2348+
+           2336    2338    4013    2339
CTETRA      5062       1   12930   12937   12936     444   13250   13249+
+          13243    4655    4636    7725
CTETRA      5063       1   13712   13731   13713     283   14403   14405+
+          14404    2338    6177    3116
CTETRA      5064       1   12096   12122   12121     126   12343   12344+
+          12338    8652    5762    6922
CTETRA      5065       1   13728   13732   13733     102   14406   14408+
+          14402    1585    4731    1586
CTETRA      5066       1   17671     734   15869    1097    7377    5425+
+          15966    8334    8403    8129
CTETRA      5067       1   15224     300     303     301    3334    2437+
+           5749    5750    2431    2440
CTETRA      5068       1   16016   16029     475      31   16267    3821+
+           6568    7139    3822    3823
CTETRA      5069       1   14651     517   14657     169    3749    3890+
+          14739    1851    5133    3744
CTETRA      5070       1   13711   13786   13784     281   14603   14604+
+          14599    6790    2347    6794
CTETRA      5071       1   13711   13712   13786     281   14399   14601+
+          14603    6790    2336    2347
CTETRA      5072       1   14646   14681   14647     171   14846   14864+
+          14867    3012    4014    3013
CTETRA      5073       1   17561   15237   15233     277   15430   15434+
+          15432    6891    3714    5486
CTETRA      5074       1   15234   15235   15248     235   15450   15492+
+          15491    3715    2777    2778
CTETRA      5075       1   17628     803    1192    1160    8615    8950+
+           8959    8616    8618    8960
CTETRA      5076       1   14652   14682   14680     169   14841   14843+
+          14833    3743    3952    1852
CTETRA      5077       1   17318   12968   12967     127   13360   13356+
+          13362    3806    8409    7000
CTETRA      5078       1   17670   15867     302    1194   15957    2433+
+           5742    8961    8962    8963
CTETRA      5079       1   16000   16001     668     616   16167    4883+
+           4882    5311    8271    5287
CTETRA      5080       1   15224   15228     300     301   15409    2734+
+           3334    5750    8236    2431
CTETRA      5081       1   17151   12136   12133     194   12381   12378+
+          12376    5173    5351    1972
CTETRA      5082       1   14653   14660   14667     168   14748   14777+
+          14776    3917    3499    3503
CTETRA      5083       1   13770     168     517     169    1845    8023+
+           5131    1848    1847    5133
CTETRA      5084       1   17931   17539   15241     579   17546   15457+
+          15455    8521    5419    4231
CTETRA      5085       1   14657     517     168     169    3890    8023+
+           3498    3744    5133    1847
CTETRA      5086       1   17561   15036   17931    1041   15077   15079+
+          17569    7721    7723    8964
CTETRA      5087       1   17466   17467   15727     187   17486   15762+
+          15764    6091    3663    1930
CTETRA      5088       1   14658   14662   14661      15   14754   14756+
+          14755    2808    6200    6199
CTETRA      5089       1   13750   13763   13762     482   14518   14513+
+          14516    3485    3487    6207
CTETRA      5090       1   16046   16048   16047     364   16329   16328+
+          16330    2762    7961    7119
CTETRA      5091       1   17637      14   17638     276    3759    3760+
+          17644    2293    2798    4923
CTETRA      5092       1   17503   17504     273     147   17509    2299+
+           8965    1763    2300    2282
CTETRA      5093       1   13780     517     170     169    5132    3750+
+           3945    3946    5133    1853
CTETRA      5094       1   13777     359      65     517    2702    2722+
+           2721    3766    3748    3747
CTETRA      5095       1   13719     156     155     163    1795    1794+
+           1793    3602    1840    1839
CTETRA      5096       1   13750   13771   13770     517   14548   14550+
+          14549    3941    3765    5131
CTETRA      5097       1   15734     672   15735     670    5743    6079+
+          15787    4898    7658    4899
CTETRA      5098       1   12860   12883   12889     485   13062   13067+
+          13057    5534    8374    5535
CTETRA      5099       1   17503      65     273     359    2667    2720+
+           8965    6871    2722    2693
CTETRA      5100       1   17503     147     273     148    1763    2282+
+           8965    1765    1764    2302
CTETRA      5101       1   13751   13762   13761      15   14511   14508+
+          14509    6237    6205    1261
CTETRA      5102       1   13733     105     102     650    1589    1588+
+           1586    4725    8001    4726
CTETRA      5103       1   14656   14666     163     223   14772    2107+
+           4030    3549    5086    3126
CTETRA      5104       1   13732     102     428     426    4731    4029+
+           3557    3128    4610    3559
CTETRA      5105       1   13606   13615   13616      22   14027   14023+
+          14025    1294    1293    3913
CTETRA      5106       1   17388   13397   13389     224   13473   13472+
+          13471    7412    7409    2100
CTETRA      5107       1   13394   13395       7     490   13463    8079+
+           3581    3561    6976    3580
CTETRA      5108       1   15726     144     949     950    2040    8966+
+           7108    7111    7999    7112
CTETRA      5109       1   17660   15858    1195    1181   15908    8967+
+           8968    8829    8828    8969
CTETRA      5110       1   15738     242     562    1032    2971    4103+
+           4102    7651    8176    8970
CTETRA      5111       1   13660   13661   13674     140   14138   14194+
+          14199    7092    1734    4871
CTETRA      5112       1   13660     140   13674     178    7092    4871+
+          14199    5462    1897    4888
CTETRA      5113       1   13673   13696   13695     178   14282   14281+
+          14279    6989    1907    1906
CTETRA      5114       1   16067   16068   16078     111   16403   16439+
+          16441    1610    2160    1611
CTETRA      5115       1   16075   16076   16078     405   16434   16443+
+          16440    2991    4133    4132
CTETRA      5116       1   17145   11885   11887     140   11974   11972+
+          11969    1745    4885    3538
CTETRA      5117       1   17660   15858   15850    1145   15908   15910+
+          15890    8971    8972    8526
CTETRA      5118       1   15282   15283   15290     406   15607   15638+
+          15637    4131    4111    2980
CTETRA      5119       1   17277   17278     136     480   17298    2944+
+           2943    6330    3466    6302
CTETRA      5120       1   13662   13665   13666     480   14153   14146+
+          14154    6573    6309    6574
CTETRA      5121       1   13631     136   13632     309    2459    1719+
+          14053    5254    2930    2941
CTETRA      5122       1   11687      54      43    1074    3059    1396+
+           1387    7940    8973    8946
CTETRA      5123       1   16074   16077   16076     406   16435   16436+
+          16429    5635    8704    4134
CTETRA      5124       1   15281     406     111    1040    8486    5541+
+           7694    7710    8922    8974
CTETRA      5125       1   17144     142     136     390    1742    1744+
+           1741    7129    7374    2931
CTETRA      5126       1   17143     309     137     390    2460    2929+
+           6919    6106    2932    2905
CTETRA      5127       1   17277     388   14710     480    6799    4141+
+          14945    6330    4154    3474
CTETRA      5128       1   12738     486     259     382    5121    5061+
+           2864    2867    7837    2868
CTETRA      5129       1   17276     388   17277     137    5455    6799+
+          17299    2902    2895    2903
CTETRA      5130       1   13555   13617     460     471   14093    4093+
+           4084    5036    3399    5167
CTETRA      5131       1   16016   16022   16017     475   16228   16230+
+          16232    6568    3776    7138
CTETRA      5132       1   14714   14715   14723     317   14977   14988+
+          14989    8830    5032    8171
CTETRA      5133       1   14721   14723     166     946   14993    7910+
+           1828    8952    7090    8975
CTETRA      5134       1   17524   15304   15279     286   15686   15684+
+          15594    5685    2353    5686
CTETRA      5135       1   17405     150   13635    1094    4508    5152+
+          14079    8976    8111    8110
CTETRA      5136       1   17399   13607   13608      27   13976   13980+
+          13988    7182    6525    8102
CTETRA      5137       1   17526   15284   17527     752   15610   15612+
+          17552    5759    5571    7602
CTETRA      5138       1   17525   15279   15280     608   15593   15595+
+          15591    5567    5691    4415
CTETRA      5139       1   15278   15279     286     608   15597    5686+
+           7344    5690    5691    6311
CTETRA      5140       1   16615      27    1071    1115    7185    8121+
+           7922    8301    8977    8302
CTETRA      5141       1   11895     410    1016     659    4778    8978+
+           7556    4781    4780    7559
CTETRA      5142       1   17898   16614   16615    1114   16670   16647+
+          16671    8979    8296    8304
CTETRA      5143       1   17151      49   11876      55    1425    3065+
+          11945    5766    2034    1398
CTETRA      5144       1   17048   11686   17049     655   11756   11759+
+          17059    4759    4761    8980
CTETRA      5145       1   13567   13579   13592     186   13871   13907+
+          13906    2716    4931    6364
CTETRA      5146       1   17498     221     298     539    8914    5905+
+           7066    3909    8981    8982
CTETRA      5147       1   12129   12130     479     528   12420    4942+
+           7499    3833    4790    4938
CTETRA      5148       1   17520   15298   17521     135   15670   15672+
+          17557    8555    1715    8936
CTETRA      5149       1   17092   17093   13385    1036   17097   13422+
+          13421    8716    7681    7683
CTETRA      5150       1   12963      34      36     129    1326    1352+
+           1332    1691    1690    7198
CTETRA      5151       1   17318   12734     127     930   12769    6975+
+           3806    8217    7004    7006
CTETRA      5152       1   12960   12964   12968     127   13359   13355+
+          13357    1676    1678    8409
CTETRA      5153       1   15217     303   15239     234    5746    5774+
+          15454    7713    3705    2136
CTETRA      5154       1   15207   15213   15211     538   15347   15349+
+          15348    5434    5791    5435
CTETRA      5155       1   15229     312     300     308    3314    2468+
+           3316    3317    2739    2457
CTETRA      5156       1   17594   15732     409     667   15827    3026+
+           4894    6070    4862    8983
CTETRA      5157       1   17471   15722   15723     727   15749   15751+
+          15750    8984    5378    5380
CTETRA      5158       1   12955     446     250     259    4696    3250+
+           4403    5064    3253    3252
CTETRA      5159       1   16000   16021     131     668   16235    6420+
+           5310    4882    6279    5286
CTETRA      5160       1   17452   15740   15741    1112   15804   15806+
+          15805    8790    8460    8278
CTETRA      5161       1   12951   12953   12952      99   13302   13301+
+          13303    2258    5388    2259
CTETRA      5162       1   12113   12114   12127     159   12315   12365+
+          12364    1817    6512    1818
CTETRA      5163       1   15217   15218   15239     303   15374   15453+
+          15454    5746    6386    5774
CTETRA      5164       1   15218   15223   15219     747   15380   15382+
+          15385    6387    6383    8056
CTETRA      5165       1   12097   12104      34     127   12252    7001+
+           1685    1688    6998    1689
CTETRA      5166       1   17211   17212   15039     439   17216   15083+
+          15084    8840    3570    3212
CTETRA      5167       1   15724     860     627    1196    6478    6477+
+           5900    8985    8986    8987
CTETRA      5168       1   17780   17781   16714     399   17796   16803+
+          16802    2937    7306    2938
CTETRA      5169       1   14656     163     428     223    4030    3123+
+           3547    3549    3126    3125
CTETRA      5170       1   12608      74   12609    1124    7515    1482+
+          12650    8363    8988    8989
CTETRA      5171       1   12885   12886   12891      73   13043   13074+
+          13072    1502    1504    3163
CTETRA      5172       1   16038     627   16039     538    4527    8933+
+          16293    5786    5790    5387
CTETRA      5173       1   17920   17218   12741     479   17220   12801+
+          12803    5614    4946    4945
CTETRA      5174       1   16069   16071   16075     405   16414   16433+
+          16431    8499    2987    2991
CTETRA      5175       1   13711   13725   13733     282   14381   14401+
+          14398    3738    2846    6791
CTETRA      5176       1   13725   13733     282     105   14401    6791+
+           2846    1593    1589    4070
CTETRA      5177       1   17470   15723   15724     860   15752   15754+
+          15753    8990    8991    6478
CTETRA      5178       1   17807     367   15721     712    5261    5260+
+          15743    5272    5274    8564
CTETRA      5179       1   17180   12738   12730     381   12788   12790+
+          12770    2878    2866    5045
CTETRA      5180       1   14679     170     171     172    5119    1859+
+           1863    1866    1862    1861
CTETRA      5181       1   12952   12954   12956     251   13305   13309+
+          13308    2194    6402    2195
CTETRA      5182       1   12080   12105   12112     486   12273   12303+
+          12302    5059    5335    5334
CTETRA      5183       1   14646   14647   14700     376   14867   14906+
+          14914    3014    3016    5801
CTETRA      5184       1   15988   15991   15990     144   16107   16106+
+          16099    1926    1892    1916
CTETRA      5185       1   13558     221   13567     335    7062    2719+
+          13801    6012    5908    7847
CTETRA      5186       1   12940   12965   12962      36   13341   13343+
+          13339    5328    6995    1331
CTETRA      5187       1   12105   12106   12111     641   12278   12300+
+          12301    4680    4679    7197
CTETRA      5188       1   12104      36      34     129    7002    1352+
+           7001    6997    7198    1690
CTETRA      5189       1   12102   12103   12106      36   12264   12284+
+          12282    5912    1353    7196
CTETRA      5190       1   13573   13594   13593     339   13920   13923+
+          13915    3955    3387    5716
CTETRA      5191       1   16990    1014   13705     917    7894    8992+
+          14321    6885    7895    6886
CTETRA      5192       1   17600     183   15726    1197    2606    2605+
+          15839    8993    8994    8995
CTETRA      5193       1   17143   11902     657     882   12051    8996+
+           6650    6652    8801    6653
CTETRA      5194       1   15724     627   15725    1060    5900    5898+
+          15757    8356    8997    7865
CTETRA      5195       1   17835   11693     916    1198   11747    8116+
+           8115    8998    8999    9000
CTETRA      5196       1   17819      28      29    1155    1307    1310+
+           1309    8578    9001    8579
CTETRA      5197       1   11773     537     886    1169    3905    6669+
+           6668    8703    8702    9002
CTETRA      5198       1   17283   12869   12870     195   12972   12978+
+          12977    1962    6040    4973
CTETRA      5199       1   17661    1145   15850    1146    9003    8526+
+          15891    9004    8530    8529
CTETRA      5200       1   17150   12136   17151     194   12382   12381+
+          17163    6550    5351    5173
CTETRA      5201       1   15858     609    1195    1181    8803    9005+
+           8967    8828    9006    8969
CTETRA      5202       1   15284     752    1145    1026    5571    9007+
+           9008    7605    7604    9009
CTETRA      5203       1   17942   11782   17860    1199   11829   11830+
+          17861    9010    9011    9012
CTETRA      5204       1   17660   15850   17661    1145   15890   15891+
+          17677    8971    8526    9003
CTETRA      5205       1   17839   17840   11689     899   17844   11738+
+          11739    9013    9014    6729
CTETRA      5206       1   17667   15865   17668     953   15946   15947+
+          17688    7122    7124    8464
CTETRA      5207       1   17927   17804   15045    1200   17806   15120+
+          15122    9015    9016    9017
CTETRA      5208       1   17668   16086   16061     308   16468   16466+
+          16376    3318    2456    3323
CTETRA      5209       1   17697   15032   17936     548   15065   15141+
+          17702    3993    3969    9018
CTETRA      5210       1   13658   13669   13663     232   14170   14168+
+          14148    3431    2131    3432
CTETRA      5211       1   17628      22      27    1160    1287    1304+
+           7187    8616    9019    8617
CTETRA      5212       1   17727   16605   17728     803   16679   16678+
+          17738    6023    6025    8948
CTETRA      5213       1   17897   16613   16614     867   16668   16643+
+          16669    8293    6527    6522
CTETRA      5214       1   17823   17879   17943     746   16559   17882+
+          17827    5526    9020    5536
CTETRA      5215       1   13547   13582   13548      88   13857   13856+
+          13858    3668    4287    2388
CTETRA      5216       1   13607   13614      24      21   14016    1299+
+           6526    1286    1285    7661
CTETRA      5217       1   17600   15727   15726     144   15840   15763+
+          15839    1891    1932    2040
CTETRA      5218       1   15287   15288   15289     403   15628   15631+
+          15632    7677    8402    5633
CTETRA      5219       1   17502   15256   17503     143   15502   15501+
+          17507    1785    1787    1766
CTETRA      5220       1   15857     609   15858     612    5583    8803+
+          15914    4425    6902    9021
CTETRA      5221       1   17657   16013   16012     286   16211   16201+
+          16199    2648    6617    2666
CTETRA      5222       1   11683   11693   11692     394   11718   11717+
+          11716    2915    9022    2916
CTETRA      5223       1   17659   15857   15858     612   15907   15914+
+          15909    4423    4425    9021
CTETRA      5224       1   13581   13582   13600      90   13860   13945+
+          13944    4955    1526    4804
CTETRA      5225       1   15301   15305   15302     133   15688   15690+
+          15689    1709    4079    1714
CTETRA      5226       1   16719   16723   16728     576   16877   16876+
+          16880    6828    6820    4214
CTETRA      5227       1   15216   15220   15217     513   15367   15369+
+          15368    4237    4217    5410
CTETRA      5228       1   16003   16004   16009     672   16169   16185+
+          16187    9023    6643    5506
CTETRA      5229       1   15216     513   15241     579    4237    3959+
+          15458    5420    4232    4231
CTETRA      5230       1   16031   16044   16032     235   16321   16316+
+          16322    3698    3709    3699
CTETRA      5231       1   15299   15307     131     668   15703    5283+
+           6432    5156    5155    5286
CTETRA      5232       1   15732     668     622    1201    4880    5288+
+           4496    9024    9025    9026
CTETRA      5233       1   16008     353   16013     608    5726    7340+
+          16202    5728    5727    5684
CTETRA      5234       1   15261      33     475      31    3812    3779+
+           5834    3813    1325    3823
CTETRA      5235       1   16080     513   16084     301    7960    4226+
+          16479    5401    4216    4830
CTETRA      5236       1   15217   15239   15242     234   15454   15461+
+          15460    7713    2136    3967
CTETRA      5237       1   16081   16089   16084     303   16485   16487+
+          16486    3701    6393    4227
CTETRA      5238       1   11693    1130   11694     858    9027    9028+
+          11721    8897    9029    8898
CTETRA      5239       1   15217   15220   15224     301   15369   15373+
+          15372    5747    4215    5750
CTETRA      5240       1   16049   16053   16050     197   16352   16349+
+          16353    2782    2784    1966
CTETRA      5241       1   17498     298     120     539    7066    2423+
+           3906    3909    8982    3910
CTETRA      5242       1   17602   15723   17603     728   15846   15845+
+          17625    9030    5381    9031
CTETRA      5243       1   17602   15724   15723     728   15843   15754+
+          15846    9030    9032    5381
CTETRA      5244       1   15205     119   15214      23    2060    2679+
+          15352    3682    3672    5355
CTETRA      5245       1   17603   15723   15722     729   15845   15751+
+          15848    9033    5383    7081
CTETRA      5246       1   15202   15203   15248     355   15336   15486+
+          15487    2745    5960    2776
CTETRA      5247       1   17470   17471   15723     727   17477   15750+
+          15752    9034    8984    5380
CTETRA      5248       1   17602     784   15724     861    7849    5901+
+          15843    9035    8923    6479
CTETRA      5249       1   17498     298     221     296    7066    5905+
+           8914    7067    2422    6810
CTETRA      5250       1   17633   17634   15977     360   17649   16095+
+          16295    4893    4892    4524
CTETRA      5251       1   16708   16717   16709     207   16828   16827+
+          16829    2566    3375    8645
CTETRA      5252       1   17695     365   15033    1134    6889    6875+
+          15071    8452    9036    8453
CTETRA      5253       1   17025   11903     451     656   12055    7908+
+           7907    4762    4764    9037
CTETRA      5254       1   15722     364    1152    1099    5376    9038+
+           8557    8144    8234    8559
CTETRA      5255       1   17498     221   17499     296    8914    3612+
+          17515    7067    6810    7068
CTETRA      5256       1   17633   16716   16707     184   16822   16817+
+          16820    1922    2568    3385
CTETRA      5257       1   15206     538   15211     984    5433    5435+
+          15343    7330    7332    9039
CTETRA      5258       1   13560   13565   13564      40   13818   13820+
+          13819    6762    4396    1654
CTETRA      5259       1   17496   15214   17497     120   15355   15356+
+          17516    3900    2677    3901
CTETRA      5260       1   15281   15283     406    1020   15605    4111+
+           8486    7576    9040    9041
CTETRA      5261       1   17628    1192      22    1160    8959    9042+
+           1287    8616    8960    9019
CTETRA      5262       1   15252   15309   15307     668   15718   15715+
+          15702    7107    8417    5155
CTETRA      5263       1   16036   16046   16054     364   16332   16354+
+          16356    4851    2762    4852
CTETRA      5264       1   17586   15741   15740     890   15812   15806+
+          15811    9043    6686    6685
CTETRA      5265       1   15287     403   15293     672    7677    5753+
+          15649    4915    5366    5752
CTETRA      5266       1   15278   15303   15300     353   15679   15681+
+          15677    6616    4077    5285
CTETRA      5267       1   15980     403     672     239    2967    5366+
+           5514    2968    2970    5505
CTETRA      5268       1   17668   15866   17669     458   15951   15952+
+          17689    3319    3321    8266
CTETRA      5269       1   16061   16086   16085     308   16466   16467+
+          16462    3323    2456    2455
CTETRA      5270       1   17445   15270   15263     130   15559   15560+
+          15536    2184    3583    5072
CTETRA      5271       1   15867     300     302    1194    2430    2434+
+           2433    8962    9044    8963
CTETRA      5272       1   15224   15229     312     300   15412    3314+
+           6625    3334    3316    2468
CTETRA      5273       1   17824   17716   16503     838   16554   16556+
+          16555    6243    8057    6244
CTETRA      5274       1   17824   17938   17716    1085   17825   17717+
+          16554    8042    8544    9045
CTETRA      5275       1   15277   15285   15278     744   15616   15615+
+          15617    6602    5588    6339
CTETRA      5276       1   16007   16008   16013     608   16180   16202+
+          16203    5594    5728    5684
CTETRA      5277       1   17755   17756   13562     779   17766   13794+
+          13793    9046    8604    5875
CTETRA      5278       1   15850     212   15860    1178    8528    7970+
+          15920    8930    9047    8784
CTETRA      5279       1   15982   16007   16014     609   16175   16205+
+          16204    8804    5593    5592
CTETRA      5280       1   17714     205   16505    1139    9048    7957+
+          16593    9049    9050    8484
CTETRA      5281       1   17928     535   17495     536    8252    3893+
+          17519    8624    3896    3895
CTETRA      5282       1   17786   16916   16915     345   16955   16957+
+          16956    6011    8039    8038
CTETRA      5283       1   17754   17755   13789     892   17778   14621+
+          14622    8606    6694    6693
CTETRA      5284       1   17807   17585   17935    1086   15810   17607+
+          17808    8050    8052    8331
CTETRA      5285       1   12087     526   12088     583    8395    4565+
+          12196    4251    4564    4567
CTETRA      5286       1   17714   16505   16504    1139   16593   16529+
+          16596    9049    8484    8483
CTETRA      5287       1   16506    1188    1157    1158    8889    9051+
+           8593    8594    8890    8595
CTETRA      5288       1   16017   16021      33     475   16225    3778+
+           1321    7138    3775    3779
CTETRA      5289       1   17469   17470   15724     860   17476   15753+
+          15755    9052    8990    6478
CTETRA      5290       1   15732     668     409     667    4880    6623+
+           3026    4862    8422    8983
CTETRA      5291       1   17712   16506   17713    1144   16592   16591+
+          17723    8522    8524    8590
CTETRA      5292       1   17469     860   15724    1196    9052    6478+
+          15755    9053    8986    8985
CTETRA      5293       1   17713   16505   17714     205   16594   16593+
+          17724    8554    7957    9048
CTETRA      5294       1   17400   17401   13614     965   17420   14013+
+          14015    7224    8910    7225
CTETRA      5295       1   17445   17446   13408     654   17450   13539+
+          13538    5070    4756    4758
CTETRA      5296       1   17895   16612     840    1174   16665    6249+
+           8141    9054    8742    8744
CTETRA      5297       1   17630   16706   16703     452   16782   16783+
+          16778    3281    3287    8089
CTETRA      5298       1   16025   16027   16028     130   16259   16263+
+          16262    3844    2680    2682
CTETRA      5299       1   17358   17359   13399     924   17376   13485+
+          13483    6943    7471    6944
CTETRA      5300       1   16016   16019   16022     475   16218   16229+
+          16228    6568    4753    3776
CTETRA      5301       1   16598    1103    1202    1203    9055    9056+
+           9057    9058    9059    9060
CTETRA      5302       1   17628   17629   16057      23   17651   16366+
+          16367    1289    2052    3679
CTETRA      5303       1   13772     273     359      16    2699    2693+
+           2701    2789    2696    2695
CTETRA      5304       1   17704   13401   13403     906   13508   13507+
+          13509    6779    6778    9061
CTETRA      5305       1   17934   13403   13404     514   13519   13514+
+          13520    7117    6058    6059
CTETRA      5306       1   16016   16030   16029      31   16273   16271+
+          16267    7139    1317    3822
CTETRA      5307       1   15262   15263     130     247   15541    5072+
+           1694    3412    9062    3824
CTETRA      5308       1   15249   15263   15262     247   15537   15541+
+          15539    3411    9062    3412
CTETRA      5309       1   17926   13400   17384    1171   13517   13495+
+          17396    9063    8721    8720
CTETRA      5310       1   17523   15304   17524     287   15687   15686+
+          17558    8180    2354    6903
CTETRA      5311       1   17506   15275   15269     357   15585   15589+
+          15590    4350    4371    6462
CTETRA      5312       1   17590   15737   15736     269   15820   15793+
+          15819    2268    7059    2269
CTETRA      5313       1   17585   15741   17586     893   15809   15812+
+          17608    8771    6697    9064
CTETRA      5314       1   17934   16026   17639     599   16251   16249+
+          17645    8872    9065    4363
CTETRA      5315       1   16610     122   16611     425    3782    3110+
+          16631    8582    3113    3112
CTETRA      5316       1   15741     666     893    1177    6696    6698+
+           6697    8773    9066    8774
CTETRA      5317       1   17763   13578   13577    1175   13847   13849+
+          13848    8748    9067    8749
CTETRA      5318       1   15218   15219   15238     666   15385   15451+
+          15452    6388    8055    7996
CTETRA      5319       1   15740    1204     747    1122    9068    9069+
+           6684    8351    9070    9071
CTETRA      5320       1   11779     835   11788    1021    6223    9072+
+          11814    8873    9073    7579
CTETRA      5321       1   17818   11790   11781      56   11848   11822+
+          11849    1400    1478    1401
CTETRA      5322       1   11782     310   11783     440    3649    3217+
+          11794    9074    3216    3215
CTETRA      5323       1   16601   16602     122      81   16630    4109+
+           7142    1493    7133    8628
CTETRA      5324       1   17764   13569     905    1119   13823    6771+
+           6770    9075    9076    9077
CTETRA      5325       1   13628   13633     137     389   14059    2965+
+           2894    2897    5448    2898
CTETRA      5326       1   13637     740     554    1104    5480    9078+
+           9079    8164    8166    9080
CTETRA      5327       1   17407    1104   13637    1102    9081    8164+
+          14073    8154    9082    8155
CTETRA      5328       1   17781   16712   16714     122   16808   16806+
+          16803    7304    8135    7305
CTETRA      5329       1   13581   13600   13595     576   13944   13940+
+          13925    4960    5879    4204
CTETRA      5330       1   17823   16512   17879     746   16557   16560+
+          16559    5526    8597    9020
CTETRA      5331       1   17931   15036     512    1041   15079    7214+
+           5780    8964    7723    9083
CTETRA      5332       1   14689   14704   14690     459   14924   14923+
+          14925    3389    6577    3339
CTETRA      5333       1   13644   13668   13669     464   14179   14169+
+          14177    4705    3351    3350
CTETRA      5334       1   17634     256   16724     257    2580    4198+
+          16855    2220    2217    4201
CTETRA      5335       1   17276   14728     388     681   15015    6732+
+           5455    5022    5483    5456
CTETRA      5336       1   14691   14711   14708     461   14951   14948+
+          14946    3342    4484    4483
CTETRA      5337       1   17715   16504   16503     839   16595   16525+
+          16597    9084    8507    6246
CTETRA      5338       1   14695   14699   14698     293   14895   14900+
+          14899    5636    6375    5637
CTETRA      5339       1   14693   14699   14695     556   14892   14895+
+          14875    6369    9085    4031
CTETRA      5340       1   17937     190   13402     109    9086    1950+
+          13501    1600    9087    1601
CTETRA      5341       1   14695   14699     293     556   14895    6375+
+           5636    4031    9085    4026
CTETRA      5342       1   13783   13785   13784     171   14593   14595+
+          14594    3023    3022    6796
CTETRA      5343       1   17789   16701     978    1075   16760    9088+
+           7290    7943    7945    9089
CTETRA      5344       1   13407     601     130    1176    4374    6164+
+           3846    8768    8767    9090
CTETRA      5345       1   13750      15     517     545    6187    8020+
+           3941    3942    6189    3943
CTETRA      5346       1   17790     205   16701     206    1997    9091+
+          16761    1998    2000    3552
CTETRA      5347       1   13749     481     517     168    3500    3892+
+           7733    3501    3492    8023
CTETRA      5348       1   17715   16504    1205    1206   16595    9092+
+           9093    9094    9095    9096
CTETRA      5349       1   13556     166   13639     471    5039    4500+
+          14091    5037    5007    3400
CTETRA      5350       1   17465   17466   15728     328   17485   15765+
+          15767    9097    9098    2524
CTETRA      5351       1   17940   15045   17804    1200   15119   15120+
+          17805    9099    9017    9016
CTETRA      5352       1   13775      66      65     148    1434    1433+
+           1432    4954    4950    2669
CTETRA      5353       1   17503     273      65     148    8965    2720+
+           2667    1765    2302    2669
CTETRA      5354       1   17397   13602   17927     775   13954   13957+
+          17413    5853    5855    5864
CTETRA      5355       1   15253   15272     276     147   15575    5403+
+           2303    2304    5406    2295
CTETRA      5356       1   13549   13775   13774     148   14560   14562+
+          14558    4953    4954    5389
CTETRA      5357       1   17636      90      88     148    5229    2389+
+           2673    2301    2393    2392
CTETRA      5358       1   17927   13602   17765     778   13957   13958+
+          17776    5865    5867    9100
CTETRA      5359       1   17829   16598    1202      32   16650    9057+
+           9101    1318    8917    9102
CTETRA      5360       1   17634      66   17635      69    2219    2218+
+          17641    3521    1446    1749
CTETRA      5361       1   12601   12602      35     591   12628    1343+
+           1339    4299    5632    6397
CTETRA      5362       1   12081   12115   12116      58   12374   12324+
+          12373    7498    2821    2843
CTETRA      5363       1   13552     221     218     498    2717    3614+
+           2089    3615    9103    3616
CTETRA      5364       1   17505      15   14658      16    1269    2808+
+          14734    1271    1270    2811
CTETRA      5365       1   13590     339     207     184    3386    2577+
+           2584    2585    2579    2569
CTETRA      5366       1   13770   13780   13788     169   14616   14617+
+          14611    1848    3946    1857
CTETRA      5367       1   17633     186     360     221    1928    4242+
+           4893    3604    2718    3608
CTETRA      5368       1   13775   13778   13777      65   14576   14577+
+          14575    1432    2308    2721
CTETRA      5369       1   14676      65     170     172    1454    2307+
+           3098    2311    2310    1862
CTETRA      5370       1   14651   14680   14678     170   14832   14834+
+          14824    1850    1849    3097
CTETRA      5371       1   13769   13788   13786     169   14610   14612+
+          14602    1846    1857    2349
CTETRA      5372       1   17502   17503     148     143   17507    1765+
+           2668    1785    1766    1768
CTETRA      5373       1   13778   13781     170     172   14587    5113+
+           2306    2309    7429    1862
CTETRA      5374       1   17406   13637   13636     626   14075   14077+
+          14076    9104    9105    4515
CTETRA      5375       1   13618   13641   13619     393   14106   14108+
+          14109    3160    3144    3161
CTETRA      5376       1   17813   11695     410     791   11753    4782+
+           5275    7951    5963    5969
CTETRA      5377       1   13741     361     469     421    2712    7075+
+           7074    3083    3085    8819
CTETRA      5378       1   14715   14716   14722     471   14972   14991+
+          14990    4532    4531    5006
CTETRA      5379       1   13741     218   13746     469    2711    6630+
+          14458    7074    7073    6856
CTETRA      5380       1   16992   16993   11609     962   17011   11659+
+          11660    9106    7202    8904
CTETRA      5381       1   13744   13745   13747     469   14448   14456+
+          14455    6746    3392    6598
CTETRA      5382       1   17024   11893   11895     659   12015   12013+
+          12010    7558    4779    4781
CTETRA      5383       1   13644     464    1207    1190    4705    9107+
+           9108    8926    8928    9109
CTETRA      5384       1   13644     811   13768     810    9110    6072+
+          14523    6399    6074    6065
CTETRA      5385       1   14691     464   14711     461    7436    4704+
+          14951    3342    4709    4484
CTETRA      5386       1   16712     122      94      97    8135    3871+
+           1566    1567    1667    1560
CTETRA      5387       1   14663   14665   14664     544   14764   14763+
+          14765    7766    4020    4007
CTETRA      5388       1   17359   17360   13397     923   17374   13474+
+          13475    8268    8021    6940
CTETRA      5389       1   13690      55   13692      43    2035    5515+
+          14251    2036    1399    5517
CTETRA      5390       1   13683   13691   13689     124   14244   14247+
+          14245    4660    4659    2065
CTETRA      5391       1   13649   13690   13650      49   14263   14252+
+          14264    5769    2033    3043
CTETRA      5392       1   17859   17860   11783     441   17862   11831+
+          11832    8881    6152    3218
CTETRA      5393       1   17858   11784     960     961   11834    7176+
+           9111    8879    7177    7179
CTETRA      5394       1   17839   11689     175     899   11739    1877+
+           8891    9013    6729    7736
CTETRA      5395       1   13678   13696     192     178   14283    8619+
+           1956    1905    1907    1955
CTETRA      5396       1   13624   13675   13661     140   14191   14193+
+          14133    1733    4872    1734
CTETRA      5397       1   13623   13624   13661     136   14050   14133+
+          14132    2458    1732    1725
CTETRA      5398       1   11790      78    1208     933    1481    9112+
+           9113    7018    7020    9114
CTETRA      5399       1   17818   17942   17852    1070   17822   17870+
+          11847    7912    7914    9115
CTETRA      5400       1   17860   11782   11783     440   11830   11794+
+          11831    6151    9074    3215
CTETRA      5401       1   15301   15303   15305     134   15683   15691+
+          15688    1708    4078    4080
CTETRA      5402       1   11784     309     961     745    6327    9116+
+           7177    5520    9117    8880
CTETRA      5403       1   17277     137     388     480    2903    2895+
+           6799    6330    6301    4154
CTETRA      5404       1   17819   11781   17067      28   11850   11851+
+          11852    1307    8699    1312
CTETRA      5405       1   17810      37     377     705    2849    2850+
+           2835    5234    9118    5235
CTETRA      5406       1   13623   13661   13664     136   14132   14136+
+          14134    2458    1725    1724
CTETRA      5407       1   17277     137     136     390    2903    1723+
+           2943    2906    2905    2931
CTETRA      5408       1   11884   11886   11885     181   11961   11963+
+          11962    4875    4878    4886
CTETRA      5409       1   11777     192     387     920    7380    8109+
+           2892    6909    9119    6910
CTETRA      5410       1   17017    1186   11872    1187    9120    8883+
+          11928    9121    8886    8885
CTETRA      5411       1   15223   15224   15229     312   15381   15412+
+          15410    6382    6625    3314
CTETRA      5412       1   17145   17146   11885     178   17162   11981+
+          11974    1896    5463    5839
CTETRA      5413       1   13623   13631   13624     136   14049   14048+
+          14050    2458    2459    1732
CTETRA      5414       1   17017   11875   11872     385   11932   11933+
+          11928    8688    2882    2881
CTETRA      5415       1   11872   11875   11873     192   11933   11938+
+          11939    2779    2880    4911
CTETRA      5416       1   11783     309   11784     441    7271    6327+
+          11798    3218    7272    8882
CTETRA      5417       1   17276     137     390     680    2902    2905+
+           2904    5020    8285    5702
CTETRA      5418       1   17143     137     309     311    6919    2929+
+           2460    2463    7276    2464
CTETRA      5419       1   17144     140     831     958    3537    8711+
+           7167    7169    8877    7170
CTETRA      5420       1   13585     207   13586     335    2574    2021+
+          13881    2575    2576    5952
CTETRA      5421       1   17276   14720   17277     388   14984   14983+
+          17299    5455    4142    6799
CTETRA      5422       1   17405   13636   13635     150   14078   14080+
+          14079    4508    3090    5152
CTETRA      5423       1   15729     881     326     879    6647    9122+
+           7501    6613    6648    7652
CTETRA      5424       1   17018   11883   17019     790   11958   11959+
+          17028    7520    5942    5941
CTETRA      5425       1   17789   16701   16702     978   16760   16765+
+          16764    7290    9088    7296
CTETRA      5426       1   11785     182     181    1128    1911    1913+
+           1910    8388    8387    9123
CTETRA      5427       1   16000     668     131     616    4882    5286+
+           5310    5311    5287    4445
CTETRA      5428       1   16603     452   16612     121    4397    6251+
+          16636    3140    4398    3141
CTETRA      5429       1   15728     326     994    1209    2526    8074+
+           7391    9124    9125    9126
CTETRA      5430       1   17788   17789   16702     979   17795   16764+
+          16766    9127    7295    7294
CTETRA      5431       1   17364   17365   13393    1210   17371   13455+
+          13456    9128    9129    9130
CTETRA      5432       1   13560   13564     121      40   13819    1652+
+           3288    6762    1654    1653
CTETRA      5433       1   12895     504     502    1048    3645    3647+
+           3644    7773    7772    9131
CTETRA      5434       1   13611     292      25     678    5017    2381+
+           5043    5009    8916    8106
CTETRA      5435       1   13637     740     465    1053    5480    5482+
+           5449    7814    7816    9132
CTETRA      5436       1   13628   13638   13637     388   14087   14088+
+          14074    2896    4170    5479
CTETRA      5437       1   17144   12094     142     390   12235    7267+
+           1742    7129    6322    7374
CTETRA      5438       1   12929      61   12933     436    3247    3139+
+          13232    3248    3242    3195
CTETRA      5439       1   17277   12935   12937     142   13239   13248+
+          13246    2945    6439    4646
CTETRA      5440       1   17276     558   12931     766    6334    4639+
+          13252    5703    6921    5796
CTETRA      5441       1   12083   12084   12126     444   12241   12358+
+          12359    3229    3244    3230
CTETRA      5442       1   12929   12930   12936     444   13233   13243+
+          13242    3246    4655    7725
CTETRA      5443       1   12084   12095   12094     444   12239   12240+
+          12233    3244    8696    6913
CTETRA      5444       1   12932     436     162     919    3194    3196+
+           3134    6899    9133    6900
CTETRA      5445       1   13620     465     466     393    5354    3357+
+           5454    4493    4169    4168
CTETRA      5446       1   13624     140     136     309    1733    1735+
+           1732    5818    6326    2930
CTETRA      5447       1   13631   13632   13634     309   14053   14071+
+          14072    5254    2941    2940
CTETRA      5448       1   12735   12110     129     640    9134    5189+
+           7740    7192    5192    5191
CTETRA      5449       1   17144   12094   17145     142   12235   12236+
+          17160    1742    7267    1743
CTETRA      5450       1   12094     558     444     142    6321    4635+
+           6913    7267    4648    4647
CTETRA      5451       1   17276   17277   12937     390   17299   13246+
+          13247    2904    2906    6335
CTETRA      5452       1   17277     142   12937     390    2945    4646+
+          13246    2906    7374    6335
CTETRA      5453       1   12106   12109   12111      36   12291   12298+
+          12300    7196    5202    5201
CTETRA      5454       1   17278     138     136     480    5826    1728+
+           2944    3466    6570    6302
CTETRA      5455       1   17818   11773   11782     505   11827   11791+
+          11828    8576    3650    3652
CTETRA      5456       1   17145     138     136     142    1746    1728+
+           1740    1743    5825    1744
CTETRA      5457       1   13636     422   13637     423    3092    7812+
+          14077    3093    3095    3995
CTETRA      5458       1   17408   17409   13633     314   17426   14068+
+          14060    4976    2473    2472
CTETRA      5459       1   12895   12896   12909     504   13097   13147+
+          13146    3645    3826    3646
CTETRA      5460       1   12895   12909   12907     502   13146   13144+
+          13137    3644    3643    6977
CTETRA      5461       1   17790   16919     204     206   16980    9135+
+           1995    1998    9136    1999
CTETRA      5462       1   17226   17227   12895    1048   17229   13094+
+          13095    9137    7771    7773
CTETRA      5463       1   17112   12613   12612     630   12705   12662+
+          12708    8754    4546    4836
CTETRA      5464       1   12895   12899   12896     504   13096   13098+
+          13097    3645    3827    3826
CTETRA      5465       1   17226   12895     502    1048   13095    3644+
+           8712    9137    7773    9131
CTETRA      5466       1   17093   13387   13385     502   13426   13425+
+          13422    3653    7238    7680
CTETRA      5467       1   11892   11896     124     410   12043    6852+
+           3309    3063    7871    4662
CTETRA      5468       1   12908     502   12909      19    5830    3643+
+          13145    1486    4575    1487
CTETRA      5469       1   17114   12615   12614     802   12701   12668+
+          12704    7136    6020    9138
CTETRA      5470       1   15292   15295     212     241   15653    2143+
+           2029    7676    2155    2157
CTETRA      5471       1   17461   15732   15733     500   15779   15781+
+          15780    5739    5301    3629
CTETRA      5472       1   12917   12928   12926      60   13213   13209+
+          13211    6795    6611    5868
CTETRA      5473       1   17108   12609   12608    1011   12713   12650+
+          12716    7545    8861    7513
CTETRA      5474       1   17247   12615     856    1000   12667    6457+
+           6456    7439    7441    8752
CTETRA      5475       1   12883   12884   12889     485   13049   13065+
+          13067    8374    6659    5535
CTETRA      5476       1   12166   12173   12176     100   12530   12538+
+          12537    5529    5531    3234
CTETRA      5477       1   16004   16005   16008     353   16166   16186+
+          16184    5724    5305    5726
CTETRA      5478       1   17108      79   12609    1009    9139    1483+
+          12713    9140    7493    7492
CTETRA      5479       1   17107   12608    1183    1011   12715    8845+
+           9141    7544    7513    8846
CTETRA      5480       1   17109   12610   12609      79   12711   12653+
+          12714    9142    1484    1483
CTETRA      5481       1   16004   16008   16009     744   16184   16181+
+          16185    6644    5729    5507
CTETRA      5482       1   12943     101     100     696    2597    1573+
+           1580    5146    5738    5147
CTETRA      5483       1   17104   17105   12605     618   17138   12722+
+          12721    9143    7398    4460
CTETRA      5484       1   12730     251     259     692    5049    2235+
+           5044    5117    6405    7506
CTETRA      5485       1   12616     620     801     872    4968    6018+
+           6017    6551    6553    9144
CTETRA      5486       1   12616     674     632     944    4970    4972+
+           4969    7084    7083    9145
CTETRA      5487       1   17236   12604   12605     253   12635   12637+
+          12636    3254    4404    4449
CTETRA      5488       1   17115   12616     801     872   12699    6017+
+           8392    7838    6551    9144
CTETRA      5489       1   17249   12616   12617     868   12672   12674+
+          12673    9146    7308    6535
CTETRA      5490       1   12167   12168   12169     255   12508   12511+
+          12512    5521    4456    5066
CTETRA      5491       1   17168   17169   12740     828   17205   12804+
+          12799    9147    6191    6190
CTETRA      5492       1   12749     104     827     588    2600    6156+
+           6155    4279    8730    6418
CTETRA      5493       1   12173     255      99     100    5522    5068+
+           4275    5531    5533    1569
CTETRA      5494       1   12169   12170   12174      99   12521   12526+
+          12528    4274    2876    2875
CTETRA      5495       1   17315   12737     641     644   12783    4691+
+           7845    7829    4692    4694
CTETRA      5496       1   17302   12740   12742     578   12796   12807+
+          12805    7659    6096    4224
CTETRA      5497       1   12179      75     477     478    6115    5316+
+           3453    3456    7521    3457
CTETRA      5498       1   12859   12860     255     485   13063    8380+
+           7734    7691    5534    5523
CTETRA      5499       1   17104     618   12605    1017    9143    4460+
+          12721    9148    7561    7560
CTETRA      5500       1   12173     485     255     100    3511    5523+
+           5522    5531    5530    5533
CTETRA      5501       1   12179      76      75     478    6440    1470+
+           6115    3456    5610    7521
CTETRA      5502       1   12860     255     485     100    8380    5523+
+           5534    5374    5533    5530
CTETRA      5503       1   12129   12142   12130     528   12419   12414+
+          12420    3833    3834    4790
CTETRA      5504       1   17111   12612   12611     663   12707   12659+
+          12710    7552    4807    4806
CTETRA      5505       1   12943     104     700     696    1583    6153+
+           5182    5146    5148    5185
CTETRA      5506       1   15264   15267   15272     327   15569   15573+
+          15572    2521    4617    2533
CTETRA      5507       1   12608     883      74    1125    7516    7518+
+           7515    8366    9149    9150
CTETRA      5508       1   12168   12171   12169     255   12514   12520+
+          12511    4456    4455    5066
CTETRA      5509       1   12156   12166   12157     485   12502   12500+
+          12505    5496    3509    4293
CTETRA      5510       1   12918     526   12919    1037    3803    3805+
+          13173    7696    9151    7697
CTETRA      5511       1   17147     226     534     573    2804    4583+
+           7963    4849    4587    4586
CTETRA      5512       1   16503      89     839    1211    6241    6247+
+           6246    9152    9153    9154
CTETRA      5513       1   12857   12870   12871     632   12976   12986+
+          12983    4842    4964    4963
CTETRA      5514       1   12076   12138   12139     620   12401   12390+
+          12398    4997    6954    4981
CTETRA      5515       1   17113   17114   12614     956   17133   12704+
+          12703    7160    9155    7161
CTETRA      5516       1   12097      34   12119     216    1685    1736+
+          12334    5244    5246    5195
CTETRA      5517       1   17149   12139   17150     195   12384   12383+
+          17166    4846    4982    5670
CTETRA      5518       1   13699     467     215     454    3372    3415+
+           3324    3327    3374    3291
CTETRA      5519       1   12614     802   12615    1000    9138    6020+
+          12668    7440    7534    7441
CTETRA      5520       1   12113   12127   12125     162   12364   12362+
+          12355    1816    1815    4703
CTETRA      5521       1   13620   13667     430     466   14156    4145+
+           4492    5454    4147    4146
CTETRA      5522       1   17109   12610     807     808   12711    6047+
+           9156    7433    6048    6050
CTETRA      5523       1   12609      74   12610      77    1482    1473+
+          12653    8659    1476    1475
CTETRA      5524       1   17344   12932     918     919   13218    6897+
+           7726    9157    6899    6901
CTETRA      5525       1   11891   11901   11900     215   12045   12040+
+          12044    3307    3312    3414
CTETRA      5526       1   17924   15053   17435     554   15188   15166+
+          17439    5025    9158    4000
CTETRA      5527       1   12949   12950   12951     253   13290   13293+
+          13294    2200    4447    2201
CTETRA      5528       1   17108   17109   12609      79   17142   12714+
+          12713    9139    9142    1483
CTETRA      5529       1   12970     447     642      35    6452    5105+
+           6401    6400    5098    5107
CTETRA      5530       1   17344   12931   12932     816   13217   13219+
+          13218    8651    6113    7811
CTETRA      5531       1   12940     641      36     642    4676    5329+
+           5328    7747    4683    5913
CTETRA      5532       1   12744     251   12745     272    2227    2226+
+          12827    2277    2279    9159
CTETRA      5533       1   12105   12111   12112     641   12301   12307+
+          12303    4680    7197    5336
CTETRA      5534       1   12105     641     486     642    4680    4690+
+           5335    4681    4683    5338
CTETRA      5535       1   12913   12914   12969      37   13192   13364+
+          13363    2852    6267    1336
CTETRA      5536       1   12075   12089   12076     632   12201   12203+
+          12202    4553    4552    4996
CTETRA      5537       1   17249   12617    1129     868   12673    8390+
+           8389    9146    6535    9160
CTETRA      5538       1   17023   11893   17024    1062   12018   12015+
+          17036    7972    7873    9161
CTETRA      5539       1   16059   16082   16090     117   16460   16489+
+          16488    7387    4091    5537
CTETRA      5540       1   12915   12934   12935     142   13237   13241+
+          13240    4257    5819    6439
CTETRA      5541       1   12915   12916   12934     582   13161   13236+
+          13237    4259    7425    5820
CTETRA      5542       1   12934    1168     773    1170    8693    8695+
+           5821    8705    8799    8706
CTETRA      5543       1   17312   12730   17313     692   12819   12791+
+          17334    8641    5117    5116
CTETRA      5544       1   17921   17342   12911     862   17349   13200+
+          13329    9162    6495    6497
CTETRA      5545       1   11790    1045      78     402    9163    9164+
+           1481    2964    9165    7017
CTETRA      5546       1   15254   15256   15257     334   15500   15511+
+          15505    2551    6093    2552
CTETRA      5547       1   12918     869     526    1037    6539    6541+
+           3803    7696    8848    9151
CTETRA      5548       1   17912   15055    1083     936   15172    8012+
+           8011    7028    7027    9166
CTETRA      5549       1   17813   17814   11678      54   17816   11730+
+          11732    3058    4325    4316
CTETRA      5550       1   13689   13693     215      55   14262    3325+
+           2063    2049    2045    2066
CTETRA      5551       1   15272     733     330     873    5407    9167+
+           2534    6560    7369    6561
CTETRA      5552       1   11898   11899   11900     467   12033   12035+
+          12036    3446    3447    3416
CTETRA      5553       1   11901     215     124     236    3312    2064+
+           3310    4673    4672    2140
CTETRA      5554       1   13681     236     931    1080    3441    7010+
+           7009    7993    9168    7994
CTETRA      5555       1   16995   13682   13681     125   14232   14241+
+          14240    8653    1671    7990
CTETRA      5556       1   13766   13767   13783     376   14530   14589+
+          14590    3018    2831    2833
CTETRA      5557       1   17020   11880   17021     903   11986   11987+
+          17033    7069    6756    7320
CTETRA      5558       1   17818   17852   11790     933   11847   11846+
+          11848    8290    8292    7018
CTETRA      5559       1   11774   11775   11783     309   11797   11796+
+          11795    9169    6325    7271
CTETRA      5560       1   17810   12621      58     710   12688    2827+
+           2834    8385    5257    5259
CTETRA      5561       1   12918   12921   12920     526   13170   13172+
+          13171    3803    4561    3804
CTETRA      5562       1   17252   12620   17253    1050   12682   12684+
+          17274    8192    8193    9170
CTETRA      5563       1   12619     584     777     585    4253    7858+
+           5861    4256    4255    9171
CTETRA      5564       1   11774   11783     310     309   11795    3217+
+           5112    9169    7271    2461
CTETRA      5565       1   13634     310     309     158    3772    2461+
+           2940    1804    6649    6328
CTETRA      5566       1   17143     309   17144     882    2460    7246+
+          17167    6652    7279    8800
CTETRA      5567       1   13632     309     136     137    2941    2930+
+           1719    1722    2929    1723
CTETRA      5568       1   12130   12131   12179     478   12412   12556+
+          12555    4789    4788    3456
CTETRA      5569       1   16993     106   11609    1079    1590    9172+
+          11659    7984    8416    9173
CTETRA      5570       1   12131   12187   12179      76   12581   12583+
+          12556    4816    1471    6440
CTETRA      5571       1   12132   12189   12187      76   12598   12595+
+          12582    5625    6449    1471
CTETRA      5572       1   12181   12182   12187      75   12569   12585+
+          12594    1466    5217    1467
CTETRA      5573       1   11782    1165     310    1199    8669    9174+
+           3649    9011    9175    9176
CTETRA      5574       1   12181   12187   12189      74   12594   12595+
+          12593    1465    1469    6450
CTETRA      5575       1   13390     163     223     940    5082    3126+
+           5081    7043    7405    8027
CTETRA      5576       1   13384   13386     431     633   13414    4579+
+           9177    8723    4580    4582
CTETRA      5577       1   15727   15728     188     213   15766    8224+
+           1933    2038    7388    9178
CTETRA      5578       1   15275     327     357     276    6168    4598+
+           4371    4932    6169    6295
CTETRA      5579       1   16991     794    1007     859    6471    9179+
+           7486    6472    6474    7489
CTETRA      5580       1   13684   13687     193     110   14225    5674+
+           5835    1605    1604    7261
CTETRA      5581       1   17017   11872   17018    1187   11928   11929+
+          17029    9121    8885    9180
CTETRA      5582       1   16997   13684   16998     973   14202   14201+
+          17004    9181    7262    9182
CTETRA      5583       1   16997     110   13684     973    1603    1605+
+          14202    9181    7263    7262
CTETRA      5584       1   12098   12099   12118      37   12265   12331+
+          12332    3884    8396    5237
CTETRA      5585       1   17732   16600   17733     521   16689   16688+
+          17743    9183    3789    7935
CTETRA      5586       1   12912   12923   12913     217   13193   13191+
+          13194    2072    6815    4315
CTETRA      5587       1   16725   16728     256     345   16873    4213+
+           4210    8048    6014    6174
CTETRA      5588       1   16608   16609     980    1212   16621    7302+
+           8310    9184    9185    9186
CTETRA      5589       1   12926      61     444      60    5599    3232+
+           5880    5868    1412    5882
CTETRA      5590       1   12934      60     444    1170    5870    5882+
+           5881    8705    8707    8798
CTETRA      5591       1   17783   16709      98     798   16813    5668+
+           5995    8450    5994    8758
CTETRA      5592       1   12934     444     142    1168    5881    4647+
+           5819    8693    8797    8694
CTETRA      5593       1   15254   15257   15255     326   15505   15507+
+          15506    2550    2549    7679
CTETRA      5594       1   15721    1147     367    1150    8533    8532+
+           5260    8542    9187    9188
CTETRA      5595       1   12734     129   12735     997    7003    7740+
+          12775    7414    7413    8756
CTETRA      5596       1   15035     365     277     915    5475    3707+
+           5474    6882    6881    8019
CTETRA      5597       1   12736     641   12737     720    4685    4691+
+          12785    8401    5331    5330
CTETRA      5598       1   17181   17182   12737     720   17192   12786+
+          12787    7840    8400    5330
CTETRA      5599       1   17734   16598   17735    1203   16692   16651+
+          17745    9189    9058    9190
CTETRA      5600       1   16607      80     208     210    1491    8476+
+           2013    2016    7551    2017
CTETRA      5601       1   12734     129     930    1043    7003    7005+
+           7004    7741    7743    8219
CTETRA      5602       1   12104   12108   12109     129   12289   12293+
+          12292    6997    6996    5188
CTETRA      5603       1   17316   12736   12735     640   12781   12780+
+          12777    5200    4684    7192
CTETRA      5604       1   17316   12735   17317    1151   12777   12776+
+          17325    8545    8547    9191
CTETRA      5605       1   17183     640   12110    1213    7191    5192+
+          12297    9192    9193    9194
CTETRA      5606       1   17829    1018      32    1214    7563    7565+
+           1318    9195    9196    9197
CTETRA      5607       1   12941   12966   12965     640   13346   13347+
+          13342    4674    5199    5198
CTETRA      5608       1   17635   17636     148     257   17640    2301+
+           4949    2221    5230    4951
CTETRA      5609       1   15725     627     183    1060    5898    4523+
+           2608    7865    8997    8956
CTETRA      5610       1   16723     576      90     257    6820    4664+
+           5228    5231    4202    4962
CTETRA      5611       1   17503     273   17504     359    8965    2299+
+          17509    6871    2693    2692
CTETRA      5612       1   17363   17364   13395    1089   17372   13459+
+          13461    9198    8822    8080
CTETRA      5613       1   17783   16911   16910      98   16934   16929+
+          16933    5995    4741    4740
CTETRA      5614       1   17913    1087   17154     967    9199    8070+
+          17156    9200    8072    7233
CTETRA      5615       1   17531   15283   15281    1020   15603   15605+
+          15599    9201    9040    7576
CTETRA      5616       1   17785     351   16726    1096    5708    5707+
+          16868    8734    8735    8127
CTETRA      5617       1   17050   11683   17051     986   11763   11762+
+          17061    8123    7338    7337
CTETRA      5618       1   17782      94   16712     895    1551    1566+
+          16815    6706    8136    6707
CTETRA      5619       1   17710     290   16509    1215    9202    9203+
+          16585    9204    9205    9206
CTETRA      5620       1   17709   16509   17710     290   16586   16585+
+          17720    9207    9203    9202
CTETRA      5621       1   17711   16507   17712     741   16590   16589+
+          17722    9208    5489    5488
CTETRA      5622       1   17913   17154     432     497   17156    3168+
+           8684    9209    3591    4038
CTETRA      5623       1   11680   11681   11689       7   11706   11705+
+          11704    7748    4335    1875
CTETRA      5624       1   17399   13608   13609      27   13988   13989+
+          13986    7182    8102    8244
CTETRA      5625       1   17397   17398   13601    1216   17416   13991+
+          13956    9210    9211    9212
CTETRA      5626       1   17091   13384   17913     432   13416   13470+
+          17099    9213    9214    8684
CTETRA      5627       1   17043   13393     572     975   13454    4162+
+           4161    9215    7282    9216
CTETRA      5628       1   17897   16614   17898    1114   16669   16670+
+          17906    8294    8296    8979
CTETRA      5629       1   17043   17044   11904     572   17047   12066+
+          12065    4161    9217    9218
CTETRA      5630       1   17362   17363   13394     491   17373   13462+
+          13457    8809    3562    3564
CTETRA      5631       1   17896     849   16613    1057    9219    6340+
+          16667    7830    7902    7831
CTETRA      5632       1   17913   13393   17043     975   13466   13454+
+          17045    7280    7282    9215
CTETRA      5633       1   17714   16504   17715    1206   16596   16595+
+          17725    9220    9095    9094
CTETRA      5634       1   17715   16503   17716     839   16597   16556+
+          17726    9084    6246    8058
CTETRA      5635       1   16513     714     716    1141    5292    5296+
+           5295    8497    9221    8498
CTETRA      5636       1   17762      94   13575     799    3887    3873+
+          13844    8634    5999    5998
CTETRA      5637       1   16513     715   16514     894    5294    7379+
+          16526    6700    6702    7955
CTETRA      5638       1   17937   16693   17790    1217   16733   16735+
+          17791    9222    9223    9224
CTETRA      5639       1   16032   16033   16081     234   16314   16458+
+          16457    4228    6532    3704
CTETRA      5640       1   17934   13404   13405      13   13520   13516+
+          13523    8871    5809    6455
CTETRA      5641       1   13754   13756   13755      13   14474   14476+
+          14475    1252    1618    1253
CTETRA      5642       1   17934      13   17639     515    8871    4562+
+          17645    7118    6060    3721
CTETRA      5643       1   13563   13588   13589     121   13890   13897+
+          13898    6764    1658    3109
CTETRA      5644       1   15036     277     512    1041    5464    7270+
+           7214    7723    7722    9083
CTETRA      5645       1   17354   13405      13    1047   13515    6455+
+           6454    7768    7770    9225
CTETRA      5646       1   17353   17354   13404      85   17382   13513+
+          13512    1507    8866    1508
CTETRA      5647       1   17538   15220     577     624   15365    4218+
+           4502    5418    4507    5748
CTETRA      5648       1   13588     122     121      97    3107    1665+
+           1658    1659    1667    1656
CTETRA      5649       1   16600   16601   16610     943   16628   16627+
+          16626    7051    7597    8648
CTETRA      5650       1   15281     111     112    1040    7694    1613+
+           7708    7710    8974    7711
CTETRA      5651       1   17895   16611   16612     566   16664   16635+
+          16665    8584    4122    8627
CTETRA      5652       1   15861     406   15862     822    8469    4117+
+          15934    6133    8470    8788
CTETRA      5653       1   15281     406     565    1020    8486    4121+
+           7704    7576    9041    7703
CTETRA      5654       1   17781   16712     122     895   16808    8135+
+           7304    6705    6707    8137
CTETRA      5655       1   16709   16717      98     207   16827    2032+
+           5668    8645    3375    3376
CTETRA      5656       1   15977   15990   15991     183   16096   16106+
+          16103    2042    1914    2043
CTETRA      5657       1   13781   13782   13787     172   14585   14609+
+          14614    7429    1867    1860
CTETRA      5658       1   15281     228    1019    1020    8194    8195+
+           7573    7576    9226    7577
CTETRA      5659       1   15283     563     406    1107    4113    4112+
+           4111    8201    8200    9227
CTETRA      5660       1   17530   15283     563     564   15604    4113+
+           9228    9229    4114    4116
CTETRA      5661       1   13552   13567   13558     221   13797   13801+
+          13800    2717    2719    7062
CTETRA      5662       1   13549   13580   13550      66   13865   13872+
+          13873    4952    4957    2323
CTETRA      5663       1   13550   13579   13551      67   13869   13868+
+          13870    2325    2326    1444
CTETRA      5664       1   16041     360     183     627    4526    4525+
+           4520    4522    4542    4523
CTETRA      5665       1   17600   15978   15991     183   16101   16105+
+          16108    2606    2044    2043
CTETRA      5666       1   17635   17636   15989     143   17640   16093+
+          16092    1750    1780    1781
CTETRA      5667       1   13551   13764   13776      68   14536   14564+
+          14563    1443    3101    1438
CTETRA      5668       1   14650   14676      65     170   14815    1454+
+           3115    3096    3098    2307
CTETRA      5669       1   13550   13580   13579      66   13872   13874+
+          13869    2323    4957    2324
CTETRA      5670       1   17807   17935   17605     711   17808   17606+
+          15742    5262    8330    8553
CTETRA      5671       1   15721     367    1218    1150    5260    9230+
+           9231    8542    9188    9232
CTETRA      5672       1   13781   13787     170     172   14614    1855+
+           5113    7429    1860    1862
CTETRA      5673       1   11784     309     140     961    6327    6326+
+           6324    7177    9116    7178
CTETRA      5674       1   13553     221   13558     296    3619    7062+
+          13968    6631    6810    7071
CTETRA      5675       1   17603   15722   17604     844   15848   15847+
+          17626    9233    6287    6286
CTETRA      5676       1   17605   15721    1218    1150   15744    9231+
+           9234    8543    8542    9232
CTETRA      5677       1   17930   15721   17472    1148   15745   15746+
+          17483    9235    8534    8552
CTETRA      5678       1   16000   16006   16005     131   16157   16163+
+          16162    5310    6419    5304
CTETRA      5679       1   15851   15852     133     559   15875    4066+
+           7995    8515    4067    4069
CTETRA      5680       1   13551   13567   13552     186   13798   13797+
+          13799    8087    2716    2715
CTETRA      5681       1   17531   15281   17532    1020   15599   15598+
+          17549    9201    7576    7575
CTETRA      5682       1   14676   14678   14677     172   14825   14831+
+          14830    2311    5120    1888
CTETRA      5683       1   13779   13782   13781     172   14583   14585+
+          14584    1883    1867    7429
CTETRA      5684       1   17500     176     222     487    3508    7432+
+           2094    3526    3546    4927
CTETRA      5685       1   17406     626   13636     152    9104    4515+
+          14076    1783    4517    1784
CTETRA      5686       1   15979   16003   15980     672   16161   16182+
+          16183    8525    9023    5514
CTETRA      5687       1   17404   17405   13635    1094   17429   14079+
+          14081    8826    8976    8110
CTETRA      5688       1   13636   13640   13641     393   14096   14102+
+          14101    3143    3151    3144
CTETRA      5689       1   15735     672   15736     139    6079    5367+
+          15790    6071    7660    1731
CTETRA      5690       1   17457   15736     141     139   15791    1738+
+           1737    1729    1731    6277
CTETRA      5691       1   17530   15283   17531     563   15604   15603+
+          17551    9228    4113    8198
CTETRA      5692       1   15737     403     412     413    7058    9236+
+           3038    3041    8415    3042
CTETRA      5693       1   17224   12905   12906     433   13134   13133+
+          13132    8718    3183    3171
CTETRA      5694       1   11893   11896     410    1064   12019    7871+
+           4777    7879    7878    7982
CTETRA      5695       1   17834     858   11694     794    8896    8898+
+          11749    5974    6470    5975
CTETRA      5696       1   17598   15728   17599     993   15835   15838+
+          17621    8269    7390    9237
CTETRA      5697       1   17669   15867   17670    1194   15956   15957+
+          17690    9238    8962    8961
CTETRA      5698       1   15866     300   15867     458    8511    2430+
+          15958    3321    8512    8267
CTETRA      5699       1   17670   15867   15868     301   15957   15963+
+          15961    5741    2432    5421
CTETRA      5700       1   16990   16991   11610    1068   17013   11669+
+          11670    7896    9239    9240
CTETRA      5701       1   15228     300     301    1110    2734    2431+
+           8236    8238    9241    8239
CTETRA      5702       1   17465     328   15728     329    9097    2524+
+          15767    7585    2528    2527
CTETRA      5703       1   17835   11692   11693     524   11746   11717+
+          11747    8425    3797    7549
CTETRA      5704       1   17603     728   15723     729    9031    5381+
+          15845    9033    5384    5383
CTETRA      5705       1   13574      98     547     598    4355    6261+
+           6260    4358    4357    8437
CTETRA      5706       1   17807   17930   15741     951   17809   15807+
+          15808    7114    8789    7115
CTETRA      5707       1   13657   13671   13670     472   14189   14190+
+          14188    4045    6044    5654
CTETRA      5708       1   17280   12921   12918     583   13165   13170+
+          13164    4865    4563    4282
CTETRA      5709       1   13671     472     534     226    6044    4044+
+           6765    6045    4584    4583
CTETRA      5710       1   13658   13672   13671     534   14184   14186+
+          14185    3876    4588    6765
CTETRA      5711       1   13671   13700   13702     472   14299   14306+
+          14305    6044    6043    6360
CTETRA      5712       1   13650      50      49      43    7221    1373+
+           3043    3044    1377    1376
CTETRA      5713       1   17149     455     472     195    3408    3407+
+           3406    4846    5671    6555
CTETRA      5714       1   13593   13595   13596     256   13927   13931+
+          13930    6172    2213    4203
CTETRA      5715       1   17823   17824   16512      89   17826   16558+
+          16557    5525    6242    7361
CTETRA      5716       1   15249   15250   15297     442   15540   15669+
+          15668    3223    3225    3623
CTETRA      5717       1   17152   11876      49      43   11944    3065+
+           1372    1375    1394    1376
CTETRA      5718       1   16021   16022   16024     499   16231   16244+
+          16243    3774    3773    6489
CTETRA      5719       1   12866     431   12905     503    4061    3182+
+          13128    5793    4055    6982
CTETRA      5720       1   16007     608     609     744    5594    4416+
+           5593    6338    5589    5579
CTETRA      5721       1   17148     472     226     573    6041    4584+
+           2104    4165    4585    4587
CTETRA      5722       1   11680   11689      50       7   11704    6728+
+           7228    7748    1875    3598
CTETRA      5723       1   15277     672   15286     744    5740    6904+
+          15620    6602    5509    6905
CTETRA      5724       1   17840     730   11688     731    7199    5390+
+          11737    7207    5394    5393
CTETRA      5725       1   15301   15302   15307     131   15689   15705+
+          15714    1706    1718    5283
CTETRA      5726       1   13710   13725   13711     282   14379   14381+
+          14380    2847    2846    3738
CTETRA      5727       1   13727     294     107     105    6056    4035+
+           3737    5655    4071    1595
CTETRA      5728       1   14649     107     294     105    5829    4035+
+           5828    5495    1595    4071
CTETRA      5729       1   17283     108   17284     743    1597    1609+
+          17288    5501    5669    5502
CTETRA      5730       1   15250   15251   15299     499   15532   15676+
+          15675    3626    6485    6487
CTETRA      5731       1   13733     281     282     650    2337    2335+
+           6791    4725    8865    8000
CTETRA      5732       1   13752   13773   13772      16   14543   14542+
+          14540    1267    2786    2789
CTETRA      5733       1   14644   14645   14707     173   14836   14936+
+          14938    2079    8088    8083
CTETRA      5734       1   13740   13746   13741     218   14454   14458+
+          14459    2091    6630    2711
CTETRA      5735       1   13741   13746   13747     469   14458   14457+
+          14460    7074    6856    6598
CTETRA      5736       1   17655   15851   15854     133   15872   15888+
+          15886    7618    7995    7987
CTETRA      5737       1   15980   16003   16009     672   16182   16187+
+          16177    5514    9023    5506
CTETRA      5738       1   15980   16009   15981     239   16177   16176+
+          16178    2968    5504    5577
CTETRA      5739       1   13548   13774   13773     273   14557   14559+
+          14556    2675    5109    3915
CTETRA      5740       1   17597   15729   17598      52   15833   15836+
+          17620    1384    1386    7495
CTETRA      5741       1   14650   14651   14678     170   14743   14824+
+          14823    3096    1850    3097
CTETRA      5742       1   16069     403   16071     405    6272    2984+
+          16414    8499    2988    2987
CTETRA      5743       1   17094   13388   13387     504   13432   13429+
+          13427    7242    7250    7237
CTETRA      5744       1   14645   14677   14679     172   14835   14838+
+          14837    1865    1888    1866
CTETRA      5745       1   13787     170     171     546    1855    1859+
+           1858    3949    8608    5126
CTETRA      5746       1   13778      65      68     172    2308    1439+
+           3519    2309    2310    1889
CTETRA      5747       1   15265   15271   15267      30   15562   15570+
+          15568    6571    7040    4618
CTETRA      5748       1   14703   14704   14707     459   14926   14941+
+          14940    6965    6577    6832
CTETRA      5749       1   14692   14701   14699     464   14901   14904+
+          14893    7438    7437    7444
CTETRA      5750       1   15267   15271   15268     495   15570   15567+
+          15571    4619    3585    6171
CTETRA      5751       1   14645   14702   14707     173   14935   14937+
+          14936    8088    3086    8083
CTETRA      5752       1   12144   12145      19      18   12428    4395+
+           1278    1281    4809    1282
CTETRA      5753       1   15251   15261      33     475   15529    3812+
+           6282    6486    5834    3779
CTETRA      5754       1   17365     987   13704     263    8892    9242+
+          14371    2243    8893    8118
CTETRA      5755       1   17366   13392     525     568   13450    3801+
+           3800    7431    4129    9243
CTETRA      5756       1   17446   15263   15249     247   15535   15537+
+          15538    4755    9062    3411
CTETRA      5757       1   15246   15247   15248     355   15483   15489+
+          15488    5954    2752    2776
CTETRA      5758       1   15201   15235   15236     367   15494   15444+
+          15493    8229    2770    5267
CTETRA      5759       1   17149     229     472     454    3451    5649+
+           3406    3409    3463    3410
CTETRA      5760       1   17044   13391   13392     391   13447   13446+
+          13445    4433    9244    9245
CTETRA      5761       1   17732   16601   16600      82   16686   16628+
+          16689    1494    1496    7595
CTETRA      5762       1   17913   17154     497     967   17156    3591+
+           9209    9200    7233    7235
CTETRA      5763       1   16044   16045     365     277   16323    6890+
+           3708    2314    2313    3707
CTETRA      5764       1   13783   13784   13787     171   14594   14605+
+          14607    3023    6796    1858
CTETRA      5765       1   14645   14646   14702     376   14845   14915+
+          14935    8094    3014    3011
CTETRA      5766       1   15721     843   15722    1099    8939    6284+
+          15748    8143    8233    8144
CTETRA      5767       1   13782   13783   13787     171   14608   14607+
+          14609    4388    3023    1858
CTETRA      5768       1   15727     188     144     213    1933    1935+
+           1932    2038    9178    2039
CTETRA      5769       1   17498     424     221     539    5837    3611+
+           8914    3909    5838    8981
CTETRA      5770       1   14696   14705     295     296   14921    8912+
+           6634    6635    6840    2406
CTETRA      5771       1   16043   16047   16048     367   16324   16328+
+          16326    3725    5270    9246
CTETRA      5772       1   17586     890   15740    1109    9043    6685+
+          15811    8210    8516    8211
CTETRA      5773       1   17453    1204   15740    1122    9247    9068+
+          15802    8350    9070    8351
CTETRA      5774       1   13603   13605     298     296   13966    6642+
+           2419    2421    7072    2422
CTETRA      5775       1   15739   15740     747    1044   15803    6684+
+           5550    7746    7745    8753
CTETRA      5776       1   12930   12931   12937     436   13228   13251+
+          13250    3898    3899    4637
CTETRA      5777       1   11774   11783   11782     310   11795   11794+
+          11792    5112    3217    3649
CTETRA      5778       1   17086   15054   15056     677   15179   15178+
+          15180    8870    9248    4994
CTETRA      5779       1   17829    1015   17939      32    7553    7555+
+          17830    1318    7566    1319
CTETRA      5780       1   17829    1133    1018    1214    8444    8446+
+           7563    9195    9249    9196
CTETRA      5781       1   13695   13697   13700     225   14287   14297+
+          14296    2111    2119    2121
CTETRA      5782       1   17397   13601    1219    1216   13956    9250+
+           9251    9210    9212    9252
CTETRA      5783       1   17430   14723   17431     945   14998   14997+
+          17437    8957    7087    7086
CTETRA      5784       1   17829    1220    1015    1133    9253    9254+
+           7553    8444    9255    8445
CTETRA      5785       1   17499   15208   17500     424   15315   15312+
+          17513    5431    4550    3609
CTETRA      5786       1   17633     186     221    1182    1928    2718+
+           3604    8832    8834    9256
CTETRA      5787       1   13549   13550   13775      66   13873   14561+
+          14560    4952    2323    1434
CTETRA      5788       1   13551   13579     186      67   13868    4931+
+           8087    1444    2326    3524
CTETRA      5789       1   17601   15725   15724     784   15841   15757+
+          15844    7848    5902    5901
CTETRA      5790       1   14643   14675   14644     176   14822   14826+
+          14827    2706    3106    2707
CTETRA      5791       1   13557     315   13610     319    2489    2477+
+          13999    8105    2497    2496
CTETRA      5792       1   17751   13402   17937     190   13502   13501+
+          17752    2005    1950    9086
CTETRA      5793       1   17470     727   15723    1154    9034    5380+
+          15752    8924    8568    8567
CTETRA      5794       1   17631     221   17632     424    5904    3605+
+          17647    7833    3611    3103
CTETRA      5795       1   15723     728   15724     860    5381    9032+
+          15754    8991    9257    6478
CTETRA      5796       1   17563   17564   15034     146   17566   15061+
+          15062    8931    1760    1762
CTETRA      5797       1   17281     573     472     195    4178    4585+
+           4571    4983    4847    6555
CTETRA      5798       1   17588   15738     562    1032   15815    4102+
+           7647    7649    7651    8970
CTETRA      5799       1   16060   16062   16061     308   16378   16377+
+          16379    3322    9258    3323
CTETRA      5800       1   16059   16060   16082     117   16399   16459+
+          16460    7387    1636    4091
CTETRA      5801       1   15222     312     117     747    6627    3666+
+           6629    6628    6385    5540
CTETRA      5802       1   13697     474     225     227    3426    3428+
+           2119    2120    3753    2114
CTETRA      5803       1   17281   14695   17282     556   14874   14877+
+          17297    4573    4031    4050
CTETRA      5804       1   12605     253     255     617    4449    2211+
+           4459    4452    4451    7856
CTETRA      5805       1   16042   16043   16048     367   16310   16326+
+          16327    5282    3725    9246
CTETRA      5806       1   12114   12127     159     217   12365    1818+
+           6512    4288    3055    3057
CTETRA      5807       1   13657   13669     534     556   14171    3877+
+           4043    4046    4597    4047
CTETRA      5808       1   17147     534     533     583    7963    4589+
+           5443    4850    6610    4267
CTETRA      5809       1   13669     534     556     232    3877    4047+
+           4597    2131    3878    6372
CTETRA      5810       1   17562   15033   15035     365   15068   15074+
+          15072    6879    6875    5475
CTETRA      5811       1   15298   15302   15306     133   15697   15693+
+          15695    1713    1714    6584
CTETRA      5812       1   12918     582     869    1184    4280    8802+
+           6539    8849    9259    8850
CTETRA      5813       1   15302     132     131     133    1712    1701+
+           1718    1714    1705    1704
CTETRA      5814       1   12086   12089   12088     526   12205   12204+
+          12197    8394    4555    4565
CTETRA      5815       1   17578   13406   13408     130   13531   13537+
+          13535    3429    2185    3590
CTETRA      5816       1   17280     534   17281     573    6371    4572+
+          17296    4177    4586    4178
CTETRA      5817       1   13767     408     293     376    5808    3005+
+           7442    2831    3009    3008
CTETRA      5818       1   17352   13401     379     463   13497    9260+
+           3343    3345    8589    3346
CTETRA      5819       1   13752   13755   13753      14   14500   14480+
+          14501    1258    1257    2949
CTETRA      5820       1   13759   13760   13762     482   14499   14506+
+          14507    8073    6206    6207
CTETRA      5821       1   13750   13762   13751      15   14516   14511+
+          14517    6187    6205    6237
CTETRA      5822       1   14669     543     481     482    7469    3936+
+           6203    6204    8016    3486
CTETRA      5823       1   13760   13761   13762      15   14503   14508+
+          14506    1262    1261    6205
CTETRA      5824       1   17505   14662   14658      15   14752   14754+
+          14734    1269    6200    2808
CTETRA      5825       1   13644     464   13669     230    4705    3350+
+          14177    2126    8273    2127
CTETRA      5826       1   17506     482      15      12    6862    6186+
+           6230    1249    8806    8817
CTETRA      5827       1   17639   16026     357     599   16249    7345+
+           4361    4363    9065    4364
CTETRA      5828       1   15268   15271   15270     495   15567   15564+
+          15565    6171    3585    3584
CTETRA      5829       1   17505   15275   17506     507   15584   15585+
+          17510    4933    4372    4348
CTETRA      5830       1   17598   15728     994    1209   15835    7391+
+           8270    9261    9124    9126
CTETRA      5831       1   13755     113      14      10    4557    2950+
+           1257    1256    3661    1260
CTETRA      5832       1   13642   13745     460     461   14446    3330+
+           6850    6956    3331    3333
CTETRA      5833       1   12617     526    1129     868    5052    9262+
+           8390    6535    6537    9160
CTETRA      5834       1   14691   14692   14711     464   14903   14952+
+          14951    7436    7438    4704
CTETRA      5835       1   13396     482   13400     476    7477    9263+
+          13494    3449    8808    3450
CTETRA      5836       1   14662   14670   14671     482   14789   14795+
+          14794    6202    6863    8262
CTETRA      5837       1   15723     364     728    1154    5377    5382+
+           5381    8567    8569    8609
CTETRA      5838       1   17934   13405   13383      13   13523   13521+
+          13435    8871    6455    9264
CTETRA      5839       1   17384   13396   17385    1162   13481   13480+
+          17392    9265    8637    8816
CTETRA      5840       1   17926   17506     597     857   17511    4351+
+           8941    9266    6465    6467
CTETRA      5841       1   16033   16042   16034     666   16309   16308+
+          16312    5281    5280    7699
CTETRA      5842       1   13400    1005     482    1006    7482    9267+
+           9263    7485    7484    9268
CTETRA      5843       1   17311   12744   12745     272   12828   12827+
+          12824    8338    2277    9159
CTETRA      5844       1   13396   13400     482    1171   13494    9263+
+           7477    8722    8721    9269
CTETRA      5845       1   17443   13383   17926     600   13527   13522+
+          17447    7626    4368    9270
CTETRA      5846       1   17664   15859   17665     565   15916   15917+
+          17682    8786    4119    8185
CTETRA      5847       1   17926   17506     857     954   17511    6465+
+           9266    8276    7151    8022
CTETRA      5848       1   15981     239   16009     744    5577    5504+
+          16176    5578    5508    5507
CTETRA      5849       1   17838   17839   11690     987   17845   11740+
+          11741    8654    9271    7351
CTETRA      5850       1   15981   16063     239     609   16384    7663+
+           5577    5575    8805    5576
CTETRA      5851       1   15981   16007   15982     609   16173   16175+
+          16174    5575    5593    8804
CTETRA      5852       1   14657     517     481     168    3890    3892+
+           3496    3498    8023    3492
CTETRA      5853       1   17530   15292   15283     243   15644   15642+
+          15604    8780    2164    8494
CTETRA      5854       1   14667   14669   14668     481   14783   14787+
+          14786    3502    6203    3935
CTETRA      5855       1   13398     482     543     922    7476    8016+
+           6933    6936    8028    6937
CTETRA      5856       1   17506   14670     482     954   14788    6863+
+           6862    7151    8277    8807
CTETRA      5857       1   13769   13770   13788     169   14555   14611+
+          14610    1846    1848    1857
CTETRA      5858       1   13749   13763   13750     481   14519   14518+
+          14520    3500    3484    3483
CTETRA      5859       1   17505   17506      15      10   17510    6230+
+           1269    1272    1246    1265
CTETRA      5860       1   15259      69     183     144    1753    1915+
+           1918    1755    1754    1917
CTETRA      5861       1   13698     225     474     467    3425    3428+
+           3427    3439    3405    3440
CTETRA      5862       1   13678   13684   13679     193   14212   14220+
+          14221    1957    5835    4185
CTETRA      5863       1   13701   13703   13702     229   14302   14304+
+          14303    2125    3402    6361
CTETRA      5864       1   11681       7       8     593    4335    1241+
+           7346    4339    8894    9272
CTETRA      5865       1   17154       7   11870       8    1240    9273+
+          11918    1242    1241    9274
CTETRA      5866       1   17154   11870   11878       8   11918   12060+
+          11943    1242    9274    8075
CTETRA      5867       1   17054   11878   11870       8   11953   12060+
+          11920    1942    8075    9274
CTETRA      5868       1   17053   17054   11870       8   17064   11920+
+          11919    1940    1942    9274
CTETRA      5869       1   17053   11681       8     593   11766    7346+
+           1940    4340    4339    9272
CTETRA      5870       1   11680       8       7       9    1941    1241+
+           7748    9275    1245    1244
CTETRA      5871       1   11680       8       9     966    1941    1245+
+           9275    7230    7687    9276
CTETRA      5872       1   11680       9       7     966    9275    1244+
+           7748    7230    9276    7749
CTETRA      5873       1   13754      10   13760      11    1254    1263+
+          14494    9277    1247    9278
CTETRA      5874       1   13754      13      10      11    1252    1255+
+           1254    9277    6475    1247
CTETRA      5875       1   13405      11      13    1047    9279    6475+
+           6455    7770    9280    9225
CTETRA      5876       1   13400      11   13405    1047    9281    9279+
+          13511    8824    9280    7770
CTETRA      5877       1   13400      11    1180    1006    9281    9282+
+           8810    7485    9283    8813
CTETRA      5878       1   13760      11      10      12    9278    1247+
+           1263    9284    1251    1250
CTETRA      5879       1   13400      12      11    1006    9285    1251+
+           9281    7485    9286    9283
CTETRA      5880       1   13400     482      12    1006    9263    8806+
+           9285    7485    9268    9286
CTETRA      5881       1   13760      15     482      12    1262    6186+
+           6206    9284    8817    8806
CTETRA      5882       1   13760      10      15      12    1263    1265+
+           1262    9284    1250    8817
CTETRA      5883       1   17400   15048   15047      21   15132   15134+
+          15133    1284    9287    9288
CTETRA      5884       1   15047   15048      24      21   15134    7223+
+           8449    9288    9287    7661
CTETRA      5885       1   13607      21      24     796    1286    7661+
+           6526    5981    9289    7180
CTETRA      5886       1   17400      21   13607     796    1284    1286+
+          13977    5980    9289    5981
CTETRA      5887       1   15048      24      21     796    7223    7661+
+           9287    9290    7180    9289
CTETRA      5888       1   15048      27      24     796    7184    1306+
+           7223    9290    7181    7180
CTETRA      5889       1   17399      27   15048     796    7182    7184+
+          15130    5979    7181    9290
CTETRA      5890       1   17399   15048   17400     796   15130   15132+
+          17414    5979    9290    5980
CTETRA      5891       1   17400   15048      21     796   15132    9287+
+           1284    5980    9290    9289
CTETRA      5892       1   17067      28   11781      26    1312    8699+
+          11851    1301    9291    1302
CTETRA      5893       1   17915   17067   11868      28   17077   11909+
+          12064    1308    1312    9292
CTETRA      5894       1   17915   11868   11905      28   12064   12072+
+          12073    1308    9292    9293
CTETRA      5895       1   15054     103      28     180    1579    9294+
+           9295    1904    1903    9296
CTETRA      5896       1   11781      28      56      26    8699    8700+
+           1401    1302    9291    2428
CTETRA      5897       1   17915      28   11905      29    1308    9293+
+          12073    1311    1310    9297
CTETRA      5898       1   17915   11773      29    1169   11825    3265+
+           1311    8701    8703    9298
CTETRA      5899       1   11773     886      29    1169    6668    9299+
+           3265    8703    9002    9298
CTETRA      5900       1   15054      28      29     180    9295    1310+
+           9300    1904    9296    9301
CTETRA      5901       1   12602      38      35     685    1344    1342+
+           1343    5076    9302    5077
CTETRA      5902       1   17233      38   12602     685    7714    1344+
+          12627    7126    9302    5076
CTETRA      5903       1   17233   12971   12914      38   13381   13380+
+          13186    7714    9303    9304
CTETRA      5904       1   12914   12971      37      38   13380    3882+
+           6267    9304    9303    1341
CTETRA      5905       1   12971      35      37      38    3883    1337+
+           3882    9303    1342    1341
CTETRA      5906       1   12971      35      38     685    3883    1342+
+           9303    9305    5077    9302
CTETRA      5907       1   12970      35   12971     685    6400    3883+
+          13374    9306    5077    9305
CTETRA      5908       1   17234   12970   12971     685   13378   13374+
+          13379    5102    9306    9305
CTETRA      5909       1   17233   17234   12971     685   17255   13379+
+          13381    7126    5102    9305
CTETRA      5910       1   17233   12971      38     685   13381    9303+
+           7714    7126    9305    9302
CTETRA      5911       1   13560     298   13565      39    6063    5945+
+          13818    9307    6639    9308
CTETRA      5912       1   17630      39     298     453    6638    6639+
+           5894    3282    9309    6640
CTETRA      5913       1   17630      40      39     453    6818    1346+
+           6638    3282    6819    9309
CTETRA      5914       1   13560   13565      40      39   13818    4396+
+           6762    9307    9308    1346
CTETRA      5915       1   13565      39     298      41    9308    6639+
+           5945    9310    1349    6811
CTETRA      5916       1   13565      40      39      41    4396    1346+
+           9308    9310    1350    1349
CTETRA      5917       1   13565     335      40      41    5948    4750+
+           4396    9310    5953    1350
CTETRA      5918       1   13565     298     335      41    5945    5909+
+           5948    9310    6811    5953
CTETRA      5919       1   17351   13708   13707      42   14326   14328+
+          14327    1944    1943    9311
CTETRA      5920       1   17351      42     959      72    1944    9312+
+           8732    1458    7322    8731
CTETRA      5921       1   16506   16516      42     959   16535    1356+
+           1355    7172    7174    9312
CTETRA      5922       1   17875      42   16516     379    7923    1356+
+          16568    2855    9313    2856
CTETRA      5923       1   17875   13707   17876      42   14325   14324+
+          17884    7923    9311    7606
CTETRA      5924       1   17876   13707   13708      42   14324   14328+
+          14332    7606    9311    1943
CTETRA      5925       1   17351     959   13707     305    8732    9314+
+          14327    2443    8733    9315
CTETRA      5926       1   16507   16516     959     379   16536    7174+
+           7173    7165    2856    9316
CTETRA      5927       1   16516      42     959     379    1356    9312+
+           7174    2856    9313    9316
CTETRA      5928       1   17351      42   13707     959    1944    9311+
+          14327    8732    9312    9314
CTETRA      5929       1   17352     379   13401     371    3343    9260+
+          13497    2802    9317    2803
CTETRA      5930       1   17352   13707   13706     379   14333   14631+
+          14334    3343    9318    9319
CTETRA      5931       1   17875   13706   13707     379   14336   14631+
+          14325    2855    9319    9318
CTETRA      5932       1   17875   13707      42     379   14325    9311+
+           7923    2855    9318    9313
CTETRA      5933       1   13707     959      42     379    9314    9312+
+           9311    9318    9316    9313
CTETRA      5934       1   16507     379     959    1221    7165    9316+
+           7173    9320    9321    9322
CTETRA      5935       1   16507     708     379    1221    5249    7166+
+           7165    9320    9323    9321
CTETRA      5936       1   17814      44      54     592    5928    4317+
+           4325    4322    9324    5958
CTETRA      5937       1   17814   17056      44     592   11729    5929+
+           5928    4322    6482    9324
CTETRA      5938       1   17056   11877   11879      44   11950   11954+
+          11956    5929    9325    9326
CTETRA      5939       1   11877      43   11879      44    1395    6745+
+          11954    9325    1361    9326
CTETRA      5940       1   11877      54      43      44    1392    1396+
+           1395    9325    4317    1361
CTETRA      5941       1   17056      44   11879      45    5929    9326+
+          11956    5959    1365    9327
CTETRA      5942       1   17055   17056   11879      45   17066   11956+
+          11957    7638    5959    9327
CTETRA      5943       1   17055   11679      45     937   11770    1380+
+           7638    7754    7030    9328
CTETRA      5944       1   11679      50      45     937    1378    1381+
+           1380    7030    7029    9328
CTETRA      5945       1   11879      43      50      45    6745    1377+
+           6744    9327    1364    1381
CTETRA      5946       1   11879      44      43      45    9326    1361+
+           6745    9327    1365    1364
CTETRA      5947       1   17779      46   16698    1103    1366    9329+
+          16757    8162    9330    8163
CTETRA      5948       1   16598      46    1103    1203    8156    9330+
+           9055    9058    9331    9059
CTETRA      5949       1   17734      46   16598    1203    2925    8156+
+          16692    9189    9331    9058
CTETRA      5950       1   17734   16698   16729      46   16759   16892+
+          16882    2925    9329    7076
CTETRA      5951       1   17779   16729   16698      46   16885   16892+
+          16757    1366    7076    9329
CTETRA      5952       1   17779   16914      46    1103   16949    9332+
+           1366    8162    9333    9330
CTETRA      5953       1   16598    1103      46    1222    9055    9330+
+           8156    9334    9335    9336
CTETRA      5954       1   16598    1103    1222    1202    9055    9335+
+           9334    9057    9056    9337
CTETRA      5955       1   15045    1103    1200    1191    9338    9339+
+           9017    9340    8943    9341
CTETRA      5956       1   17940   16914   17779    1103   16951   16949+
+          17792    8161    9333    8162
CTETRA      5957       1   17779      46   16914      47    1366    9332+
+          16949    1368    1367    9342
CTETRA      5958       1   17779   16914   16913      47   16949   16950+
+          16944    1368    9342    8649
CTETRA      5959       1   16608    1135      47    1136    9343    9344+
+           8465    9345    9346    9347
CTETRA      5960       1   16598      47   16608    1135    8159    8465+
+          16618    9348    9344    9343
CTETRA      5961       1   16598      46      47    1222    8156    1367+
+           8159    9334    9336    9349
CTETRA      5962       1   16599      47      48    1105    8160    1371+
+           9350    8173    8466    9351
CTETRA      5963       1   16599      48     397    1105    9350    9352+
+           2927    8173    9351    9353
CTETRA      5964       1   16599      48      46     397    9350    1370+
+           2924    2927    9352    2928
CTETRA      5965       1   16599      47      46      48    8160    1367+
+           2924    9350    1371    1370
CTETRA      5966       1   11879      45      50     937    9327    1381+
+           6744    9354    9328    7029
CTETRA      5967       1   17055      45   11879     937    7638    9327+
+          11957    7754    9328    9354
CTETRA      5968       1   17055   11879   11878     937   11957   11947+
+          11952    7754    9354    9355
CTETRA      5969       1   11878   11879      50     937   11947    6744+
+           7756    9355    9354    7029
CTETRA      5970       1   17597   15994   15983      51   16122   16112+
+          16120    1382    9356    9357
CTETRA      5971       1   17597   15730      51     853   15834    6359+
+           1382    8281    6353    9358
CTETRA      5972       1   15730      51     853     850    6359    9358+
+           6353    6345    9359    7568
CTETRA      5973       1   15266   15983     326      51    7147    2516+
+           2514    9360    9357    7500
CTETRA      5974       1   15983   15994     326      51   16112    8282+
+           2516    9357    9356    7500
CTETRA      5975       1   17597   15994      51      52   16122    9356+
+           1382    1384    9361    1385
CTETRA      5976       1   15994     326      51      52    8282    7500+
+           9356    9361    7502    1385
CTETRA      5977       1   15728      52     326    1209    7496    7502+
+           2526    9124    9362    9125
CTETRA      5978       1   17598      52   15728    1209    7495    7496+
+          15835    9261    9362    9124
CTETRA      5979       1   17597   17598   15994      52   17620   16126+
+          16122    1384    7495    9361
CTETRA      5980       1   13651      43   13692      53    7222    5517+
+          14254    9363    1390    9364
CTETRA      5981       1   13651      50      43      53    7220    1377+
+           7222    9363    1391    1390
CTETRA      5982       1   11688      53      50     730    7210    1391+
+           5392    5390    9365    5391
CTETRA      5983       1   17841      53   11688     730    7209    7210+
+          11736    7200    9365    5390
CTETRA      5984       1   17841   13651   13692      53   14255   14254+
+          14257    7209    9363    9364
CTETRA      5985       1   17819      56      28    1155    1402    8700+
+           1307    8578    9366    9001
CTETRA      5986       1   17818      56   17819      57    1400    1402+
+          17821    1403    9367    1404
CTETRA      5987       1   17818   11790      56      57   11848    1478+
+           1400    1403    8289    9367
CTETRA      5988       1   11790      56    1208      78    1478    9368+
+           9113    1481    1480    9112
CTETRA      5989       1   15054   15055      56     103   15171    9369+
+           9370    1579    1578    9371
CTETRA      5990       1   15054      56      28     103    9370    8700+
+           9295    1579    9371    9294
CTETRA      5991       1   11790    1208      57     933    9113    9372+
+           8289    7018    9114    8291
CTETRA      5992       1   11790      56      57    1208    1478    9367+
+           8289    9113    9368    9372
CTETRA      5993       1   17819      57      56    1155    1404    9367+
+           1402    8578    9373    9366
CTETRA      5994       1   17819   11773      57    1155   11824    1405+
+           1404    8578    8580    9373
CTETRA      5995       1   11773     505      57     886    3650    8577+
+           1405    6668    6670    9374
CTETRA      5996       1   17411   15056   15054      57   15176   15178+
+          15168    9375    9376    9377
CTETRA      5997       1   17411   13626      57    1113   14037    9378+
+           9375    8286    8288    9379
CTETRA      5998       1   15054      29      28    1155    9300    1310+
+           9295    9380    8579    9001
CTETRA      5999       1   11773    1155      29     886    8580    8579+
+           3265    6668    9381    9299
CTETRA      6000       1   11773      57    1155     886    1405    9373+
+           8580    6668    9374    9381
CTETRA      6001       1   15054      56      57    1155    9370    9367+
+           9377    9380    9366    9373
CTETRA      6002       1   15054      28      56    1155    9295    8700+
+           9370    9380    9001    9366
CTETRA      6003       1   13648   13730   13726      64   14387   14388+
+          14373    9382    9383    9384
CTETRA      6004       1   13726   13730     105      64   14388    1607+
+           1606    9384    9383    7418
CTETRA      6005       1   13730     102     105      64    5494    1588+
+           1607    9383    1576    7418
CTETRA      6006       1   13730      62     102      64    1429    1575+
+           5494    9383    1421    1576
CTETRA      6007       1   13730      63      62      64    1431    1418+
+           1429    9383    1422    1421
CTETRA      6008       1   13648      63   13730      64    3366    1431+
+          14387    9382    1422    9383
CTETRA      6009       1   17351      70   13402     191    1455    9385+
+          13503    2110    9386    1953
CTETRA      6010       1   13402      70     190     191    9385    9387+
+           1950    1953    9386    1954
CTETRA      6011       1   16506     307      70    1188    8602    9388+
+           7959    8889    8888    9389
CTETRA      6012       1   17351     307      70      72    2449    9388+
+           1455    1458    2450    1459
CTETRA      6013       1   16506      42   16515      71    1355    1357+
+          16532    9390    1946    9391
CTETRA      6014       1   16506   16515      70      71   16532    7310+
+           7959    9390    9391    1456
CTETRA      6015       1   16515      70      71     370    7310    1456+
+           9391    2796    7311    9392
CTETRA      6016       1   16515      71      42     370    9391    1946+
+           1357    2796    9392    7608
CTETRA      6017       1   17351     304     307     305    2442    9393+
+           2449    2443    2445    2451
CTETRA      6018       1   17351   13402      70     307   13503    9385+
+           1455    2449    9394    9388
CTETRA      6019       1   13402      70     307     190    9385    9388+
+           9394    1950    9387    9395
CTETRA      6020       1   13402     190     307     109    1950    9395+
+           9394    1601    9087    9396
CTETRA      6021       1   16695     307     109    1172    9397    9396+
+           9398    9399    9400    8725
CTETRA      6022       1   16507     304     307    1153    8572    9393+
+           8601    8561    8573    9401
CTETRA      6023       1   16506      42      71      72    1355    1946+
+           9390    9402    7322    1460
CTETRA      6024       1   16506     959      42      72    7172    9312+
+           1355    9402    8731    7322
CTETRA      6025       1   16506   16507     959      72   16537    7173+
+           7172    9402    9403    8731
CTETRA      6026       1   16506     307   16507      72    8602    8601+
+          16537    9402    2450    9403
CTETRA      6027       1   16506      70     307      72    7959    9388+
+           8602    9402    1459    2450
CTETRA      6028       1   16506      71      70      72    9390    1456+
+           7959    9402    1460    1459
CTETRA      6029       1   12881      77      74    1164    8661    1476+
+           6181    8664    8663    9404
CTETRA      6030       1   12881      76      74      77    6442    1472+
+           6181    8661    1477    1476
CTETRA      6031       1   12881   12900      76      77   13113    6443+
+           6442    8661    9405    1477
CTETRA      6032       1   17242   12900   12881      77   13103   13113+
+          13099    7797    9405    8661
CTETRA      6033       1   17241   12609   17242      77   12649   12651+
+          17263    8660    8659    7797
CTETRA      6034       1   13626    1208      57    1113    9406    9372+
+           9378    8288    9407    9379
CTETRA      6035       1   13626    1156    1208    1113    8586    9408+
+           9406    8288    8587    9407
CTETRA      6036       1   15054      56   15055    1208    9370    9369+
+          15171    9409    9368    9410
CTETRA      6037       1   15054      57      56    1208    9377    9367+
+           9370    9409    9372    9368
CTETRA      6038       1   13626      78    1208    1156    9411    9112+
+           9406    8586    9412    9408
CTETRA      6039       1   13626   13627      78      83   14032    9413+
+           9411    8031    1498    9414
CTETRA      6040       1   13627    1045      78      83    7758    9164+
+           9413    1498    7759    9414
CTETRA      6041       1   11781     299      78    1223    2427    9415+
+           1479    9416    9417    9418
CTETRA      6042       1   11781      56      78     299    1401    1480+
+           1479    2427    2426    9415
CTETRA      6043       1   15055    1208      56      78    9410    9368+
+           9369    9419    9112    1480
CTETRA      6044       1   15055     299      56    1083    9420    2426+
+           9369    8012    9421    9422
CTETRA      6045       1   15055      78      56     299    9419    1480+
+           9369    9420    9415    2426
CTETRA      6046       1   15055      78     299     936    9419    9415+
+           9420    7027    9423    9424
CTETRA      6047       1   15055     299    1083     936    9420    9421+
+           8012    7027    9424    9166
CTETRA      6048       1   17108   12189   17109      79   12597   12599+
+          17142    9139    9425    9142
CTETRA      6049       1   17109   12610      79     807   12711    1484+
+           9142    9156    6047    9426
CTETRA      6050       1   12610      74      79     807    1473    1485+
+           1484    6047    7512    9426
CTETRA      6051       1   12188      74   12189      79    7475    6450+
+          12592    9427    1485    9425
CTETRA      6052       1   17108   12188   12189      79   12596   12592+
+          12597    9139    9427    9425
CTETRA      6053       1   12189      74      76     807    6450    1472+
+           6449    9428    7512    6046
CTETRA      6054       1   12189      79      74     807    9425    1485+
+           6450    9428    9426    7512
CTETRA      6055       1   17109      79   12189     807    9142    9425+
+          12599    9156    9426    9428
CTETRA      6056       1   17109   12189   12132     807   12599   12598+
+          12404    9156    9428    9429
CTETRA      6057       1   12132   12189      76     807   12598    6449+
+           5625    9429    9428    6046
CTETRA      6058       1   13602     775      80     778    5855    9430+
+           9431    5867    5866    9432
CTETRA      6059       1   16598    1222      80    1202    9334    9433+
+           1489    9057    9337    9434
CTETRA      6060       1   16598   16608      80    1135   16618    1490+
+           1489    9348    9343    9435
CTETRA      6061       1   16608      80    1135    1118    1490    9435+
+           9343    8314    9436    9437
CTETRA      6062       1   17765   16913   16914    1135   16948   16950+
+          16953    8457    9438    9439
CTETRA      6063       1   17765   13602    1135     778   13958    8458+
+           8457    9100    5867    9440
CTETRA      6064       1   13602      80    1135     778    9431    9435+
+           8458    5867    9432    9440
CTETRA      6065       1   16598    1135      80    1222    9348    9435+
+           1489    9334    9441    9433
CTETRA      6066       1   16598      47    1135    1222    8159    9344+
+           9348    9334    9349    9441
CTETRA      6067       1   16913      47   16914    1135    8649    9342+
+          16950    9438    9344    9439
CTETRA      6068       1   16914      46    1103    1222    9332    9330+
+           9333    9442    9336    9335
CTETRA      6069       1   16914      47      46    1222    9342    1367+
+           9332    9442    9349    9336
CTETRA      6070       1   16914    1135      47    1222    9439    9344+
+           9342    9442    9441    9349
CTETRA      6071       1   16914      80    1135    1222    9443    9435+
+           9439    9442    9433    9441
CTETRA      6072       1   15045    1222      80    1200    9444    9433+
+           9445    9017    9446    9447
CTETRA      6073       1   15045    1103    1222    1200    9338    9335+
+           9444    9017    9339    9446
CTETRA      6074       1   17732   16714   16713      81   16805   16807+
+          16810    1492    9448    9449
CTETRA      6075       1   17731   17732   16713      81   17742   16810+
+          16809    7132    1492    9449
CTETRA      6076       1   17731   16602      81     457   16684    7133+
+           7132    6918    3304    9450
CTETRA      6077       1   16602     122      81     457    4109    8628+
+           7133    3304    7130    9450
CTETRA      6078       1   16713   16714     122      81   16807    7305+
+           1666    9449    9448    8628
CTETRA      6079       1   17732   16714      81      82   16805    9448+
+           1492    1494    9451    1495
CTETRA      6080       1   16714     122      81      82    7305    8628+
+           9448    9451    7818    1495
CTETRA      6081       1   16714     122      82     399    7305    7818+
+           9451    2938    7307    9452
CTETRA      6082       1   16600      82     399     521    7595    9452+
+           3786    3789    9453    3790
CTETRA      6083       1   17732      82   16600     521    1494    7595+
+          16689    9183    9453    3789
CTETRA      6084       1   17353   13756   17354      85   14478   14477+
+          17382    1507    9454    8866
CTETRA      6085       1   17354   13756      13      85   14477    1618+
+           6454    8866    9454    5810
CTETRA      6086       1   13756      84      13      85    1615    1619+
+           1618    9454    1509    5810
CTETRA      6087       1   17353      84   13756      85    1506    1615+
+          14478    1507    1509    9454
CTETRA      6088       1   15197     403      91     756    5621    8319+
+           9455    5622    5624    9456
CTETRA      6089       1   15738     561      91     562    4101    9457+
+           1541    4102    4104    9458
CTETRA      6090       1   17455      91   15738     561    1539    1541+
+          15796    8488    9457    4101
CTETRA      6091       1   17455   15197   17456      91   15376   15377+
+          17478    1539    9455    7735
CTETRA      6092       1   17456   15197   15288      91   15377   15619+
+          15618    7735    9455    9459
CTETRA      6093       1   15197     403   15288      91    5621    8402+
+          15619    9455    8319    9459
CTETRA      6094       1   15197     561     242     756    9460    4100+
+           6622    5622    9461    8755
CTETRA      6095       1   15197   15221     242     561   15379    7646+
+           6622    9460    9462    4100
CTETRA      6096       1   17455   15221   15197     561   15378   15379+
+          15376    8488    9462    9460
CTETRA      6097       1   17455   15197      91     561   15376    9455+
+           1539    8488    9460    9457
CTETRA      6098       1   15197      91     561     756    9455    9457+
+           9460    5622    9456    9461
CTETRA      6099       1   16507     741      92     707    5489    9463+
+           1544    5247    7808    9464
CTETRA      6100       1   17711      92   16507     741    1542    1544+
+          16590    9208    9463    5489
CTETRA      6101       1   17710   17711   16696      92   17721   16748+
+          16749    4859    1542    9465
CTETRA      6102       1   17710   16509      92    1215   16585    4860+
+           4859    9204    9206    9466
CTETRA      6103       1   16509      84      92    1215    2377    4472+
+           4860    9206    9467    9466
CTETRA      6104       1   13403      92      84    1055    9468    4472+
+           4569    7824    9469    9470
CTETRA      6105       1   17711   17712   16696     741   17722   16896+
+          16748    9208    5488    9471
CTETRA      6106       1   17711   16696      92     741   16748    9465+
+           1542    9208    9471    9463
CTETRA      6107       1   13403     741      92    1055    9472    9463+
+           9468    7824    9473    9469
CTETRA      6108       1   13403     741    1055    1056    9472    9473+
+           7824    7827    9474    7828
CTETRA      6109       1   17712   16732   16696     741   16905   16904+
+          16896    5488    9475    9471
CTETRA      6110       1   13546   13583      87      93   13853    1530+
+           3758    9476    9477    7104
CTETRA      6111       1   13583      86      87      93    1532    1514+
+           1530    9477    1547    7104
CTETRA      6112       1   17823      93      86     400    1545    1547+
+           1536    2954    9478    2955
CTETRA      6113       1   17823   17943      93     400   17827    3761+
+           1545    2954    4410    9478
CTETRA      6114       1   17943   13583   17871      93   13951   13854+
+          17883    3761    9477    2812
CTETRA      6115       1   17871   13583   13546      93   13854   13853+
+          13852    2812    9477    9476
CTETRA      6116       1   13583   13599      86     400   13947    1525+
+           1532    9479    9480    2955
CTETRA      6117       1   17943   13599   13583     400   13950   13947+
+          13951    4410    9480    9479
CTETRA      6118       1   17943   13583      93     400   13951    9477+
+           3761    4410    9479    9478
CTETRA      6119       1   13583      86      93     400    1532    1547+
+           9477    9479    2955    9478
CTETRA      6120       1   17783   16911      98      95   16934    4741+
+           5995    5996    9481    5997
CTETRA      6121       1   16911      94      98      95    4359    1565+
+           4741    9481    1554    5997
CTETRA      6122       1   17782      94   16911      95    1551    4359+
+          16937    1552    1554    9481
CTETRA      6123       1   17782   16911   17783      95   16937   16934+
+          17797    1552    9481    5996
CTETRA      6124       1   15055      56     103    1083    9369    9371+
+           1578    8012    9422    9482
CTETRA      6125       1   11868      28      56     103    9292    8700+
+           9483    9484    9294    9371
CTETRA      6126       1   11868   11905      28     103   12072    9293+
+           9292    9484    9485    9294
CTETRA      6127       1   17087   11905   11868     103   12070   12072+
+          11907    1577    9485    9484
CTETRA      6128       1   17087   15055     103    1083   15169    1578+
+           1577    8013    8012    9482
CTETRA      6129       1   11868      56     299    1083    9483    2426+
+           9486    9487    9422    9421
CTETRA      6130       1   11868     103      56    1083    9484    9371+
+           9483    9487    9482    9422
CTETRA      6131       1   17087     103   11868    1083    1577    9484+
+          11907    8013    9482    9487
CTETRA      6132       1   17912   17087   11868    1083   17088   11907+
+          11906    8011    8013    9487
CTETRA      6133       1   17912    1083   11868    1082    8011    9487+
+          11906    8008    9488    8009
CTETRA      6134       1   11868    1083     299    1082    9487    9421+
+           9486    8009    9488    8240
CTETRA      6135       1   17284     108     823     824    1609    9489+
+           6138    6140    9490    6141
CTETRA      6136       1   13648   13726     455     108   14373    5416+
+           3364    9491    9492    5644
CTETRA      6137       1   13726     107     455     108    3736    5417+
+           5416    9492    1598    5644
CTETRA      6138       1   13726     105     107     108    1606    1595+
+           3736    9492    1599    1598
CTETRA      6139       1   17284     108     105     823    1609    1599+
+           1608    6138    9489    7450
CTETRA      6140       1   13687     193     110     443    5674    7261+
+           1604    3227    5676    9493
CTETRA      6141       1   11600     193   11601     110    7141    7140+
+          11620    9494    7261    9495
CTETRA      6142       1   16997   11600   11601     110   11621   11620+
+          11619    1603    9494    9495
CTETRA      6143       1   16997   13687     110     443   14226    1604+
+           1603    3228    3227    9493
CTETRA      6144       1   11601     110     193     443    9495    7261+
+           7140    9496    9493    5676
CTETRA      6145       1   16997     110   11601     443    1603    9495+
+          11619    3228    9493    9496
CTETRA      6146       1   16996   16997   11601     443   17003   11619+
+          11614    3226    3228    9496
CTETRA      6147       1   16996   11601     694     443   11614    6081+
+           5678    3226    9496    5675
CTETRA      6148       1   11601     193     694     443    7140    5673+
+           6081    9496    5676    5675
CTETRA      6149       1   13648      64   13726     823    9382    9384+
+          14373    9497    6139    9498
CTETRA      6150       1   13648   13726     108     823   14373    9492+
+           9491    9497    9498    9489
CTETRA      6151       1   13726     105     108     823    1606    1599+
+           9492    9498    7450    9489
CTETRA      6152       1   13726      64     105     823    9384    7418+
+           1606    9498    6139    7450
CTETRA      6153       1   15863     112     114    1137    7615    1627+
+           9499    8479    9500    9501
CTETRA      6154       1   15863     114   15865     952    9499    9502+
+          15948    8406    9503    7121
CTETRA      6155       1   17534   15865   15863     114   15949   15948+
+          15945    2236    9502    9499
CTETRA      6156       1   17533   17534   15863     114   17544   15945+
+          15944    2997    2236    9499
CTETRA      6157       1   17533   15200     114    1029   15426    1626+
+           2997    7629    7628    9504
CTETRA      6158       1   15200     112     114    1029    1624    1627+
+           1626    7628    8467    9504
CTETRA      6159       1   15863     112   15864    1029    7615    2999+
+          15943    9505    8467    9506
CTETRA      6160       1   15863     114     112    1029    9499    1627+
+           7615    9505    9504    8467
CTETRA      6161       1   17533     114   15863    1029    2997    9499+
+          15944    7629    9504    9505
CTETRA      6162       1   17533   15863   15864    1029   15944   15943+
+          15940    7629    9505    9506
CTETRA      6163       1   15232     115     308    1027    8337    8336+
+           8223    7609    9507    8340
CTETRA      6164       1   15232     112     115    1027    1625    1630+
+           8337    7609    7611    9507
CTETRA      6165       1   16060     112   16062     115    1635    4107+
+          16378    9508    1630    9509
CTETRA      6166       1   16060   16062     308     115   16378    9258+
+           3322    9508    9509    8336
CTETRA      6167       1   16060     115     308     116    9508    8336+
+           3322    9510    1633    2742
CTETRA      6168       1   16060     112     115     116    1635    1630+
+           9508    9510    1634    1633
CTETRA      6169       1   16060     117     112     116    1636    1638+
+           1635    9510    7127    1634
CTETRA      6170       1   16060     312     117     116    4089    3666+
+           1636    9510    2741    7127
CTETRA      6171       1   16060     308     312     116    3322    2739+
+           4089    9510    2742    2741
CTETRA      6172       1   16994   11606   11607     123   11650   11652+
+          11654    2287    9511    9512
CTETRA      6173       1   16994   13683     123     106   14230    7519+
+           2287    1592    1591    9513
CTETRA      6174       1   13683     124     123     106    4660    1669+
+           7519    1591    6240    9513
CTETRA      6175       1   11606     124   11607     123    9514    9515+
+          11652    9511    1669    9512
CTETRA      6176       1   16994   11606     123     125   11650    9511+
+           2287    2288    9516    1672
CTETRA      6177       1   11606     124     123     125    9514    1669+
+           9511    9516    1673    1672
CTETRA      6178       1   11606     236     124     125    9517    2140+
+           9514    9516    2142    1673
CTETRA      6179       1   13681     125     236    1080    7990    2142+
+           3441    7993    9518    9168
CTETRA      6180       1   16995     125   13681    1080    8653    7990+
+          14240    7992    9518    7993
CTETRA      6181       1   16994   16995   11606     125   17009   11649+
+          11650    2288    8653    9516
CTETRA      6182       1   12733     128     126     325    2572    1684+
+           2507    2510    9519    2511
CTETRA      6183       1   17320     128   12733     325    2571    2572+
+          12763    2538    9519    2510
CTETRA      6184       1   17319   17320   12960     128   17321   13332+
+          13334    3818    2571    9520
CTETRA      6185       1   17319   12960   12968     128   13334   13357+
+          13358    3818    9520    9521
CTETRA      6186       1   12960     127   12968     128    1676    8409+
+          13357    9520    1683    9521
CTETRA      6187       1   12960     126     127     128    1674    1677+
+           1676    9520    1684    1683
CTETRA      6188       1   15306     135     133     874    7971    1717+
+           6584    6582    9522    6583
CTETRA      6189       1   17521     135   15306     874    8936    7971+
+          15696    7641    9522    6582
CTETRA      6190       1   17520   17521   15852     135   17557   15877+
+          15878    8555    8936    9523
CTETRA      6191       1   17520   15852   15853     135   15878   15880+
+          15883    8555    9523    9524
CTETRA      6192       1   15852     132   15853     135    4065    6780+
+          15880    9523    1716    9524
CTETRA      6193       1   15852     133     132     135    4066    1705+
+           4065    9523    1717    1716
CTETRA      6194       1   17457   15288   15287     141   15626   15628+
+          15627    1737    9525    9526
CTETRA      6195       1   15287   15288     403     141   15628    8402+
+           7677    9526    9525    6275
CTETRA      6196       1   15737     141     403     878    1739    6275+
+           7058    6607    9527    8320
CTETRA      6197       1   17457     141   15737     878    1737    1739+
+          15792    6606    9527    6607
CTETRA      6198       1   15288      91     403     878    9459    8319+
+           8402    9528    8321    8320
CTETRA      6199       1   17456      91   15288     878    7735    9459+
+          15618    6605    8321    9528
CTETRA      6200       1   17456   15288   17457     878   15618   15626+
+          17490    6605    9528    6606
CTETRA      6201       1   17457   15288     141     878   15626    9525+
+           1737    6606    9528    9527
CTETRA      6202       1   15288     403     141     878    8402    6275+
+           9525    9528    8320    9527
CTETRA      6203       1   17564   15243   15244     145   15472   15471+
+          15470    1758    9529    3986
CTETRA      6204       1   17928   15032   17564     145   15060   15059+
+          17565    3985    2057    1758
CTETRA      6205       1   15032     119     145    1224    3676    3678+
+           2057    9530    9531    9532
CTETRA      6206       1   15243     119   15244     145    2652    2059+
+          15471    9529    3678    3986
CTETRA      6207       1   17564   15243     145     146   15472    9529+
+           1758    1760    9533    1761
CTETRA      6208       1   15243     119     145     146    2652    3678+
+           9529    9533    3680    1761
CTETRA      6209       1   15243     119     146     800    2652    3680+
+           9533    6005    6007    9534
CTETRA      6210       1   15243     146     197     800    9533    6003+
+           2655    6005    9534    6006
CTETRA      6211       1   15243     365     197     146    6009    5984+
+           2655    9533    6004    6003
CTETRA      6212       1   15243   15245     365     146   15477    8934+
+           6009    9533    9535    6004
CTETRA      6213       1   17563   15245   15243     146   15476   15477+
+          15473    8931    9535    9533
CTETRA      6214       1   17563   15243   17564     146   15473   15472+
+          17566    8931    9533    1760
CTETRA      6215       1   15049     150   15051     149    9536    1776+
+          15150    9537    1770    9538
CTETRA      6216       1   17434   15049   15051     149   15151   15150+
+          15153    3996    9537    9538
CTETRA      6217       1   17433   17434   15051     149   17442   15153+
+          15158    6733    3996    9538
CTETRA      6218       1   17433   15051     150     149   15158    1776+
+           1775    6733    9538    1770
CTETRA      6219       1   15049     150     149     151    9536    1770+
+           9537    9539    1774    1773
CTETRA      6220       1   14729     151     150     422    8837    1774+
+           1874    3088    9540    3091
CTETRA      6221       1   17434     151   14729     422    3997    8837+
+          15024    3087    9540    3088
CTETRA      6222       1   17434   15049     149     151   15151    9537+
+           3996    3997    9539    1773
CTETRA      6223       1   12911     153     154     862    6501    1791+
+           9541    6497    6502    9542
CTETRA      6224       1   17921   12911     154     862   13329    9541+
+           2077    9162    6497    9542
CTETRA      6225       1   17921   12911   12959     154   13329   13330+
+          13327    2077    9541    9543
CTETRA      6226       1   12911     153   12959     154    6501    2076+
+          13330    9541    1791    9543
CTETRA      6227       1   15041     154     153     862    1792    1791+
+           1789    9544    9542    6502
CTETRA      6228       1   17921     154   15041     862    2077    1792+
+          15106    9162    9542    9544
CTETRA      6229       1   17921   15041   17342     862   15106   15105+
+          17349    9162    9544    6495
CTETRA      6230       1   17342   15041     159     862   15105    1805+
+           2570    6495    9544    6496
CTETRA      6231       1   15041     153     159     862    1789    1806+
+           1805    9544    6502    6496
CTETRA      6232       1   15041     153     157     160    1789    2068+
+           1801    1807    1809    9545
CTETRA      6233       1   12117   12121     153     157   12336    6924+
+           6926    9546    9547    2068
CTETRA      6234       1   17919   12121   12117     157   12335   12336+
+          12311    1800    9547    9546
CTETRA      6235       1   17919   15041     157     160   15103    1801+
+           1800    2493    1807    9545
CTETRA      6236       1   12117     153     159     160    6926    1806+
+           6513    9548    1809    1808
CTETRA      6237       1   12117     157     153     160    9546    2068+
+           6926    9548    9545    1809
CTETRA      6238       1   17919     157   12117     160    1800    9546+
+          12311    2493    9545    9548
CTETRA      6239       1   17919   12117   17209     160   12311   12310+
+          17213    2493    9548    2494
CTETRA      6240       1   17209   12117     159     160   12310    6513+
+           1811    2494    9548    1808
CTETRA      6241       1   17210   12113     162     161   12313    1816+
+           3071    6892    9549    6893
CTETRA      6242       1   12113     159     162     161    1817    1819+
+           1816    9549    1814    6893
CTETRA      6243       1   17209     159   12113     161    1811    1817+
+          12312    1812    1814    9549
CTETRA      6244       1   17209   12113   17210     161   12312   12313+
+          17214    1812    9549    6892
CTETRA      6245       1   13390     163   13394     164    5082    4040+
+          13458    9550    1821    9551
CTETRA      6246       1   13390     163     164     687    5082    1821+
+           9550    5083    5085    9552
CTETRA      6247       1   17922   13390     164     687   13464    9550+
+           2109    7219    5083    9552
CTETRA      6248       1   17922   13390   13394     164   13464   13458+
+          13465    2109    9550    9551
CTETRA      6249       1   13394     164     163     165    9551    1821+
+           4040    9553    1825    1824
CTETRA      6250       1   17922     164   13394     165    2109    9551+
+          13465    7341    1825    9553
CTETRA      6251       1   17922   13394   13384     165   13465   13468+
+          13411    7341    9553    9554
CTETRA      6252       1   13384   13394     155     165   13468    4039+
+           9555    9554    9553    8069
CTETRA      6253       1   13394     163     155     165    4040    1839+
+           4039    9553    1824    8069
CTETRA      6254       1   13729     163     102     167    1831    1834+
+           1833    9556    1842    5171
CTETRA      6255       1   13729     156     163     167    4330    1840+
+           1831    9556    1843    1842
CTETRA      6256       1   17285     167     156     833    4326    1843+
+           3184    6216    9557    6217
CTETRA      6257       1   17285     102     167     833    5170    5171+
+           4326    6216    6734    9557
CTETRA      6258       1   13783     171     174     418    3023    4389+
+           6374    3067    3075    9558
CTETRA      6259       1   14645     172     171     174    1865    1861+
+           1864    9559    1871    4389
CTETRA      6260       1   14645     173     172     174    8088    1868+
+           1865    9559    1872    1871
CTETRA      6261       1   13783     174     173     418    6374    1872+
+           3066    3067    9558    3068
CTETRA      6262       1   13723   13724       7     175   14365    7739+
+           3599    9560    9561    1878
CTETRA      6263       1   11690     175       7     987    1879    1878+
+           1876    7351    9562    8040
CTETRA      6264       1   17839     175   11690     987    8891    1879+
+          11740    9271    9562    7351
CTETRA      6265       1   17839   13724   13723     175   14363   14365+
+          14368    8891    9561    9560
CTETRA      6266       1   17838   13724   17839     987   14364   14363+
+          17845    8654    9563    9271
CTETRA      6267       1   17839   13724     175     987   14363    9561+
+           8891    9271    9563    9562
CTETRA      6268       1   13724       7     175     987    7739    1878+
+           9561    9563    8040    9562
CTETRA      6269       1   13395     987       7    1088    9564    8040+
+           8079    8077    9565    8078
CTETRA      6270       1   13393     987   13395    1088    9566    9564+
+          13460    8823    9565    8077
CTETRA      6271       1   17365     987   13393    1210    8892    9566+
+          13455    9129    9567    9130
CTETRA      6272       1   17365   13724   13704     987   14370   14642+
+          14371    8892    9563    9242
CTETRA      6273       1   17838   13704   13724     987   14628   14642+
+          14364    8654    9242    9563
CTETRA      6274       1   12746     574     177     219    6166    4306+
+           1894    2084    9568    9569
CTETRA      6275       1   12894     104     574     177    4318    4305+
+           4321    9570    4307    4306
CTETRA      6276       1   12862     104   12894     177    2607    4318+
+          13084    9571    4307    9570
CTETRA      6277       1   17307   12862   12894     177   13088   13084+
+          13086    7063    9571    9570
CTETRA      6278       1   17306   17307   12894     177   17338   13086+
+          13087    1893    7063    9570
CTETRA      6279       1   17306   12746     177     219   12831    1894+
+           1893    8729    2084    9569
CTETRA      6280       1   17305   12894   12893     219   13090   13089+
+          13091    2085    9572    9573
CTETRA      6281       1   12893   12894     574     219   13089    4321+
+           6806    9573    9572    9568
CTETRA      6282       1   12894     177     574     219    9570    4306+
+           4321    9572    9569    9568
CTETRA      6283       1   17306     177   12894     219    1893    9570+
+          13087    8729    9569    9572
CTETRA      6284       1   17305   17306   12894     219   17336   13087+
+          13090    2085    8729    9572
CTETRA      6285       1   13675   13676     181     182   14276    4867+
+           4874    9574    9575    1913
CTETRA      6286       1   17857   13676   13675     182   14207   14276+
+          14275    8298    9575    9574
CTETRA      6287       1   17857   13675   17858     182   14275   14192+
+          17864    8298    9574    8299
CTETRA      6288       1   17858   11784     182     960   11834    8424+
+           8299    9111    7176    9576
CTETRA      6289       1   11784     140     182     960    6324    1912+
+           8424    7176    7175    9576
CTETRA      6290       1   13675     181     140     182    4874    1909+
+           4872    9574    1913    1912
CTETRA      6291       1   13567     186   13592     185    2716    6364+
+          13906    9577    1929    9578
CTETRA      6292       1   17632     336     185     338    2556    9579+
+           1923    2562    5950    2563
CTETRA      6293       1   17632     184     185     336    1921    1924+
+           1923    2556    2558    9579
CTETRA      6294       1   13592     186     184     185    6364    1927+
+           3377    9578    1929    1924
CTETRA      6295       1   13567   13592     335     336   13906    3378+
+           7847    9580    9581    2557
CTETRA      6296       1   13592     184     335     336    3377    2555+
+           3378    9581    2558    2557
CTETRA      6297       1   13592     185     184     336    9578    1924+
+           3377    9581    9579    2558
CTETRA      6298       1   13567     185   13592     336    9577    9578+
+          13906    9580    9579    9581
CTETRA      6299       1   15257     144   15258     187    1949    1948+
+          15512    9582    1931    9583
CTETRA      6300       1   17466   15257   15258     187   15519   15512+
+          15520    6091    9582    9583
CTETRA      6301       1   17466   15258   17467     187   15520   15522+
+          17486    6091    9583    3663
CTETRA      6302       1   17467   15726     187     949   15761    2041+
+           3663    7109    7108    9584
CTETRA      6303       1   15726     144     187     949    2040    1931+
+           2041    7108    8966    9584
CTETRA      6304       1   15257     144     187     188    1949    1931+
+           9582    9585    1935    1934
CTETRA      6305       1   15257     144     188     506    1949    1935+
+           9585    3658    3657    9586
CTETRA      6306       1   15728     328     188     993    2524    9587+
+           8224    7390    7389    9588
CTETRA      6307       1   17466     188   15728     328    6092    8224+
+          15765    9098    9587    2524
CTETRA      6308       1   17466   15257     187     188   15519    9582+
+           6091    6092    9585    1934
CTETRA      6309       1   16506      70     189    1188    7959    7309+
+           1938    8889    9389    9589
CTETRA      6310       1   13708     189      70     306    9590    7309+
+           8728    2448    9591    9592
CTETRA      6311       1   16514     306     189     981    7312    9591+
+           2793    7314    7313    9593
CTETRA      6312       1   16505     189   16514     204    1937    2793+
+          16528    6688    9594    6689
CTETRA      6313       1   16505   16506     189     204   16533    1938+
+           1937    6688    7956    9594
CTETRA      6314       1   17790   16919   16920     204   16980   16982+
+          16985    1995    9135    9595
CTETRA      6315       1   17790   16694     204     349   16736    9596+
+           1995    2627    2629    9597
CTETRA      6316       1   16506    1188     204    1157    8889    9598+
+           7956    8593    9051    9599
CTETRA      6317       1   16506     189     204    1188    1938    9594+
+           7956    8889    9589    9598
CTETRA      6318       1   16514     204     189    1149    6689    9594+
+           2793    8538    9600    9601
CTETRA      6319       1   16514     204    1149     891    6689    9600+
+           8538    6692    6691    8537
CTETRA      6320       1   16920      70     307    1188    9602    9388+
+           9603    9604    9389    8888
CTETRA      6321       1   16920     189      70    1188    9605    7309+
+           9602    9604    9589    9389
CTETRA      6322       1   16920     204     189    1188    9595    9594+
+           9605    9604    9598    9589
CTETRA      6323       1   16694    1188     204     349    9606    9598+
+           9596    2629    9607    9597
CTETRA      6324       1   16693    1188   16694     349    9608    9606+
+          16737    2628    9607    2629
CTETRA      6325       1   16693     307    1188    1217    9609    8888+
+           9608    9223    9610    9611
CTETRA      6326       1   13708      70     189     370    8728    7309+
+           9590    9612    7311    2795
CTETRA      6327       1   13708      71      70     370    1945    1456+
+           8728    9612    9392    7311
CTETRA      6328       1   13708      42      71     370    1943    1946+
+           1945    9612    7608    9392
CTETRA      6329       1   17876      42   13708     370    7606    1943+
+          14332    7607    7608    9612
CTETRA      6330       1   17876   16514     370     981   16565    2794+
+           7607    7655    7314    9613
CTETRA      6331       1   16514     189     370     981    2793    2795+
+           2794    7314    9593    9613
CTETRA      6332       1   16920     307      70     190    9603    9388+
+           9602    9614    9395    9387
CTETRA      6333       1   16693     190     307    1217    9615    9395+
+           9609    9223    9616    9610
CTETRA      6334       1   17937     190   16693    1217    9086    9615+
+          16733    9222    9616    9223
CTETRA      6335       1   17751   17937   16920     190   17752   16986+
+          16984    2005    9086    9614
CTETRA      6336       1   17925   17751   16920     190   17753   16984+
+          16983    1951    2005    9614
CTETRA      6337       1   17925   13708     190     306   14329    9617+
+           1951    2446    2448    9618
CTETRA      6338       1   13708      70     190     306    8728    9387+
+           9617    2448    9592    9618
CTETRA      6339       1   13708     190      70     191    9617    9387+
+           8728    9619    1954    9386
CTETRA      6340       1   17925     190   13708     191    1951    9617+
+          14329    1952    1954    9619
CTETRA      6341       1   17351   17925   13708     191   17380   14329+
+          14326    2110    1952    9619
CTETRA      6342       1   17351   13708      70     191   14326    8728+
+           1455    2110    9619    9386
CTETRA      6343       1   16920     190      70     306    9614    9387+
+           9602    9620    9618    9592
CTETRA      6344       1   17925     190   16920     306    1951    9614+
+          16983    2446    9618    9620
CTETRA      6345       1   17925   16920   17754     306   16983   16981+
+          17777    2446    9620    2447
CTETRA      6346       1   17754   13792     306     912   14639    8605+
+           2447    6868    6870    9621
CTETRA      6347       1   16514    1149     306     982    8538    9622+
+           7312    7315    8540    7316
CTETRA      6348       1   16514     189     306    1149    2793    9591+
+           7312    8538    9601    9622
CTETRA      6349       1   16920      70     189     306    9602    7309+
+           9605    9620    9592    9591
CTETRA      6350       1   17150      63     455     196    3293    3297+
+           3369    9623    3300    3299
CTETRA      6351       1   17150   17151      63     196   17163    1426+
+           3293    9623    9624    3300
CTETRA      6352       1   17150     194   17151     196    6550    5173+
+          17163    9623    1964    9624
CTETRA      6353       1   17150     195     194     196    5670    1961+
+           6550    9623    1965    1964
CTETRA      6354       1   17150     455     195     196    3369    5671+
+           5670    9623    3299    1965
CTETRA      6355       1   12959     154     153     200    9543    1791+
+           2076    9625    2078    2267
CTETRA      6356       1   17921     154   12959     200    2077    9543+
+          13327    1978    2078    9625
CTETRA      6357       1   17921   12733     200     324   12764    1979+
+           1978    2539    2509    9626
CTETRA      6358       1   12733     153     200     324    6434    2267+
+           1979    2509    7201    9626
CTETRA      6359       1   12959     153     126     324    2076    6435+
+           6163    9627    7201    2508
CTETRA      6360       1   12959     200     153     324    9625    2267+
+           2076    9627    9626    7201
CTETRA      6361       1   17921     200   12959     324    1978    9625+
+          13327    2539    9626    9627
CTETRA      6362       1   17320   17921   12959     324   17322   13327+
+          13328    2537    2539    9627
CTETRA      6363       1   17320   12959   12960     324   13328   13333+
+          13332    2537    9627    9628
CTETRA      6364       1   12959     126   12960     324    6163    1674+
+          13333    9627    2508    9628
CTETRA      6365       1   17151      63     196     201    1426    3300+
+           9624    9629    5656    1986
CTETRA      6366       1   17284     201      63     202    5500    5656+
+           1419    1989    9630    5646
CTETRA      6367       1   17284     194     201     202    1988    1985+
+           5500    1989    1991    9630
CTETRA      6368       1   17151     196     194     201    9624    1964+
+           5173    9629    1986    1985
CTETRA      6369       1   17151      62      63     202    1423    1418+
+           1426    9631    5647    5646
CTETRA      6370       1   17285     202      62     438    5510    5647+
+           3205    3207    9632    3208
CTETRA      6371       1   17285     198     202     438    4060    1990+
+           5510    3207    6743    9632
CTETRA      6372       1   17151     194     198     202    5173    1974+
+           5172    9631    1991    1990
CTETRA      6373       1   17151     201     194     202    9629    1985+
+           5173    9631    9630    1991
CTETRA      6374       1   17151      63     201     202    1426    5656+
+           9629    9631    5646    9630
CTETRA      6375       1   17790     204   16920     349    1995    9595+
+          16985    2627    9597    9633
CTETRA      6376       1   17790   16693     349    1217   16735    2628+
+           2627    9224    9223    9634
CTETRA      6377       1   16693    1188     349    1217    9608    9607+
+           2628    9223    9611    9634
CTETRA      6378       1   16920     204    1188     349    9595    9598+
+           9604    9633    9597    9607
CTETRA      6379       1   17790     204   16694     205    1995    9596+
+          16736    1997    1996    9635
CTETRA      6380       1   17790   16694   16701     205   16736   16894+
+          16761    1997    9635    9091
CTETRA      6381       1   17714   16701   16694     205   16771   16894+
+          16739    9048    9091    9635
CTETRA      6382       1   17713   17714   16694     205   17724   16739+
+          16738    8554    9048    9635
CTETRA      6383       1   17713   16506     205    1157   16591    7958+
+           8554    8591    8593    9636
CTETRA      6384       1   16506     204     205    1157    7956    1996+
+           7958    8593    9599    9636
CTETRA      6385       1   16505     206     204    1138    9637    1999+
+           6688    8481    9638    9639
CTETRA      6386       1   16505     205     204     206    7957    1996+
+           6688    9637    2000    1999
CTETRA      6387       1   16505     205     206    1139    7957    2000+
+           9637    8484    9050    9640
CTETRA      6388       1   16505     206    1138    1139    9637    9638+
+           8481    8484    9640    8485
CTETRA      6389       1   13602     208      80     775    9641    8476+
+           9431    5855    9642    9430
CTETRA      6390       1   16608     208      80    1118    8323    8476+
+           1490    8314    9643    9436
CTETRA      6391       1   17891     208   16608    1118    8322    8323+
+          16657    8313    9643    8314
CTETRA      6392       1   17890   17891   13602     208   17905   13960+
+          13959    2022    8322    9641
CTETRA      6393       1   17890   13602   13601     208   13959   13955+
+          13952    2022    9641    9644
CTETRA      6394       1   13601     208   13602     775    9644    9641+
+          13955    5854    9642    5855
CTETRA      6395       1   15045      80     208     775    9445    8476+
+           9645    9646    9430    9642
CTETRA      6396       1   15045      80     775    1200    9445    9430+
+           9646    9017    9447    9647
CTETRA      6397       1   17927   15045     775    1200   15122    9646+
+           5864    9015    9017    9647
CTETRA      6398       1   17397   17927   15045     775   17413   15122+
+          15121    5853    5864    9646
CTETRA      6399       1   17397   13601     775    1219   13956    5854+
+           5853    9251    9250    9648
CTETRA      6400       1   13601     208     775    1219    9644    9642+
+           5854    9250    9649    9648
CTETRA      6401       1   13601     209     208    1219    9650    2014+
+           9644    9250    9651    9649
CTETRA      6402       1   17890     208   13601     209    2022    9644+
+          13952    2023    2014    9650
CTETRA      6403       1   17828     209   17890     211    2027    2023+
+          16654    2024    9652    2025
CTETRA      6404       1   17828    1216     209     211    9653    9654+
+           2027    2024    9655    9652
CTETRA      6405       1   13601     209    1219    1216    9650    9651+
+           9250    9212    9654    9252
CTETRA      6406       1   15045     208     209    1219    9645    2014+
+           9656    9657    9649    9651
CTETRA      6407       1   15045     775     208    1219    9646    9642+
+           9645    9657    9648    9649
CTETRA      6408       1   17397     775   15045    1219    5853    9646+
+          15121    9251    9648    9657
CTETRA      6409       1   17397   15045   15044    1219   15121   15117+
+          15114    9251    9657    9658
CTETRA      6410       1   15044   15045     209    1219   15117    9656+
+           9659    9658    9657    9651
CTETRA      6411       1   15045     209     208     210    9656    2014+
+           9645    9660    2018    2017
CTETRA      6412       1   15044     209   15045     210    9659    9656+
+          15117    9661    2018    9660
CTETRA      6413       1   17829     210    1133    1214    8456    9662+
+           8444    9195    9663    9249
CTETRA      6414       1   17829   16598     210    1202   16650    7550+
+           8456    9101    9057    9664
CTETRA      6415       1   16598      80     210    1202    1489    7551+
+           7550    9057    9434    9664
CTETRA      6416       1   15045     208      80     210    9645    8476+
+           9445    9660    2017    7551
CTETRA      6417       1   15988     144     188     213    1926    1935+
+           9665    9666    2039    9178
CTETRA      6418       1   17599     144   15988     213    1890    1926+
+          16110    2037    2039    9666
CTETRA      6419       1   17599   15728     213     993   15838    7388+
+           2037    9237    7390    9667
CTETRA      6420       1   15728     188     213     993    8224    9178+
+           7388    7390    9588    9667
CTETRA      6421       1   15258     187     144     949    9583    1931+
+           1948    9668    9584    8966
CTETRA      6422       1   17467     187   15258     949    3663    9583+
+          15522    7109    9584    9668
CTETRA      6423       1   17467   15258   15196     949   15522   15521+
+          15320    7109    9668    9669
CTETRA      6424       1   15196   15258     144     949   15521    1948+
+           1920    9669    9668    8966
CTETRA      6425       1   17305     219   12893     220    2085    9573+
+          13091    2086    2088    9670
CTETRA      6426       1   17305   12893     429     220   13091    5736+
+           5731    2086    9670    5136
CTETRA      6427       1   12893     574     429     220    6806    5138+
+           5736    9670    5137    5136
CTETRA      6428       1   12893     219     574     220    9573    9568+
+           6806    9670    2088    5137
CTETRA      6429       1   13552     222     221     498    9671    2096+
+           2717    3615    9672    9103
CTETRA      6430       1   13552     186     221     222    2715    2718+
+           2717    9671    4926    2096
CTETRA      6431       1   13551     186   13552     222    8087    2715+
+          13799    9673    4926    9671
CTETRA      6432       1   13551   13552     176     222   13799    3518+
+           6367    9673    9671    7432
CTETRA      6433       1   13552     176     222     498    3518    7432+
+           9671    3615    3617    9672
CTETRA      6434       1   14643     221     222     498    2092    2096+
+           2095    9674    9103    9672
CTETRA      6435       1   14643     218     221     498    2708    3614+
+           2092    9674    3616    9103
CTETRA      6436       1   14643     176     218     498    2706    2709+
+           2708    9674    3617    3616
CTETRA      6437       1   14643     222     176     498    2095    7432+
+           2706    9674    9672    3617
CTETRA      6438       1   17388   13397     224     628   13473    7409+
+           7412    4536    4535    9675
CTETRA      6439       1   13397     224     628     923    7409    9675+
+           4535    6940    7411    6941
CTETRA      6440       1   13736   14665     223     224    5071    3550+
+           3556    9676    9677    2101
CTETRA      6441       1   17389     223   14665     224    2098    3550+
+          14769    2099    2101    9677
CTETRA      6442       1   17388   17389   14665     224   17391   14769+
+          14768    7412    2099    9677
CTETRA      6443       1   14666     164     163     687    2108    1821+
+           2107    9678    9552    5085
CTETRA      6444       1   17922     164   14666     687    2109    2108+
+          14775    7219    9552    9678
CTETRA      6445       1   17922   14666   17389     687   14775   14771+
+          17390    7219    9678    5088
CTETRA      6446       1   17389   14666     223     687   14771    5086+
+           2098    5088    9678    5084
CTETRA      6447       1   14666     163     223     687    2107    3126+
+           5086    9678    5085    5084
CTETRA      6448       1   13644     464     230    1207    4705    8273+
+           2126    9108    9107    9679
CTETRA      6449       1   14693   14712     464     230   14953    5694+
+           7445    9680    9681    8273
CTETRA      6450       1   14693     232   14712     230    7631    7844+
+          14953    9680    7324    9681
CTETRA      6451       1   14693     556     232     230    6369    6372+
+           7631    9680    7448    7324
CTETRA      6452       1   13645     230     556     555    2128    7448+
+           4023    4021    9682    4022
CTETRA      6453       1   13644     230   13645     555    2126    2128+
+          14178    8272    9682    4021
CTETRA      6454       1   14693   14699     556     555   14892    9085+
+           6369    9683    9684    4022
CTETRA      6455       1   13644    1207     555    1190    9108    9685+
+           8272    8926    9109    9686
CTETRA      6456       1   13644     230     555    1207    2126    9682+
+           8272    9108    9679    9685
CTETRA      6457       1   14693     556     230     555    6369    7448+
+           9680    9683    4022    9682
CTETRA      6458       1   14693     230     464    1207    9680    8273+
+           7445    9687    9679    9107
CTETRA      6459       1   14693     555     230    1207    9683    9682+
+           9680    9687    9685    9679
CTETRA      6460       1   14693   14699     555    1207   14892    9684+
+           9683    9687    9688    9685
CTETRA      6461       1   14693     464   14699    1207    7445    7444+
+          14892    9687    9107    9688
CTETRA      6462       1   14712     464     230     233    5694    8273+
+           9681    9689    3370    7325
CTETRA      6463       1   14712     231     464     233    5695    3353+
+           5694    9689    2133    3370
CTETRA      6464       1   14712     232     231     233    7844    2130+
+           5695    9689    2134    2133
CTETRA      6465       1   14712     230     232     233    9681    7324+
+           7844    9689    7325    2134
CTETRA      6466       1   15850   15860     212     237   15920    7970+
+           8528    9690    9691    2144
CTETRA      6467       1   17528   15860   15850     237   15921   15920+
+          15915    8216    9691    9690
CTETRA      6468       1   17527   17528   15850     237   17555   15915+
+          15911    5757    8216    9690
CTETRA      6469       1   17527   15284     237    1026   15612    5755+
+           5757    7603    7605    9692
CTETRA      6470       1   15284    1145     237    1026    9008    9693+
+           5755    7605    9009    9692
CTETRA      6471       1   15850     237     212    1145    9690    2144+
+           8528    8526    9693    8527
CTETRA      6472       1   16063     212     237    1145    8220    2144+
+           9694    9695    8527    9693
CTETRA      6473       1   16063   16065     212    1145   16387    8421+
+           8220    9695    9696    8527
CTETRA      6474       1   17661   16065   16063    1145   16385   16387+
+          16381    9003    9696    9695
CTETRA      6475       1   17660   17661   16063    1145   17677   16381+
+          16380    8971    9003    9695
CTETRA      6476       1   17660   15858    1145    1195   15908    8972+
+           8971    8968    8967    9697
CTETRA      6477       1   15284     751    1145     752    5570    9698+
+           9008    5571    5573    9007
CTETRA      6478       1   15284     237    1145     751    5755    9693+
+           9008    5570    9699    9698
CTETRA      6479       1   16063     237     212     238    9694    2144+
+           8220    9700    2148    2147
CTETRA      6480       1   15284     238     237     751    5756    2148+
+           5755    5570    9701    9699
CTETRA      6481       1   15284   15296     238     240   15660    7653+
+           5756    8418    2152    9702
CTETRA      6482       1   15296     212     238     240    2151    2147+
+           7653    2152    2154    9702
CTETRA      6483       1   16063     212     239     240    8220    2150+
+           7663    9703    2154    2153
CTETRA      6484       1   16063     238     212     240    9700    2147+
+           8220    9703    9702    2154
CTETRA      6485       1   15284     240     238     751    8418    9702+
+           5756    5570    9704    9701
CTETRA      6486       1   15284     609     240     751    5566    5761+
+           8418    5570    5569    9704
CTETRA      6487       1   16063     239     609     240    7663    5576+
+           8805    9703    2153    5761
CTETRA      6488       1   15860     212     237     241    7970    2144+
+           9691    9705    2157    2156
CTETRA      6489       1   15292     241     212     244    7676    2157+
+           2029    2165    9706    2166
CTETRA      6490       1   17529     241   15292     244    7675    7676+
+          15645    8781    9706    2165
CTETRA      6491       1   17528   17529   15860     241   17554   15922+
+          15921    8777    7675    9705
CTETRA      6492       1   17528   15860     237     241   15921    9691+
+           8216    8777    9705    2156
CTETRA      6493       1   17530     243   15283     564    8780    8494+
+          15604    9229    9707    4114
CTETRA      6494       1   17529   17530   15861     243   17553   15927+
+          15926    8779    8780    9708
CTETRA      6495       1   17529   15861   15860     243   15926   15925+
+          15922    8779    9708    9709
CTETRA      6496       1   15860   15861     212     243   15925    6132+
+           7970    9709    9708    2163
CTETRA      6497       1   15861     406     212     243    8469    2982+
+           6132    9708    8495    2163
CTETRA      6498       1   15283     243     406     564    8494    8495+
+           4111    4114    9707    4115
CTETRA      6499       1   17529     243   15860     244    8779    9709+
+          15922    8781    2167    9710
CTETRA      6500       1   17529   15860     241     244   15922    9705+
+           7675    8781    9710    9706
CTETRA      6501       1   15860     212     241     244    7970    2157+
+           9705    9710    2166    9706
CTETRA      6502       1   15860     243     212     244    9709    2163+
+           7970    9710    2167    2166
CTETRA      6503       1   16909      94     122     246    4360    3871+
+           3874    9711    3872    2179
CTETRA      6504       1   17762      94   16909     246    3887    4360+
+          16931    6773    3872    9711
CTETRA      6505       1   17762   16909   17763     246   16931   16941+
+          17775    6773    9711    2178
CTETRA      6506       1   17763   16909     122     246   16941    3874+
+           2176    2178    9711    2179
CTETRA      6507       1   17445   15270     130     248   15559    3583+
+           2184    2186    9712    2187
CTETRA      6508       1   13407     248     130     529    5548    2187+
+           3846    3848    9713    3849
CTETRA      6509       1   17444     248   13407     529    5547    5548+
+          13529    6158    9713    3848
CTETRA      6510       1   17444   15270   17445     248   15556   15559+
+          17449    5547    9712    2186
CTETRA      6511       1   12744     258     251     749    2228    2230+
+           2227    5562    9714    6827
CTETRA      6512       1   17178     258   12744     749    8182    2228+
+          12825    5561    9714    5562
CTETRA      6513       1   17178   12163   17179     258   12484   12483+
+          17199    8182    9715    7728
CTETRA      6514       1   17179   12730     258     384   12771    7729+
+           7728    2872    2874    9716
CTETRA      6515       1   12730     251     258     384    5049    2230+
+           7729    2874    5556    9716
CTETRA      6516       1   12163     251     258     749    5047    2230+
+           9715    9717    6827    9714
CTETRA      6517       1   12163   12172     251     749   12522    5560+
+           5047    9717    9718    6827
CTETRA      6518       1   17178   12172   12163     749   12524   12522+
+          12484    5561    9718    9717
CTETRA      6519       1   17178   12163     258     749   12484    9715+
+           8182    5561    9717    9714
CTETRA      6520       1   15865     114     260     952    9502    2238+
+           9719    7121    9503    9720
CTETRA      6521       1   15865     260     308     952    9719    8274+
+           2737    7121    9720    8226
CTETRA      6522       1   17535     308   15865     260    2725    2737+
+          15950    8197    8274    9719
CTETRA      6523       1   17534   17535   15865     260   17545   15950+
+          15949    2237    8197    9719
CTETRA      6524       1   17534   15865     114     260   15949    9502+
+           2236    2237    9719    2238
CTETRA      6525       1   17365   13393     987     262   13455    9566+
+           8892    2242    9721    7350
CTETRA      6526       1   13393   13395     987     262   13460    9564+
+           9566    9721    9722    7350
CTETRA      6527       1   11681     941     262     942    7046    9723+
+           3539    7047    7049    7355
CTETRA      6528       1   11681   11682     262     488   11710    3540+
+           3539    3533    3532    9724
CTETRA      6529       1   11682     571     262     488    4158    9725+
+           3540    3532    4159    9724
CTETRA      6530       1   17365   13391   13393     262   13444   13453+
+          13455    2242    9726    9721
CTETRA      6531       1   17365   13391     262     261   13444    9726+
+           2242    2240    9727    2241
CTETRA      6532       1   11682     261     262     571    3542    2241+
+           3540    4158    9728    9725
CTETRA      6533       1   11682   11691     261     571   11712    3543+
+           3542    4158    9729    9728
CTETRA      6534       1   11691     261    1013     637    3543    9730+
+           7538    4625    4624    9731
CTETRA      6535       1   17365   13391     261     570   13444    9727+
+           2240    4155    4157    9732
CTETRA      6536       1   11690     987     263    1131    7351    8893+
+           9733    8432    8655    9734
CTETRA      6537       1   11690     263     261    1131    9733    2244+
+           3544    8432    9734    9735
CTETRA      6538       1   11690     262     261     263    3541    2241+
+           3544    9733    2245    2244
CTETRA      6539       1   11690     987     262     263    7351    7350+
+           3541    9733    8893    2245
CTETRA      6540       1   12943     700     264     701    5182    9736+
+           9737    5184    5183    9738
CTETRA      6541       1   12749     700     264     827    6154    9736+
+           2251    6155    6157    9739
CTETRA      6542       1   17175     264   12749     342    2247    2251+
+          12850    5951    9740    2603
CTETRA      6543       1   17175   12164   12175     264   12492   12544+
+          12543    2247    9741    9742
CTETRA      6544       1   12943     264     265     701    9737    2250+
+           9743    5184    9738    9744
CTETRA      6545       1   17175     264   12175     265    2247    9742+
+          12543    2248    2250    9745
CTETRA      6546       1   17175   12175   17176     265   12543   12536+
+          17203    2248    9745    2612
CTETRA      6547       1   17176   12748     265     341   12841    2860+
+           2612    2590    2592    9746
CTETRA      6548       1   12748     265     266     267    2860    9747+
+           2252    2255    2862    2256
CTETRA      6549       1   12943     265   12945     266    9743    9748+
+          13267    2598    9747    2599
CTETRA      6550       1   12943     266     101     701    2598    2253+
+           2597    5184    9749    5737
CTETRA      6551       1   12943     265     266     701    9743    9747+
+           2598    5184    9744    9749
CTETRA      6552       1   12748     266     265     341    2252    9747+
+           2860    2592    9750    9746
CTETRA      6553       1   12748     101     266     341    2254    2253+
+           2252    2592    5574    9750
CTETRA      6554       1   17309   17310   12945     267   17339   13266+
+          13265    5179    8339    9751
CTETRA      6555       1   17309   12750     267    1035   12854    2861+
+           5179    8228    7671    9752
CTETRA      6556       1   12750     265     267    1035    2249    2862+
+           2861    7671    7673    9752
CTETRA      6557       1   12945     266     265     267    2599    9747+
+           9748    9751    2256    2862
CTETRA      6558       1   12945     101     266     267    2596    2253+
+           2599    9751    2257    2256
CTETRA      6559       1   12744     267     101     909    2863    2257+
+           2276    6841    9753    6842
CTETRA      6560       1   17310     267   12744     909    8339    2863+
+          12834    8036    9753    6841
CTETRA      6561       1   12175     265     266     341    9745    9747+
+           9754    9755    9746    9750
CTETRA      6562       1   17176     265   12175     341    2612    9745+
+          12536    2590    9746    9755
CTETRA      6563       1   17176   12175   17177     341   12536   12535+
+          17202    2590    9755    2591
CTETRA      6564       1   17177   12175   12172     341   12535   12533+
+          12525    2591    9755    9756
CTETRA      6565       1   12172   12175     101     341   12533    2594+
+           2593    9756    9755    5574
CTETRA      6566       1   12175     266     101     341    9754    2253+
+           2594    9755    9750    5574
CTETRA      6567       1   12164     104   12176     700    6137    3236+
+          12540    9757    6153    9758
CTETRA      6568       1   12749     700     104     342    6154    6153+
+           2600    2603    9759    2604
CTETRA      6569       1   12749     264     700     342    2251    9736+
+           6154    2603    9740    9759
CTETRA      6570       1   12164   12175     264     700   12544    9742+
+           9741    9757    9760    9736
CTETRA      6571       1   12164   12176   12175     700   12540   12542+
+          12544    9757    9758    9760
CTETRA      6572       1   12943     265     264     268    9743    2250+
+           9737    9761    3504    2262
CTETRA      6573       1   12943   12945     265     268   13267    9748+
+           9743    9761    9762    3504
CTETRA      6574       1   17309   12945   12943     268   13265   13267+
+          13261    6792    9762    9761
CTETRA      6575       1   17308   17309   12943     268   17341   13261+
+          13260    4276    6792    9761
CTETRA      6576       1   17308   12749     268     827   12847    2261+
+           4276    6416    6155    9763
CTETRA      6577       1   12749     264     268     827    2251    2262+
+           2261    6155    9739    9763
CTETRA      6578       1   12862   12943     104     827   13263    1583+
+           2607    9764    9765    6156
CTETRA      6579       1   12943     700     104     827    5182    6153+
+           1583    9765    6157    6156
CTETRA      6580       1   12943     264     700     827    9737    9736+
+           5182    9765    9739    6157
CTETRA      6581       1   12943     268     264     827    9761    2262+
+           9737    9765    9763    9739
CTETRA      6582       1   17308     268   12943     827    4276    9761+
+          13260    6416    9763    9765
CTETRA      6583       1   17308   12943   12862     827   13260   13263+
+          13262    6416    9765    9764
CTETRA      6584       1   15737     403     269     412    7058    7060+
+           7059    3038    9236    9766
CTETRA      6585       1   15979     403   16070     269    7054    6273+
+          16401    9767    7060    9768
CTETRA      6586       1   17590   15979   16070     269   16159   16401+
+          16400    2268    9767    9768
CTETRA      6587       1   17590   15737     269     412   15820    7059+
+           2268    6608    3038    9766
CTETRA      6588       1   15979     403     269     270    7054    7060+
+           9767    9769    5368    2271
CTETRA      6589       1   15979     672     403     270    8525    5366+
+           7054    9769    5369    5368
CTETRA      6590       1   15735     270     672     813    6069    5369+
+           6079    6086    9770    7057
CTETRA      6591       1   17591     270   15735     813    6068    6069+
+          15821    6085    9770    6086
CTETRA      6592       1   17590   17591   15979     270   17613   16158+
+          16159    2270    6068    9769
CTETRA      6593       1   17590   15979     269     270   16159    9767+
+           2268    2270    9769    2271
CTETRA      6594       1   12096     126   12121     271    8652    6922+
+          12338    9771    7213    9772
CTETRA      6595       1   12732     271     126     925    2275    7213+
+           1681    6957    9773    6958
CTETRA      6596       1   17187     271   12732     925    2273    2275+
+          12754    8054    9773    6957
CTETRA      6597       1   17187   12096   12121     271   12251   12338+
+          12337    2273    9771    9772
CTETRA      6598       1   12096     126     271     925    8652    7213+
+           9771    9774    6958    9773
CTETRA      6599       1   12096   12100     126     925   12247    3888+
+           8652    9774    9775    6958
CTETRA      6600       1   17186   12100   12096     925   12245   12247+
+          12250    8053    9775    9774
CTETRA      6601       1   17186   12096   17187     925   12250   12251+
+          17189    8053    9774    8054
CTETRA      6602       1   17187   12096     271     925   12251    9771+
+           2273    8054    9774    9773
CTETRA      6603       1   12745     272     251    1092    9159    2279+
+           2226    8096    9776    8097
CTETRA      6604       1   17311     272   12745    1092    8338    9159+
+          12824    8782    9776    8096
CTETRA      6605       1   17310   17311   12954     272   17337   13307+
+          13306    8035    8338    9777
CTETRA      6606       1   17310   12954   12945     272   13306   13304+
+          13266    8035    9777    9778
CTETRA      6607       1   12945   12954     101     272   13304    7137+
+           2596    9778    9777    2278
CTETRA      6608       1   12954     251     101     272    6402    2266+
+           7137    9777    2279    2278
CTETRA      6609       1   11896     275     124    1064    2291    6853+
+           6852    7878    9779    7981
CTETRA      6610       1   17022     275   11896    1064    2289    2291+
+          12024    8420    9779    7878
CTETRA      6611       1   17022   11607   11606     275   11653   11652+
+          11651    2289    9780    9781
CTETRA      6612       1   11606   11607     124     275   11652    9515+
+           9514    9781    9780    6853
CTETRA      6613       1   11893    1064     410    1063    7879    7982+
+           4777    7874    9782    7875
CTETRA      6614       1   17023    1064   11893    1063    7877    7879+
+          12018    7973    9782    7874
CTETRA      6615       1   17022   17023   11607    1064   17035   11656+
+          11653    8420    7877    9783
CTETRA      6616       1   17022   11607     275    1064   11653    9780+
+           2289    8420    9783    9779
CTETRA      6617       1   11607     124     275    1064    9515    6853+
+           9780    9783    7981    9779
CTETRA      6618       1   11607     410     124    1064    9784    4662+
+           9515    9783    7982    7981
CTETRA      6619       1   11779     358     278    1225    2690    9785+
+           9786    9787    9788    9789
CTETRA      6620       1   11779     278     835    1225    9786    9790+
+           6223    9787    9789    9791
CTETRA      6621       1   11779     278     834     835    9786    9792+
+           6221    6223    9790    6224
CTETRA      6622       1   11779     278     358     834    9786    9785+
+           2690    6221    9792    7530
CTETRA      6623       1   11875     278     358     385    2319    9785+
+           9793    2882    8687    9794
CTETRA      6624       1   11778     989     358     990    7364    9795+
+           2691    7365    7367    7531
CTETRA      6625       1   17070     358   11778     989    2689    2691+
+          11857    8113    9795    7364
CTETRA      6626       1   17069   17070   11875     358   17080   11940+
+          11941    7528    2689    9793
CTETRA      6627       1   17069   11875   11874     358   11941   11931+
+          11936    7528    9793    9796
CTETRA      6628       1   11874   11875     278     358   11931    2319+
+           2318    9796    9793    9785
CTETRA      6629       1   11874     358     278     834    9796    9785+
+           2318    9797    7530    9792
CTETRA      6630       1   17069     358   11874     834    7528    9796+
+          11936    7529    7530    9797
CTETRA      6631       1   17069   11780     834    1067   11856    6222+
+           7529    7893    7892    9798
CTETRA      6632       1   11780    1066     834    1067    9799    9800+
+           6222    7892    9801    9798
CTETRA      6633       1   11874     834     278    1066    9797    9792+
+           2318    7887    9800    8685
CTETRA      6634       1   17708   17709   16722     279   17719   16845+
+          16846    2320    2327    9802
CTETRA      6635       1   17708   16511     279     900   16581    2321+
+           2320    6739    6738    9803
CTETRA      6636       1   16511      87     279     900    2806    3914+
+           2321    6738    8878    9803
CTETRA      6637       1   16722   16730      87     279   16888    2357+
+           2315    9802    9804    3914
CTETRA      6638       1   17709   16730   16722     279   16886   16888+
+          16845    2327    9804    9802
CTETRA      6639       1   16722      87      86     900    2315    1514+
+           4839    9805    8878    8621
CTETRA      6640       1   16722     279      87     900    9802    3914+
+           2315    9805    9803    8878
CTETRA      6641       1   17708     279   16722     900    2320    9802+
+          16846    6739    9803    9805
CTETRA      6642       1   17708   16722   16721     900   16846   16848+
+          16851    6739    9805    9806
CTETRA      6643       1   16721   16722      86     900   16848    4839+
+           1523    9806    9805    8621
CTETRA      6644       1   17709   16730     279     280   16886    9804+
+           2327    2328    9807    2329
CTETRA      6645       1   16730      87     279     280    2357    3914+
+           9804    9807    2952    2329
CTETRA      6646       1   16730     113      87     280    2360    2359+
+           2357    9807    2953    2952
CTETRA      6647       1   16509     280     113     290    5160    2953+
+           2378    9203    9808    2372
CTETRA      6648       1   17709     280   16509     290    2328    5160+
+          16586    9207    9808    9203
CTETRA      6649       1   16721      86      89     284    1523    1522+
+           1520    9809    7862    7861
CTETRA      6650       1   16511     284      86     285    2342    7862+
+           1538    2345    9810    8622
CTETRA      6651       1   17938     284   16511     285    2343    2342+
+          16582    2344    9810    2345
CTETRA      6652       1   17938   16721   16700     284   16850   16842+
+          16769    2343    9809    9811
CTETRA      6653       1   16700   16721      89     284   16842    1520+
+           6750    9811    9809    7861
CTETRA      6654       1   16721     900      86     285    9806    8621+
+           1523    9812    6740    8622
CTETRA      6655       1   17708     900   16721     285    6739    9806+
+          16851    2346    6740    9812
CTETRA      6656       1   17938   17708   16721     285   17718   16851+
+          16850    2344    2346    9812
CTETRA      6657       1   17938   16721     284     285   16850    9809+
+           2343    2344    9812    9810
CTETRA      6658       1   16721      86     284     285    1523    7862+
+           9809    9812    8622    9810
CTETRA      6659       1   17523   17524   15855     287   17558   15897+
+          15896    8180    6903    9813
CTETRA      6660       1   17523   15855   15854     287   15896   15895+
+          15892    8180    9813    9814
CTETRA      6661       1   15854   15855     134     287   15895    4072+
+           3932    9814    9813    2355
CTETRA      6662       1   15855     286     134     287    2649    2352+
+           4072    9813    2356    2355
CTETRA      6663       1   17524     286   15855     287    5685    2649+
+          15897    6903    2356    9813
CTETRA      6664       1   16520     288      87     372    3921    2365+
+           2807    2814    9815    7105
CTETRA      6665       1   17871     288   16520     372    3762    3921+
+          16576    2813    9815    2814
CTETRA      6666       1   17871   13546   17872     288   13852   13855+
+          17881    3762    9816    3763
CTETRA      6667       1   17872   13546   13757     288   13855   14487+
+          14489    3763    9816    9817
CTETRA      6668       1   13546     113   13757     288    1621    1623+
+          14487    9816    2364    9817
CTETRA      6669       1   13546      87     113     288    3758    2359+
+           1621    9816    2365    2364
CTETRA      6670       1   13757      84   13758     289    6461    6460+
+          14484    9818    2369    9819
CTETRA      6671       1   13757     113      84     289    1623    1616+
+           6461    9818    2370    2369
CTETRA      6672       1   16519     289     113     373    4934    2370+
+           2361    2816    9820    2817
CTETRA      6673       1   17872     289   16519     373    5309    4934+
+          16574    4551    9820    2816
CTETRA      6674       1   17872   13757   17873     289   14489   14492+
+          17888    5309    9818    5677
CTETRA      6675       1   17873   13757   13758     289   14492   14484+
+          14491    5677    9818    9819
CTETRA      6676       1   17709   17710   16730     290   17720   16887+
+          16886    9207    9202    9821
CTETRA      6677       1   17709   16730     280     290   16886    9807+
+           2328    9207    9821    9808
CTETRA      6678       1   16730     113     280     290    2360    2953+
+           9807    9821    2372    9808
CTETRA      6679       1   17639     113   16730     290    2371    2360+
+          16890    2373    2372    9821
CTETRA      6680       1   17639   16730   16696     290   16890   16891+
+          16747    2373    9821    7639
CTETRA      6681       1   17710   16696   16730     290   16749   16891+
+          16887    9202    7639    9821
CTETRA      6682       1   16509     113      84     291    2378    1616+
+           2377    9822    2375    5414
CTETRA      6683       1   16509     290     113     291    9203    2372+
+           2378    9822    2376    2375
CTETRA      6684       1   16509     290     291    1215    9203    2376+
+           9822    9206    9205    9823
CTETRA      6685       1   16509     291      84    1215    9822    5414+
+           2377    9206    9823    9467
CTETRA      6686       1   14699     556     555     297    9085    4022+
+           9684    9824    4025    4024
CTETRA      6687       1   14699     293     556     297    6375    4026+
+           9085    9824    2414    4025
CTETRA      6688       1   13768     297     293     811    2415    2414+
+           2386    6072    9825    6073
CTETRA      6689       1   13644     297   13768     811    6373    2415+
+          14523    9110    9825    6072
CTETRA      6690       1   13644     555     297    1190    8272    4024+
+           6373    8926    9686    9826
CTETRA      6691       1   13644     811     855    1190    9110    9827+
+           6413    8926    9828    8927
CTETRA      6692       1   13644     297     811    1190    6373    9825+
+           9110    8926    9826    9828
CTETRA      6693       1   14699     293     297     811    6375    2414+
+           9824    9829    6073    9825
CTETRA      6694       1   14699   14701     293     811   14904    3004+
+           6375    9829    9830    6073
CTETRA      6695       1   16087     301     300     302    5405    2431+
+           3667    9831    2435    2434
CTETRA      6696       1   17670     301   16087     302    5741    5405+
+          16482    5742    2435    9831
CTETRA      6697       1   17670   16087   16086     302   16482   16474+
+          16481    5742    9831    9832
CTETRA      6698       1   16086   16087     300     302   16474    3667+
+           2453    9832    9831    2434
CTETRA      6699       1   17703     304   13401    1226    8548    2441+
+          13499    9833    9834    9835
CTETRA      6700       1   17351   13401   13402     304   13496   13500+
+          13503    2442    2441    8549
CTETRA      6701       1   17351   13402     307     304   13503    9394+
+           2449    2442    8549    9393
CTETRA      6702       1   16695     304     307    1172    9836    9393+
+           9397    9399    9837    9400
CTETRA      6703       1   16507     959      72     305    7173    8731+
+           9403    9838    8733    2452
CTETRA      6704       1   16507     959     305    1221    7173    8733+
+           9838    9320    9322    9839
CTETRA      6705       1   16507     305     708    1221    9838    9840+
+           5249    9320    9839    9323
CTETRA      6706       1   16507     305     304     708    9838    2445+
+           8572    5249    9840    8571
CTETRA      6707       1   16507     307     304     305    8601    9393+
+           8572    9838    2451    2445
CTETRA      6708       1   16507      72     307     305    9403    2450+
+           8601    9838    2452    2451
CTETRA      6709       1   13401     708     305     371    9841    9840+
+           2444    2803    9842    8566
CTETRA      6710       1   13401     304     305     708    2441    2445+
+           2444    9841    8571    9840
CTETRA      6711       1   16695     708     304    1226    9843    8571+
+           9836    9844    9845    9834
CTETRA      6712       1   13401     708     906    1226    9841    9846+
+           6778    9835    9845    9847
CTETRA      6713       1   13401     708   13403     906    9841    9848+
+          13507    6778    9846    9061
CTETRA      6714       1   16516     708     462    1227    6265    6266+
+           3336    9849    9850    9851
CTETRA      6715       1   16516     379     708    1227    2856    7166+
+           6265    9849    9852    9850
CTETRA      6716       1   13401     379     708     371    9260    7166+
+           9841    2803    9317    9842
CTETRA      6717       1   15057     310     309     311    4999    2461+
+           9853    9854    2465    2464
CTETRA      6718       1   17916     310   15057     311    4992    4999+
+          15191    4985    2465    9854
CTETRA      6719       1   17916   15057   15058     311   15191   15187+
+          15194    4985    9854    9855
CTETRA      6720       1   15057     137   15058     311    9856    9857+
+          15187    9854    7276    9855
CTETRA      6721       1   15057     309     137     311    9853    2929+
+           9856    9854    2464    7276
CTETRA      6722       1   13614     316      25    1100    8598    8443+
+           1297    8145    9858    8146
CTETRA      6723       1   17401     316   13614    1100    8913    8598+
+          14013    8911    9858    8145
CTETRA      6724       1   17401   15043   17402     316   15110   15109+
+          17419    8913    9859    2481
CTETRA      6725       1   17402   15043     315     316   15109    8157+
+           2480    2481    9859    2482
CTETRA      6726       1   15043      25     315     316    9860    6967+
+           8157    9859    8443    2482
CTETRA      6727       1   14723     315     318     945    2486    2492+
+           9861    7087    8958    9862
CTETRA      6728       1   14723     945     318     946    7087    9862+
+           9861    7090    7089    9863
CTETRA      6729       1   14723     318     166     946    9861    5002+
+           7910    7090    9863    8975
CTETRA      6730       1   14723     317     166     318    8171    5001+
+           7910    9861    2491    5002
CTETRA      6731       1   14723     315     317     318    2486    2488+
+           8171    9861    2492    2491
CTETRA      6732       1   13557     315     319     470    2489    2497+
+           8105    3397    4189    9864
CTETRA      6733       1   17402     315   15042     319    2480    8158+
+          15107    2495    2497    9865
CTETRA      6734       1   17402   15042   17403     319   15107   15108+
+          17418    2495    9865    3398
CTETRA      6735       1   17403   13557     319     470   14001    8105+
+           3398    3395    3397    9864
CTETRA      6736       1   17853   13627   13791     320   14035   14634+
+          14636    6906    9866    9867
CTETRA      6737       1   17853   13791   13790     320   14636   14637+
+          14624    6906    9867    9868
CTETRA      6738       1   13790     320   13791     770    9868    9867+
+          14637    5778    9869    5779
CTETRA      6739       1   13791     770     320     337    5779    9869+
+           9867    2560    8435    9870
CTETRA      6740       1   13627   13791     320     337   14634    9867+
+           9866    2561    2560    9870
CTETRA      6741       1   13790     321     320     817    9871    2499+
+           9868    6116    9872    9873
CTETRA      6742       1   11788     817     321     837    7751    9872+
+           7143    6234    7752    9874
CTETRA      6743       1   11779     321   11788     835    7753    7143+
+          11814    6223    9875    9072
CTETRA      6744       1   11779   11780     321     835   11819    7937+
+           7753    6223    6225    9875
CTETRA      6745       1   11780     594     321    1228    8678    9876+
+           7937    9877    9878    9879
CTETRA      6746       1   11604     320   11605     321    9880    9881+
+          11641    9882    2499    9883
CTETRA      6747       1   11605     321     320     322    9883    2499+
+           9881    9884    2503    2502
CTETRA      6748       1   11780     322     321     594    3922    2503+
+           7937    8678    9885    9876
CTETRA      6749       1   11780   11790     322     594   11821    3923+
+           3922    8678    8680    9885
CTETRA      6750       1   11790     322    1045     402    3923    9886+
+           9163    2964    8030    9165
CTETRA      6751       1   13627     320     322    1045    9866    2502+
+           9887    7758    9888    9886
CTETRA      6752       1   13790     320     770     817    9868    9869+
+           5778    6116    9873    9889
CTETRA      6753       1   11604   11605     320     770   11641    9881+
+           9880    9890    9891    9869
CTETRA      6754       1   17001   11605   11604     770   11644   11641+
+          11639    5777    9891    9890
CTETRA      6755       1   17001   13790     770     817   14627    5778+
+           5777    7936    6116    9889
CTETRA      6756       1   11605     320     770     337    9881    9869+
+           9891    9892    9870    8435
CTETRA      6757       1   13627     337     320    1045    2561    9870+
+           9866    7758    9893    9888
CTETRA      6758       1   17001     337   13627    1045    2559    2561+
+          14034    7917    9893    7758
CTETRA      6759       1   17001   11605     770     337   11644    9891+
+           5777    2559    9892    8435
CTETRA      6760       1   17430   15043   17928     323   15113   15135+
+          17438    2504    9894    8254
CTETRA      6761       1   17928   17495     323     927   17519    8255+
+           8254    8625    6969    9895
CTETRA      6762       1   17495     315     323     927    6968    2506+
+           8255    6969    6971    9895
CTETRA      6763       1   17430     315   15043     323    2484    8157+
+          15113    2504    2506    9894
CTETRA      6764       1   12960     126     128     325    1674    1684+
+           9520    9896    2511    9519
CTETRA      6765       1   12960     324     126     325    9628    2508+
+           1674    9896    2512    2511
CTETRA      6766       1   17320     324   12960     325    2537    9628+
+          13332    2538    2512    9896
CTETRA      6767       1   17320   12960     128     325   13332    9520+
+           2571    2538    9896    9519
CTETRA      6768       1   15257     328     334     506    9897    9898+
+           2552    3658    9899    6094
CTETRA      6769       1   15257     328     326     334    9897    2525+
+           2549    2552    9898    2553
CTETRA      6770       1   15255     326   15257     328    7679    2549+
+          15507    9900    2525    9897
CTETRA      6771       1   17465   15255   15257     328   15514   15507+
+          15515    9097    9900    9897
CTETRA      6772       1   17465   15257   17466     328   15515   15519+
+          17485    9097    9897    9098
CTETRA      6773       1   17466   15257     188     328   15519    9585+
+           6092    9098    9897    9587
CTETRA      6774       1   15257     188     328     506    9585    9587+
+           9897    3658    9586    9899
CTETRA      6775       1   15255     326     328     329    7679    2525+
+           9900    9901    2529    2528
CTETRA      6776       1   15729     329     326     881    7525    2529+
+           7501    6647    9902    9122
CTETRA      6777       1   17465     329   15729     881    7585    7525+
+          15768    7997    9902    6647
CTETRA      6778       1   17465   15255     328     329   15514    9900+
+           9097    7585    9901    2528
CTETRA      6779       1   15992   15995   15997     330   16144   16145+
+          16140    9903    9904    9905
CTETRA      6780       1   15254     332     330     331    2544    9906+
+           2540    2541    2545    2542
CTETRA      6781       1   15254     326     330     332    2550    2535+
+           2540    2544    7834    9906
CTETRA      6782       1   15992     327     326     330    2684    2523+
+           2531    9903    2536    2535
CTETRA      6783       1   15992   15997     327     330   16140    2685+
+           2684    9903    9905    2536
CTETRA      6784       1   15992     326   15993     332    2531    8283+
+          16115    9907    7834    9908
CTETRA      6785       1   15992     330     326     332    9903    2535+
+           2531    9907    9906    7834
CTETRA      6786       1   15992   15995     330     332   16144    9904+
+           9903    9907    9909    9906
CTETRA      6787       1   15992   15993   15995     332   16115   16131+
+          16144    9907    9908    9909
CTETRA      6788       1   15993   15995     332     331   16131    9909+
+           9908    9910    9911    2545
CTETRA      6789       1   15995     330     332     331    9904    9906+
+           9909    9911    2542    2545
CTETRA      6790       1   15272     331     330     733    2543    2542+
+           2534    5407    9912    9167
CTETRA      6791       1   15272     147     331     733    5406    5411+
+           2543    5407    5409    9912
CTETRA      6792       1   15993     147   15995     331    7678    2296+
+          16131    9910    5411    9911
CTETRA      6793       1   15995   15997     330     733   16145    9905+
+           9904    9913    9914    9167
CTETRA      6794       1   15995     276   15997     733    2294    6567+
+          16145    9913    5408    9914
CTETRA      6795       1   15995     147     276     733    2296    2295+
+           2294    9913    5409    5408
CTETRA      6796       1   15995     331     147     733    9911    5411+
+           2296    9913    9912    5409
CTETRA      6797       1   15995     330     331     733    9904    2542+
+           9911    9913    9167    9912
CTETRA      6798       1   15988   15993     328     334   16125    9915+
+           9916    9917    9918    9898
CTETRA      6799       1   15993     326     328     334    8283    2525+
+           9915    9918    2553    9898
CTETRA      6800       1   15254     334     326     333    2551    2553+
+           2550    2546    9919    7835
CTETRA      6801       1   15254   15256     334     333   15500    6093+
+           2551    2546    6095    9919
CTETRA      6802       1   15256     673     334    1059    4940    9920+
+           6093    7851    7850    9921
CTETRA      6803       1   15993     331     332     333    9910    2545+
+           9908    9922    2548    2547
CTETRA      6804       1   15993     147     331     333    7678    5411+
+           9910    9922    5413    2548
CTETRA      6805       1   15256     333     147    1059    6095    5413+
+           1786    7851    9923    8620
CTETRA      6806       1   15256     334     333    1059    6093    9919+
+           6095    7851    9921    9923
CTETRA      6807       1   15993     326     334     333    8283    2553+
+           9918    9922    7835    9919
CTETRA      6808       1   15993     332     326     333    9908    7834+
+           8283    9922    2547    7835
CTETRA      6809       1   11790      78    1045    1065    1481    9164+
+           9163    7882    7881    9924
CTETRA      6810       1   15055    1045      78     936    9925    9164+
+           9419    7027    9926    9423
CTETRA      6811       1   17911    1045   15055     936    7757    9925+
+          15175    8677    9926    7027
CTETRA      6812       1   17001   17911   11605    1045   17008   11645+
+          11644    7917    7757    9927
CTETRA      6813       1   17001   11605     337    1045   11644    9892+
+           2559    7917    9927    9893
CTETRA      6814       1   11605     320     337    1045    9881    9870+
+           9892    9927    9888    9893
CTETRA      6815       1   11605     322     320    1045    9884    2502+
+           9881    9927    9886    9888
CTETRA      6816       1   11790    1045     322    1065    9163    9886+
+           3923    7882    9924    9928
CTETRA      6817       1   13567     336     335     338    9580    2557+
+           7847    9929    5950    5949
CTETRA      6818       1   13567     185     336     338    9577    9579+
+           9580    9929    2563    5950
CTETRA      6819       1   17633     338     185    1182    2564    2563+
+           1925    8832    9930    8833
CTETRA      6820       1   17633     221     338    1182    3604    3606+
+           2564    8832    9256    9930
CTETRA      6821       1   13567     335     221     338    7847    5908+
+           2719    9929    5949    3606
CTETRA      6822       1   13567     186     185    1182    2716    1929+
+           9577    9931    8834    8833
CTETRA      6823       1   13567     221     186    1182    2719    2718+
+           2716    9931    9256    8834
CTETRA      6824       1   13567     338     221    1182    9929    3606+
+           2719    9931    9930    9256
CTETRA      6825       1   13567     185     338    1182    9577    2563+
+           9929    9931    8833    9930
CTETRA      6826       1   13580     257   13591     340    4959    2215+
+          13909    9932    2583    9933
CTETRA      6827       1   13579   13580   13591     340   13874   13909+
+          13908    9934    9932    9933
CTETRA      6828       1   13579   13591     184     340   13908    2588+
+           6365    9934    9933    4191
CTETRA      6829       1   13591     256     184     340    2214    2589+
+           2588    9933    2582    4191
CTETRA      6830       1   13591     257     256     340    2215    2217+
+           2214    9933    2583    2582
CTETRA      6831       1   12175     264     700     701    9742    9736+
+           9760    9935    9738    5183
CTETRA      6832       1   12175     265     264     701    9745    2250+
+           9742    9935    9744    9738
CTETRA      6833       1   12175     266     265     701    9754    9747+
+           9745    9935    9749    9744
CTETRA      6834       1   12175     101     266     701    2594    2253+
+           9754    9935    5737    9749
CTETRA      6835       1   12175   12176     101     701   12542    2885+
+           2594    9935    9936    5737
CTETRA      6836       1   12175     700   12176     701    9760    9758+
+          12542    9935    5183    9936
CTETRA      6837       1   12164     104     700     342    6137    6153+
+           9757    9937    2604    9759
CTETRA      6838       1   17174     104   12164     342    2601    6137+
+          12490    2602    2604    9937
CTETRA      6839       1   17174   12164   17175     342   12490   12492+
+          17200    2602    9937    5951
CTETRA      6840       1   17175   12164     264     342   12492    9741+
+           2247    5951    9937    9740
CTETRA      6841       1   12164     700     264     342    9757    9736+
+           9741    9937    9759    9740
CTETRA      6842       1   17601   16040   15978     343   16304   16303+
+          16102    6581    9938    9939
CTETRA      6843       1   17600   17601   15978     343   17623   16102+
+          16101    6580    6581    9939
CTETRA      6844       1   17600   15726     343    1197   15839    2610+
+           6580    8993    8995    9940
CTETRA      6845       1   15726     183     343    1197    2605    2611+
+           2610    8995    8994    9940
CTETRA      6846       1   15978     627     183     343    4521    4523+
+           2044    9939    5899    2611
CTETRA      6847       1   15978   16040     627     343   16303    5683+
+           4521    9939    9938    5899
CTETRA      6848       1   17600   15978     183    1197   16101    2044+
+           2606    8993    9941    8994
CTETRA      6849       1   15978     343     183    1197    9939    2611+
+           2044    9941    9940    8994
CTETRA      6850       1   17600     343   15978    1197    6580    9939+
+          16101    8993    9940    9941
CTETRA      6851       1   17026   11903     347     451   12056    9942+
+           2623    7909    7908    9943
CTETRA      6852       1   17026   11903   11871     347   12056   12057+
+          11923    2623    9942    6925
CTETRA      6853       1   17050   11871   11903     347   11925   12057+
+          12053    3278    6925    9942
CTETRA      6854       1   17050   11685     347     449   11761    2634+
+           3278    5291    3269    9944
CTETRA      6855       1   11685     451     347     449    3274    9943+
+           2634    3269    3275    9944
CTETRA      6856       1   17026   11610     347     346   11671    9945+
+           2623    2621    9946    2622
CTETRA      6857       1   11685     346     347     713    2636    2622+
+           2634    5277    9947    9948
CTETRA      6858       1   11685   11694     346     713   11723    5290+
+           2636    5277    5276    9947
CTETRA      6859       1   11693     346   11694    1130    2900    5290+
+          11721    9027    9949    9028
CTETRA      6860       1   11693    1014     346    1130    7547    9950+
+           2900    9027    9951    9949
CTETRA      6861       1   17026   11611   11610     346   11676   11673+
+          11671    2621    8899    9946
CTETRA      6862       1   11684     348     346     350    9952    2625+
+           2635    2631    9953    2901
CTETRA      6863       1   11684     347     346     348    2633    2622+
+           2635    9952    2626    2625
CTETRA      6864       1   11684     347     348     792    2633    2626+
+           9952    5966    5965    9954
CTETRA      6865       1   11684     348     350     792    9952    9953+
+           2631    5966    9954    9955
CTETRA      6866       1   17026     347   11610     451    2623    9945+
+          11671    7909    9943    9956
CTETRA      6867       1   17025   17026   11610     451   17038   11671+
+          11668    7907    7909    9956
CTETRA      6868       1   17025   11610   11608     451   11668   11667+
+          11666    7907    9956    9957
CTETRA      6869       1   11685     713     451     448    5277    9958+
+           3274    3266    5279    3276
CTETRA      6870       1   11685     347     451     713    2634    9943+
+           3274    5277    9948    9958
CTETRA      6871       1   11611     346     348     350    8899    2625+
+           8900    9959    2901    9953
CTETRA      6872       1   11693     350     346    1014    2632    2901+
+           2900    7547    9960    9950
CTETRA      6873       1   11683     350   11693     394    2630    2632+
+          11718    2915    9961    9022
CTETRA      6874       1   11683     350     394     986    2630    9961+
+           2915    7338    7543    7463
CTETRA      6875       1   11871     348     350     396    2920    9953+
+           9962    2923    2922    9963
CTETRA      6876       1   11871     350     394     396    9962    9961+
+           9964    2923    9963    9965
CTETRA      6877       1   11693     394     350    1014    9022    9961+
+           2632    7547    9966    9960
CTETRA      6878       1   11692     394   11693    1014    2916    9022+
+          11717    7546    9966    7547
CTETRA      6879       1   11692     394     567     523    2916    9967+
+           4627    3796    9968    4626
CTETRA      6880       1   13392     394     567    1069    9969    9967+
+           4126    7900    9970    7901
CTETRA      6881       1   11692    1229    1014     524    9971    9972+
+           7546    3797    9973    7548
CTETRA      6882       1   11692     394    1014    1229    2916    9966+
+           7546    9971    9974    9972
CTETRA      6883       1   11611     350     394    1014    9959    9961+
+           9975    9976    9960    9966
CTETRA      6884       1   11611     346     350    1014    8899    2901+
+           9959    9976    9950    9960
CTETRA      6885       1   11610     346   11611    1014    9946    8899+
+          11673    9977    9950    9976
CTETRA      6886       1   16990   11610   11611    1014   11670   11673+
+          11672    7894    9977    9976
CTETRA      6887       1   16990   13705    1014     638   14321    8992+
+           7894    4631    4630    9978
CTETRA      6888       1   11608     451   11610     713    9957    9956+
+          11667    9979    9958    9980
CTETRA      6889       1   11694     713    1007    1008    5276    9981+
+           9982    9983    9984    7487
CTETRA      6890       1   11694     346     713    1008    5290    9947+
+           5276    9983    9985    9984
CTETRA      6891       1   11610     347     346     713    9945    2622+
+           9946    9980    9948    9947
CTETRA      6892       1   11610     451     347     713    9956    9943+
+           9945    9980    9958    9948
CTETRA      6893       1   11903     449     451     656    9986    3275+
+           7908    4764    9987    9037
CTETRA      6894       1   11903     347     451     449    9942    9943+
+           7908    9986    9944    3275
CTETRA      6895       1   17050     347   11903     449    3278    9942+
+          12053    5291    9944    9986
CTETRA      6896       1   17049   17050   11903     449   17060   12053+
+          12052    3270    5291    9986
CTETRA      6897       1   17049   11903   11895     449   12052   12054+
+          12011    3270    9986    9988
CTETRA      6898       1   11895     449   11903     656    9988    9986+
+          12054    4763    9987    4764
CTETRA      6899       1   17785   16916   17786     352   16958   16955+
+          17802    5709    9989    6559
CTETRA      6900       1   17786   16916     345     352   16955    8039+
+           6011    6559    9989    2641
CTETRA      6901       1   16916     351     345     352    5697    2638+
+           8039    9989    2642    2641
CTETRA      6902       1   17785     351   16916     352    5708    5697+
+          16958    5709    2642    9989
CTETRA      6903       1   17657   16013     286     354   16211    6617+
+           2648    2656    9990    2657
CTETRA      6904       1   16013     608     286     354    5684    6311+
+           6617    9990    6313    2657
CTETRA      6905       1   16013   16014     608     354   16209    5595+
+           5684    9990    9991    6313
CTETRA      6906       1   17657   16014   16013     354   16210   16209+
+          16211    2656    9991    9990
CTETRA      6907       1   11606     275     124     356    9781    6853+
+           9514    9992    4207    8414
CTETRA      6908       1   17022     275   11606     356    2289    9781+
+          11651    4206    4207    9992
CTETRA      6909       1   17021   17022   11606     356   17034   11651+
+          11648    2670    4206    9992
CTETRA      6910       1   17021   11880     356     983   11987    2671+
+           2670    7319    7318    9993
CTETRA      6911       1   11880     236     356     983    5653    7329+
+           2671    7318    7327    9993
CTETRA      6912       1   11606     124     236     356    9514    2140+
+           9517    9992    8414    7329
CTETRA      6913       1   17021   11606   11599     983   11648   11647+
+          11646    7319    9994    9995
CTETRA      6914       1   11599   11606     236     983   11647    9517+
+           9996    9995    9994    7327
CTETRA      6915       1   11606     356     236     983    9992    7329+
+           9517    9994    9993    7327
CTETRA      6916       1   17021     356   11606     983    2670    9992+
+          11648    7319    9993    9994
CTETRA      6917       1   11875     989     192     385    9997    7363+
+           2880    2882    9998    2883
CTETRA      6918       1   11873     192   11875     989    4911    2880+
+          11938    9999    7363    9997
CTETRA      6919       1   17070   11873   11875     989   11934   11938+
+          11940    8113    9999    9997
CTETRA      6920       1   17070   11875     358     989   11940    9793+
+           2689    8113    9997    9795
CTETRA      6921       1   11875     358     989     385    9793    9795+
+           9997    2882    9794    9998
CTETRA      6922       1   14706     469     218     361    7078    7073+
+           2083   10000    7075    2714
CTETRA      6923       1   14706   14707     469     361   14939    6833+
+           7078   10000   10001    7075
CTETRA      6924       1   14706     173   14707     361    2080    8083+
+          14939   10000    2713   10001
CTETRA      6925       1   14706     218     173     361    2083    2082+
+           2080   10000    2714    2713
CTETRA      6926       1   15866     300     308     362    8511    2457+
+           2736   10002    2729    8423
CTETRA      6927       1   15866   15867     300     362   15958    2430+
+           8511   10002   10003    2729
CTETRA      6928       1   17536   15867   15866     362   15959   15958+
+          15955    4948   10003   10002
CTETRA      6929       1   17535   17536   15866     362   17543   15955+
+          15954    8225    4948   10002
CTETRA      6930       1   17535   15866     308     362   15954    2736+
+           2725    8225   10002    8423
CTETRA      6931       1   15867     300     362     363    2430    2729+
+          10003   10004    2733    2732
CTETRA      6932       1   15228     363     300    1110    2735    2733+
+           2734    8238   10005    9241
CTETRA      6933       1   17536     363   15228    1110    2743    2735+
+          15407    8243   10005    8238
CTETRA      6934       1   17536   15867     362     363   15959   10003+
+           4948    2743   10004    2732
CTETRA      6935       1   15867     301     300    1110    2432    2431+
+           2430   10006    8239    9241
CTETRA      6936       1   17537     301   15867    1110    4504    2432+
+          15960    8237    8239   10006
CTETRA      6937       1   17536   17537   15867    1110   17542   15960+
+          15959    8243    8237   10006
CTETRA      6938       1   17536   15867     363    1110   15959   10004+
+           2743    8243   10006   10005
CTETRA      6939       1   15867     300     363    1110    2430    2733+
+          10004   10006    9241   10005
CTETRA      6940       1   15202     366     367     724    2767    2772+
+           2771    5358   10007    7370
CTETRA      6941       1   15202     355     366     724    2745    2768+
+           2767    5358    5360   10007
CTETRA      6942       1   16047     235     355     366    3740    2756+
+           2659   10008    3741    2768
CTETRA      6943       1   16047     367     235     366    5270    3729+
+           3740   10008    2772    3741
CTETRA      6944       1   16047     366     355     724   10008    2768+
+           2659   10009   10007    5360
CTETRA      6945       1   16047     367     366     724    5270    2772+
+          10008   10009    7370   10007
CTETRA      6946       1   16047   16048     367     724   16328    9246+
+           5270   10009   10010    7370
CTETRA      6947       1   16047     364   16048     724    7119    7961+
+          16328   10009    5359   10010
CTETRA      6948       1   16047     355     364     724    2659    2748+
+           7119   10009    5360    5359
CTETRA      6949       1   13790     320     321     368    9868    2499+
+           9871   10011    2775    2774
CTETRA      6950       1   17853     320   13790     368    6906    9868+
+          14624    6907    2775   10011
CTETRA      6951       1   17853   13790   17854     368   14624   14623+
+          17868    6907   10011    7034
CTETRA      6952       1   17854   11788     368     837   11842    7035+
+           7034    6448    6234   10012
CTETRA      6953       1   11788     321     368     837    7143    2774+
+           7035    6234    9874   10012
CTETRA      6954       1   11604     320     321     817    9880    2499+
+           9882   10013    9873    9872
CTETRA      6955       1   11604     770     320     817    9890    9869+
+           9880   10013    9889    9873
CTETRA      6956       1   17001     770   11604     817    5777    9890+
+          11639    7936    9889   10013
CTETRA      6957       1   17000   17001   11604     817   17007   11639+
+          11636    6117    7936   10013
CTETRA      6958       1   17000   11604   11603     817   11636   11635+
+          11634    6117   10013   10014
CTETRA      6959       1   11788     817    1021    1230    7751   10015+
+           7579   10016   10017   10018
CTETRA      6960       1   11788     321     817    1230    7143    9872+
+           7751   10016   10019   10017
CTETRA      6961       1   17877   13708   13792     981   14331   14638+
+          14640    7656   10020   10021
CTETRA      6962       1   13708     306   13792     981    2448    8605+
+          14638   10020    7313   10021
CTETRA      6963       1   13708     189     306     981    9590    9591+
+           2448   10020    9593    7313
CTETRA      6964       1   13708     370     189     981    9612    2795+
+           9590   10020    9613    9593
CTETRA      6965       1   17876     370   13708     981    7607    9612+
+          14332    7655    9613   10020
CTETRA      6966       1   17876   13708   17877     981   14332   14331+
+          17885    7655   10020    7656
CTETRA      6967       1   13792    1149     306     912   10022    9622+
+           8605    6870   10023    9621
CTETRA      6968       1   13792     911    1149     912    6867   10024+
+          10022    6870    6869   10023
CTETRA      6969       1   16919   16920     204    1149   16982    9595+
+           9135   10025   10026    9600
CTETRA      6970       1   16920     189     204    1149    9605    9594+
+           9595   10026    9601    9600
CTETRA      6971       1   16920     306     189    1149    9620    9591+
+           9605   10026    9622    9601
CTETRA      6972       1   13546      93      87     372    9476    7104+
+           3758   10027    2815    7105
CTETRA      6973       1   17871      93   13546     372    2812    9476+
+          13852    2813    2815   10027
CTETRA      6974       1   17871   13546     288     372   13852    9816+
+           3762    2813   10027    9815
CTETRA      6975       1   13546      87     288     372    3758    2365+
+           9816   10027    7105    9815
CTETRA      6976       1   12620   12621     374     651   12686    2825+
+           5887    4754    4733   10028
CTETRA      6977       1   12621      58     374     651    2827    2826+
+           2825    4733    4732   10028
CTETRA      6978       1   12081      59      58     374    2824    1410+
+           7498   10029    5613    2826
CTETRA      6979       1   12081      60      59     374    5580    1415+
+           2824   10029    8560    5613
CTETRA      6980       1   12081      60     374     753    5580    8560+
+          10029    5596    5598    8215
CTETRA      6981       1   12081      58   12116     651    7498    2843+
+          12373   10030    4732   10031
CTETRA      6982       1   12081     374      58     651   10029    2826+
+           7498   10030   10028    4732
CTETRA      6983       1   12620     651     374     753    4754   10028+
+           5887    8214   10032    8215
CTETRA      6984       1   12620     587     651     753    5591    5590+
+           4754    8214   10033   10032
CTETRA      6985       1   17119   12081   17120     651   12218   12219+
+          17123    4747   10030    4748
CTETRA      6986       1   17120   12081   12116     651   12219   12373+
+          12370    4748   10030   10031
CTETRA      6987       1   12928      58     374     375    1406    2826+
+           5612   10034    2830    2829
CTETRA      6988       1   12922      58   12928     375    2854    1406+
+          13207   10035    2830   10034
CTETRA      6989       1   17253   12922   12928     375   13214   13207+
+          13215    6816   10035   10034
CTETRA      6990       1   17253   12620     375    1050   12684    5888+
+           6816    9170    8193   10036
CTETRA      6991       1   12620     374     375    1050    5887    2829+
+           5888    8193    8213   10036
CTETRA      6992       1   12621     377      58     652    2837    2836+
+           2827    4734   10037    4735
CTETRA      6993       1   17120     377   12621     652    7738    2837+
+          12689    5607   10037    4734
CTETRA      6994       1   17918   17120   12116     377   17131   12370+
+          12320    5233    7738   10038
CTETRA      6995       1   17918   12116   12118     377   12320   12319+
+          12318    5233   10038   10039
CTETRA      6996       1   12116      37   12118     377    2842    5237+
+          12319   10038    2850   10039
CTETRA      6997       1   12116      58      37     377    2843    2845+
+           2842   10038    2836    2850
CTETRA      6998       1   12116     651      58     652   10031    4732+
+           2843   10040    4736    4735
CTETRA      6999       1   17120     651   12116     652    4748   10031+
+          12370    5607    4736   10040
CTETRA      7000       1   17120   12116     377     652   12370   10038+
+           7738    5607   10040   10037
CTETRA      7001       1   12116      58     377     652    2843    2836+
+          10038   10040    4735   10037
CTETRA      7002       1   12172     341     101     378    9756    5574+
+           2593   10041    5181    2839
CTETRA      7003       1   17177     341   12172     378    2591    9756+
+          12525    5180    5181   10041
CTETRA      7004       1   17177   12744     378     750   12826    2838+
+           5180    8640    5565   10042
CTETRA      7005       1   12744     101     378     750    2276    2839+
+           2838    5565    6162   10042
CTETRA      7006       1   12172     101     251     750    2593    2266+
+           5560   10043    6162    6161
CTETRA      7007       1   12172     378     101     750   10041    2839+
+           2593   10043   10042    6162
CTETRA      7008       1   17177     378   12172     750    5180   10041+
+          12525    8640   10042   10043
CTETRA      7009       1   17177   12172   17178     750   12525   12524+
+          17201    8640   10043    5563
CTETRA      7010       1   17178   12172     749     750   12524    9718+
+           5561    5563   10043    5564
CTETRA      7011       1   12172     251     749     750    5560    6827+
+           9718   10043    6161    5564
CTETRA      7012       1   17352     379   13706     380    3343    9319+
+          14334    3344    2858   10044
CTETRA      7013       1   17352   13403     380     369   13505   10045+
+           3344    2790    2792   10046
CTETRA      7014       1   16517     380     704     772    3335   10047+
+           5227    5814   10048    8901
CTETRA      7015       1   17874     380   16517     772    6529    3335+
+          16570    7598   10048    5814
CTETRA      7016       1   17874   13706   17875     380   14337   14336+
+          17886    6529   10044    2857
CTETRA      7017       1   17875   13706     379     380   14336    9319+
+           2855    2857   10044    2858
CTETRA      7018       1   12945     265     268    1035    9748    3504+
+           9762   10049    7673    7672
CTETRA      7019       1   12945     267     265    1035    9751    2862+
+           9748   10049    9752    7673
CTETRA      7020       1   17309     267   12945    1035    5179    9751+
+          13265    8228    9752   10049
CTETRA      7021       1   17309   12945     268    1035   13265    9762+
+           6792    8228   10049    7672
CTETRA      7022       1   17180     381   12730     383    2878    5045+
+          12770    6220   10050    2871
CTETRA      7023       1   17180   12161   12080     381   12478   12481+
+          12480    2878   10051   10052
CTETRA      7024       1   12080   12161     259     381   12481    2232+
+           5062   10052   10051    2865
CTETRA      7025       1   12730     381     259     383    5045    2865+
+           5044    2871   10050    5050
CTETRA      7026       1   17180     381   12080     382    2878   10052+
+          12480    2879    2869   10053
CTETRA      7027       1   17180   12080   17181     382   12480   12306+
+          17198    2879   10053    7404
CTETRA      7028       1   17181   12737     382    1058   12787    7836+
+           7404    7841    7843   10054
CTETRA      7029       1   12737     486     382    1058    4689    7837+
+           7836    7843    8857   10054
CTETRA      7030       1   12080     259     486     382    5062    5061+
+           5059   10053    2868    7837
CTETRA      7031       1   12080     381     259     382   10052    2865+
+           5062   10053    2869    2868
CTETRA      7032       1   12161     251     259     383    2233    2235+
+           2232   10055    5051    5050
CTETRA      7033       1   12161   12163     251     383   12485    5047+
+           2233   10055   10056    5051
CTETRA      7034       1   17179   12163   12161     383   12483   12485+
+          12479    2870   10056   10055
CTETRA      7035       1   17179   12161   17180     383   12479   12478+
+          17197    2870   10055    6220
CTETRA      7036       1   17180   12161     381     383   12478   10051+
+           2878    6220   10055   10050
CTETRA      7037       1   12161     259     381     383    2232    2865+
+          10051   10055    5050   10050
CTETRA      7038       1   12163     251     383     384    5047    5051+
+          10056   10057    5556    2873
CTETRA      7039       1   12163     258     251     384    9715    2230+
+           5047   10057    9716    5556
CTETRA      7040       1   17179     258   12163     384    7728    9715+
+          12483    2872    9716   10057
CTETRA      7041       1   17179   12163     383     384   12483   10056+
+           2870    2872   10057    2873
CTETRA      7042       1   11603     192     989     385   10058    7363+
+          10059   10060    2883    9998
CTETRA      7043       1   11872     385     192    1186    2881    2883+
+           2779    8883   10061    8884
CTETRA      7044       1   17017     385   11872    1186    8688    2881+
+          11928    9120   10061    8883
CTETRA      7045       1   17016   17017   11603     385   17030   11632+
+          11633    8686    8688   10060
CTETRA      7046       1   17016   11603     278     385   11633    7889+
+           2317    8686   10060    8687
CTETRA      7047       1   11603     358     278     385   10062    9785+
+           7889   10060    9794    8687
CTETRA      7048       1   11603     989     358     385   10059    9795+
+          10062   10060    9998    9794
CTETRA      7049       1   17017   11602   11603    1186   11628   11630+
+          11632    9120   10063   10064
CTETRA      7050       1   17017   11603     385    1186   11632   10060+
+           8688    9120   10064   10061
CTETRA      7051       1   11603     192     385    1186   10058    2883+
+          10060   10064    8884   10061
CTETRA      7052       1   11602     192   11603    1186   10065   10058+
+          11630   10063    8884   10064
CTETRA      7053       1   11873   11886     192     387   11967    2780+
+           4911   10066   10067    8109
CTETRA      7054       1   11886     181     192     387    4878    4870+
+           2780   10067    2893    8109
CTETRA      7055       1   11776     387     181     386    2891    2893+
+           2890    2887   10068    6214
CTETRA      7056       1   17072     387   11776     386    5658    2891+
+          11861    2886   10068    2887
CTETRA      7057       1   17071   17072   11886     387   17082   11976+
+          11975    5657    5658   10067
CTETRA      7058       1   17071   11886   11873     387   11975   11967+
+          11935    5657   10067   10066
CTETRA      7059       1   11886   11887     181     386   11973    4887+
+           4878   10069   10070    6214
CTETRA      7060       1   17072   11887   11886     386   11971   11973+
+          11976    2886   10070   10069
CTETRA      7061       1   17072   11886     387     386   11976   10067+
+           5658    2886   10069   10068
CTETRA      7062       1   11886     181     387     386    4878    2893+
+          10067   10069    6214   10068
CTETRA      7063       1   13637     389     388    1104    7727    2899+
+           5479    8164   10071    8165
CTETRA      7064       1   17407     389   13637    1104    8835    7727+
+          14073    9081   10071    8164
CTETRA      7065       1   17407   15053   17408     389   15163   15164+
+          17424    8835   10072    5447
CTETRA      7066       1   17408   13633     389     675   14060    5448+
+           5447    4977    4979   10073
CTETRA      7067       1   13633     137     389     675    2965    2898+
+           5448    4979    5441   10073
CTETRA      7068       1   15053     388     137     389   10074    2895+
+          10075   10072    2899    2898
CTETRA      7069       1   11610    1130    1014    1068   10076    9951+
+           9977    9240    8428    7897
CTETRA      7070       1   11610     346    1014    1130    9946    9950+
+           9977   10076    9949    9951
CTETRA      7071       1   11694    1130     346    1008    9028    9949+
+           5290    9983   10077    9985
CTETRA      7072       1   11694    1130    1008     858    9028   10077+
+           9983    8898    9029    8907
CTETRA      7073       1    1130    1008     858    1068   10077    8907+
+           9029    8428   10078   10079
CTETRA      7074       1   11682   11683     391     986   11714    2908+
+           2907    7339    7338   10080
CTETRA      7075       1   11683     391     986     395    2908   10080+
+           7338    2917    3531    7464
CTETRA      7076       1   17044     391   13392    1069    4433    9245+
+          13445    7906   10081    7900
CTETRA      7077       1   17044     391     910     614    4433   10082+
+           6857    4435    4434    6860
CTETRA      7078       1   11871     394     350     986    9964    9961+
+           9962   10083    7463    7543
CTETRA      7079       1   13392     986     394    1069   10084    7463+
+           9969    7900   10085    9970
CTETRA      7080       1   13392     391     986    1069    9245   10080+
+          10084    7900   10081   10085
CTETRA      7081       1   11682     986     391     910    7339   10080+
+           2907    7348   10086   10082
CTETRA      7082       1   17051     986   11682     910    7337    7339+
+          11765    7347   10086    7348
CTETRA      7083       1   17050   17051   11871     986   17061   11924+
+          11925    8123    7337   10083
CTETRA      7084       1   17050   11684     986     792   11760    7542+
+           8123    5964    5966   10087
CTETRA      7085       1   11684     350     986     792    2631    7543+
+           7542    5966    9955   10087
CTETRA      7086       1   17052   11904   11871     910   12068   12069+
+          12062    7349   10088   10089
CTETRA      7087       1   17051   17052   11871     910   17062   12062+
+          11924    7347    7349   10089
CTETRA      7088       1   17051   11871     986     910   11924   10083+
+           7337    7347   10089   10086
CTETRA      7089       1   11871     391     986     910   10090   10080+
+          10083   10089   10082   10086
CTETRA      7090       1   17044     391   11871     910    4433   10090+
+          11921    6857   10082   10089
CTETRA      7091       1   17044   11871   11904     910   11921   12069+
+          12066    6857   10089   10088
CTETRA      7092       1   13391   13392     391     392   13446    9245+
+           9244   10091   10092    2910
CTETRA      7093       1   11692     392     523     569    4620   10093+
+           3796    4138   10094    4139
CTETRA      7094       1   11691     392   11692    1013    4621    4620+
+          11715    7538   10095    7539
CTETRA      7095       1   11682     392   11691     571    2909    4621+
+          11712    4158   10096    9729
CTETRA      7096       1   11682     391     392     571    2907    2910+
+           2909    4158   10097   10096
CTETRA      7097       1     391     571     614     615   10097    7357+
+           4434    4437    7358    4438
CTETRA      7098       1   13391     571     391     615   10098   10097+
+           9244   10099    7358    4437
CTETRA      7099       1   13391     392     391     571   10091    2910+
+           9244   10098   10096   10097
CTETRA      7100       1   11691     571     392    1013    9729   10096+
+           4621    7538   10100   10095
CTETRA      7101       1   11691     261     571    1013    3543    9728+
+           9729    7538    9730   10100
CTETRA      7102       1   13391     262     261     571    9726    2241+
+           9727   10098    9725    9728
CTETRA      7103       1   13391   13393     262     571   13453    9721+
+           9726   10098   10101    9725
CTETRA      7104       1   13391   13393     571     572   13453   10101+
+          10098    4163    4162   10102
CTETRA      7105       1   13392     391     392     395    9245    2910+
+          10092   10103    3531    3530
CTETRA      7106       1   13392     986     391     395   10084   10080+
+           9245   10103    7464    3531
CTETRA      7107       1   13392     394     986     395    9969    7463+
+          10084   10103    2918    7464
CTETRA      7108       1   11692     395     394     523    2919    2918+
+           2916    3796   10104    9968
CTETRA      7109       1   11692     392     395     523    4620    3530+
+           2919    3796   10093   10104
CTETRA      7110       1   11692     567     394    1229    4627    9967+
+           2916    9971   10105    9974
CTETRA      7111       1   11692     567    1229     524    4627   10105+
+           9971    3797    4628    9973
CTETRA      7112       1   17910     567   13705     638    4125   10106+
+          14320    4629   10107    4630
CTETRA      7113       1   16987   17910   11611     567   16988   11674+
+          11675    6493    4125   10108
CTETRA      7114       1   17909   16987   11611     567   16989   11675+
+          11677    6492    6493   10108
CTETRA      7115       1   17909   11871     567     396   11922   10109+
+           6492    7451    2923   10110
CTETRA      7116       1   11871     394     567     396    9964    9967+
+          10109    2923    9965   10110
CTETRA      7117       1   13392     523     525     568   10111   10112+
+           3801    4129   10113    9243
CTETRA      7118       1   13391   13392     523     525   13446   10111+
+          10114    3802    3801   10112
CTETRA      7119       1   13391   13392     392     523   13446   10092+
+          10091   10114   10111   10093
CTETRA      7120       1   13392     395     392     523   10103    3530+
+          10092   10111   10104   10093
CTETRA      7121       1   13392     394     395     523    9969    2918+
+          10103   10111    9968   10104
CTETRA      7122       1   13392     567     394     523    4126    9967+
+           9969   10111    4626    9968
CTETRA      7123       1   13392     567     523     568    4126    4626+
+          10111    4129    4128   10113
CTETRA      7124       1   13705     567    1229     638   10106   10105+
+          10115    4630   10107   10116
CTETRA      7125       1   11611     394     567    1229    9975    9967+
+          10108   10117    9974   10105
CTETRA      7126       1   11611    1014     394    1229    9976    9966+
+           9975   10117    9972    9974
CTETRA      7127       1   13705    1229    1014     638   10115    9972+
+           8992    4630   10116    9978
CTETRA      7128       1   11871     350     348     792    9962    9953+
+           2920   10118    9955    9954
CTETRA      7129       1   11871     986     350     792   10083    7543+
+           9962   10118   10087    9955
CTETRA      7130       1   17050     986   11871     792    8123   10083+
+          11925    5964   10087   10118
CTETRA      7131       1   17050   11871     347     792   11925    6925+
+           3278    5964   10118    5965
CTETRA      7132       1   11871     348     347     792    2920    2626+
+           6925   10118    9954    5965
CTETRA      7133       1   11611     350     348     396    9959    9953+
+           8900   10119    9963    2922
CTETRA      7134       1   11611     394     350     396    9975    9961+
+           9959   10119    9965    9963
CTETRA      7135       1   11611     567     394     396   10108    9967+
+           9975   10119   10110    9965
CTETRA      7136       1   17909     567   11611     396    6492   10108+
+          11677    7451   10110   10119
CTETRA      7137       1   17909   11611   17026     396   11677   11676+
+          17039    7451   10119    2921
CTETRA      7138       1   17026   11611     348     396   11676    8900+
+           2624    2921   10119    2922
CTETRA      7139       1   16729     397      48    1023   10120    9352+
+           7077    7587   10121    7916
CTETRA      7140       1   16729      46      48     397    7076    1370+
+           7077   10120    2928    9352
CTETRA      7141       1   17734      46   16729     397    2925    7076+
+          16882    2926    2928   10120
CTETRA      7142       1   17733   17734   16729     397   17744   16882+
+          16881    7586    2926   10120
CTETRA      7143       1   17733   16600     397     520   16688    2933+
+           7586    7934    3788   10122
CTETRA      7144       1   16600     397     520     398    2933   10122+
+           3788    2936    2935    8169
CTETRA      7145       1   17733   16729   16714     520   16881   16883+
+          16804    7934   10123   10124
CTETRA      7146       1   16714     520   16729     399   10124   10123+
+          16883    2938    3787    2939
CTETRA      7147       1   16729     520    1023    1024   10123   10125+
+           7587    7590   10126    7591
CTETRA      7148       1   16729     520     397    1023   10123   10122+
+          10120    7587   10125   10121
CTETRA      7149       1   17733     397   16729     520    7586   10120+
+          16881    7934   10122   10123
CTETRA      7150       1   16912   16913     520    1023   16945   10127+
+          10128   10129   10130   10125
CTETRA      7151       1   16913     397     520    1023   10131   10122+
+          10127   10130   10121   10125
CTETRA      7152       1   16913      48     397    1023    8650    9352+
+          10131   10130    7916   10121
CTETRA      7153       1   17779      48   16913    1023    1369    8650+
+          16944    7915    7916   10130
CTETRA      7154       1   17779   16913   17780    1023   16944   16943+
+          17803    7915   10130    7588
CTETRA      7155       1   17780   16913   16912    1023   16943   16945+
+          16939    7588   10130   10129
CTETRA      7156       1   16912     520   16913     398   10128   10127+
+          16945   10132    8169   10133
CTETRA      7157       1   16609     398    1231    1212    7050   10134+
+          10135    9185   10136   10137
CTETRA      7158       1   16599     398   16609    1105    2934    7050+
+          16622    8173   10138    8174
CTETRA      7159       1   16599     397     398    1105    2927    2935+
+           2934    8173    9353   10138
CTETRA      7160       1   16913     520     397     398   10127   10122+
+          10131   10133    8169    2935
CTETRA      7161       1   16913     397      48    1105   10131    9352+
+           8650   10139    9353    9351
CTETRA      7162       1   16913     398     397    1105   10133    2935+
+          10131   10139   10138    9353
CTETRA      7163       1   16609    1105     398    1212    8174   10138+
+           7050    9185   10140   10136
CTETRA      7164       1   16608    1105   16609    1212    8175    8174+
+          16621    9184   10140    9185
CTETRA      7165       1   16608      47    1105    1136    8465    8466+
+           8175    9345    9347   10141
CTETRA      7166       1   16913      48      47    1105    8650    1371+
+           8649   10139    9351    8466
CTETRA      7167       1   16912      82     122     399   10142    7818+
+           3875   10143    9452    7307
CTETRA      7168       1   16600     399      82     943    3786    9452+
+           7595    7051   10144    7596
CTETRA      7169       1   16600     520     399     943    3788    3787+
+           3786    7051    8170   10144
CTETRA      7170       1   16729     399     520    1024    2939    3787+
+          10123    7590   10145   10126
CTETRA      7171       1   17780     399   16729    1024    2937    2939+
+          16884    7589   10145    7590
CTETRA      7172       1   17780   16912   17781     399   16939   16938+
+          17796    2937   10143    7306
CTETRA      7173       1   17781   16912     122     399   16938    3875+
+           7304    7306   10143    7307
CTETRA      7174       1   16912    1023     520    1024   10129   10125+
+          10128   10146    7591   10126
CTETRA      7175       1   17780    1023   16912    1024    7588   10129+
+          16939    7589    7591   10146
CTETRA      7176       1   17780   16912     399    1024   16939   10143+
+           2937    7589   10146   10145
CTETRA      7177       1   16912     520     399    1024   10128    3787+
+          10143   10146   10126   10145
CTETRA      7178       1   13599      86     400     401    1525    2955+
+           9480   10147    2958    2957
CTETRA      7179       1   13599      89      86     401    1548    1522+
+           1525   10147    5524    2958
CTETRA      7180       1   13597      89   13599     401    6948    1548+
+          13948   10148    5524   10147
CTETRA      7181       1   17943   13597   13599     401   13949   13948+
+          13950    4411   10148   10147
CTETRA      7182       1   17943   13599     400     401   13950    9480+
+           4410    4411   10147    2957
CTETRA      7183       1   15221     242     561     404    7646    4100+
+           9462   10149    2974    8489
CTETRA      7184       1   15739     404     242    1140    2975    2974+
+           2972    8490   10150    8491
CTETRA      7185       1   17454     404   15739    1140    8208    2975+
+          15799    8796   10150    8490
CTETRA      7186       1   17454   15221   17455     404   15386   15378+
+          17479    8208   10149    8209
CTETRA      7187       1   17455   15221     561     404   15378    9462+
+           8488    8209   10149    8489
CTETRA      7188       1   15221   15222     242    1140   15387    8341+
+           7646   10151   10152    8491
CTETRA      7189       1   17454   15222   15221    1140   15388   15387+
+          15386    8796   10152   10151
CTETRA      7190       1   17454   15221     404    1140   15386   10149+
+           8208    8796   10151   10150
CTETRA      7191       1   15221     242     404    1140    7646    2974+
+          10149   10151    8491   10150
CTETRA      7192       1   15281     228    1020    1039    8194    9226+
+           7576    7705   10153    7706
CTETRA      7193       1   15281     112     228    1039    7708    2998+
+           8194    7705    7709   10153
CTETRA      7194       1   16062     112   16066     228    4107    7720+
+          16393   10154    2998   10155
CTETRA      7195       1   17666   16062   16066     228   16374   16393+
+          16392    2118   10154   10155
CTETRA      7196       1   17665   17666   16066     228   17686   16392+
+          16394    2116    2118   10155
CTETRA      7197       1   17665   15859     228    1106   15917    7688+
+           2116    8186    8188   10156
CTETRA      7198       1   16062     112     228     407    4107    2998+
+          10154   10157    3002    3001
CTETRA      7199       1   15863     407     112    1137    7616    3002+
+           7615    8479   10158    9500
CTETRA      7200       1   17666     407   15863    1137    5555    7616+
+          15941    8478   10158    8479
CTETRA      7201       1   17666   16062     228     407   16374   10154+
+           2118    5555   10157    3001
CTETRA      7202       1   15731     409     668     880    3027    6623+
+           4879    6619   10159    8436
CTETRA      7203       1   17595     409   15731     880    3025    3027+
+          15829    6618   10159    6619
CTETRA      7204       1   17594   17595   16020     409   17617   16220+
+          16223    4894    3025   10160
CTETRA      7205       1   17594   16020   16001     409   16223   16233+
+          16219    4894   10160   10161
CTETRA      7206       1   16001   16020     668     409   16233    4884+
+           4883   10161   10160    6623
CTETRA      7207       1   16020     668     409     880    4884    6623+
+          10160   10162    8436   10159
CTETRA      7208       1   16018     668   16020     880    6289    4884+
+          16221   10163    8436   10162
CTETRA      7209       1   17595   16018   16020     880   16222   16221+
+          16220    6618   10163   10162
CTETRA      7210       1   17595   16020     409     880   16220   10160+
+           3025    6618   10162   10159
CTETRA      7211       1   17048   11895   11894     411   12012   12014+
+          12017    3857   10164   10165
CTETRA      7212       1   17814     411   17048     530    3856    3857+
+          11757    3858   10166    3859
CTETRA      7213       1   17814      54     411     530    4325    3036+
+           3856    3858    5957   10166
CTETRA      7214       1   11894     410      54     411    3064    3029+
+           1555   10165    3037    3036
CTETRA      7215       1   11894   11895     410     411   12014    4778+
+           3064   10165   10164    3037
CTETRA      7216       1   16069   16070     403     412   16410    6273+
+           6272   10167   10168    9236
CTETRA      7217       1   16070     269     403     412    9768    7060+
+           6273   10168    9766    9236
CTETRA      7218       1   17590     269   16070     412    2268    9768+
+          16400    6608    9766   10168
CTETRA      7219       1   17589   17590   16070     412   17612   16400+
+          16408    3039    6608   10168
CTETRA      7220       1   17589   16070   16069     412   16408   16410+
+          16409    3039   10168   10167
CTETRA      7221       1   16069     412     403     413   10167    9236+
+           6272   10169    3042    8415
CTETRA      7222       1   17589     412   16069     413    3039   10167+
+          16409    3040    3042   10169
CTETRA      7223       1   17589   15738     413     562   15818    7394+
+           3040    7648    4102   10170
CTETRA      7224       1   15738      91     413     562    1541    7395+
+           7394    4102    9458   10170
CTETRA      7225       1   16069     403      91     413    6272    8319+
+          10171   10169    8415    7395
CTETRA      7226       1   13409     416     442     494    3633    3635+
+           3575    3577   10172    3578
CTETRA      7227       1   17446   17929   13409     416   17451   13545+
+          13544    6595    3051    3633
CTETRA      7228       1   17929   15249   15297     416   15667   15668+
+          15665    3051    6596   10173
CTETRA      7229       1   15249     442   15297     416    3223    3623+
+          15668    6596    3635   10173
CTETRA      7230       1   15297     416     442     414   10173    3635+
+           3623    3046    3054    3636
CTETRA      7231       1   17929     416   15297     414    3051   10173+
+          15665    3052    3054    3046
CTETRA      7232       1   17929   17520   15853     414   17556   15883+
+          15884    3052    3045    6333
CTETRA      7233       1   15297     414     442     415    3046    3636+
+           3623    3049    3048    8759
CTETRA      7234       1   11687     417      54    1074    3062    3061+
+           3059    7940   10174    8973
CTETRA      7235       1   17941     417   11687    1074    8656    3062+
+          11734    7939   10174    7940
CTETRA      7236       1   17941   13692   13654     417   14259   14260+
+          14125    8656   10175   10176
CTETRA      7237       1   13654   13692      54     417   14260    5516+
+           7326   10176   10175    3061
CTETRA      7238       1   13692      53      43    1074    9364    1390+
+           5517   10177    8275    8946
CTETRA      7239       1   17841      53   13692    1074    7209    9364+
+          14257    7941    8275   10177
CTETRA      7240       1   17941   17841   13692    1074   17842   14257+
+          14259    7939    7941   10177
CTETRA      7241       1   17941   13692     417    1074   14259   10175+
+           8656    7939   10177   10174
CTETRA      7242       1   13692      54     417    1074    5516    3061+
+          10175   10177    8973   10174
CTETRA      7243       1   13692      43      54    1074    5517    1396+
+           5516   10177    8946    8973
CTETRA      7244       1   14645     174     171     418    9559    4389+
+           1864   10178    9558    3075
CTETRA      7245       1   14645     173     174     418    8088    1872+
+           9559   10178    3068    9558
CTETRA      7246       1   14645     376     173     418    8094    3021+
+           8088   10178    3069    3068
CTETRA      7247       1   14645     171     376     418    1864    3015+
+           8094   10178    3075    3069
CTETRA      7248       1   15039     162     419     625    3211    3074+
+           4514    4511    4513   10179
CTETRA      7249       1   17210     162   12125     419    3071    4703+
+          12354    3072    3074   10180
CTETRA      7250       1   17210   12125   17211     419   12354   12356+
+          17217    3072   10180    4402
CTETRA      7251       1   17211   15039     419     625   15084    4514+
+           4402    8841    4511   10179
CTETRA      7252       1   14707     173     408     420    8083    3020+
+           6974   10181    3082    6411
CTETRA      7253       1   13741     420     173     421    3080    3082+
+           2710    3083   10182    3084
CTETRA      7254       1   13741     459     420     421    6966    6410+
+           3080    3083    8820   10182
CTETRA      7255       1   14707     408     459     420    6974    6409+
+           6832   10181    6411    6410
CTETRA      7256       1   14707     469     361     421    6833    7075+
+          10001   10183    8819    3085
CTETRA      7257       1   14707     459     469     421    6832    3394+
+           6833   10183    8820    8819
CTETRA      7258       1   14707     420     459     421   10181    6410+
+           6832   10183   10182    8820
CTETRA      7259       1   14707     173     420     421    8083    3082+
+          10181   10183    3084   10182
CTETRA      7260       1   14707     361     173     421   10001    2713+
+           8083   10183    3085    3084
CTETRA      7261       1   13636   13637     422     626   14077    7812+
+           3092    4515    9105   10184
CTETRA      7262       1   13637     422     554     740    7812   10185+
+           9079    5480    7813    9078
CTETRA      7263       1   17434     422   14728     554    3087    3089+
+          15023    3998   10185    3999
CTETRA      7264       1   17434   15049     151     422   15151    9539+
+           3997    3087   10186    9540
CTETRA      7265       1   15049     150     151     422    9536    1774+
+           9539   10186    3091    9540
CTETRA      7266       1   13636     422     150     626    3092    3091+
+           3090    4515   10184    4516
CTETRA      7267       1   17435   15053   15049     554   15166   15165+
+          15152    4000    9158   10187
CTETRA      7268       1   17434   17435   15049     554   17440   15152+
+          15151    3998    4000   10187
CTETRA      7269       1   17434   15049     422     554   15151   10186+
+           3087    3998   10187   10185
CTETRA      7270       1   13637     554     422    1102    9079   10185+
+           7812    8155   10188   10189
CTETRA      7271       1   13637    1104     554    1102    8164    9080+
+           9079    8155    9082   10188
CTETRA      7272       1   15049     150     422     626    9536    3091+
+          10186   10190    4516   10184
CTETRA      7273       1   15049   15051     150     626   15150    1776+
+           9536   10190   10191    4516
CTETRA      7274       1   17406   15051   15049     626   15147   15150+
+          15149    9104   10191   10190
CTETRA      7275       1   17406   13637     626    1102   14075    9105+
+           9104    8153    8155   10192
CTETRA      7276       1   13637     422     626    1102    7812   10184+
+           9105    8155   10189   10192
CTETRA      7277       1   14729     422     150     423    3088    3091+
+           1874   10193    3095    3094
CTETRA      7278       1   13637     423     422    1053    3995    3095+
+           7812    7814   10194    7815
CTETRA      7279       1   13637   13640     423     736   14095    3152+
+           3995    5450    5452   10195
CTETRA      7280       1   13640     393     423     736    3151    3150+
+           3152    5452    8284   10195
CTETRA      7281       1   14729     150     393     423    1874    2914+
+           2913   10193    3094    3150
CTETRA      7282       1   17894   13563   13589     425   13807   13898+
+          13901    8581   10196   10197
CTETRA      7283       1   17894   16610     425     519   16662    8582+
+           8581    7933    3783   10198
CTETRA      7284       1   16610     122     425     519    3782    3113+
+           8582    3783    3785   10198
CTETRA      7285       1   13589     121     122     425    3109    1665+
+           3108   10197    3114    3113
CTETRA      7286       1   13563     121   13589     425    6764    3109+
+          13898   10196    3114   10197
CTETRA      7287       1   14667     426     283     427    4006    3117+
+           8045   10199    3121    3120
CTETRA      7288       1   13738     427     426     635    4601    3121+
+           4017    4603   10200    6609
CTETRA      7289       1   13738     481     427     635    4602    3494+
+           4601    4603    4605   10200
CTETRA      7290       1   14667     168     481     427    3503    3492+
+           3502   10199    3495    3494
CTETRA      7291       1   14667     283     168     427    8045    3920+
+           3503   10199    3120    3495
CTETRA      7292       1   14729     423     393     736   10193    3150+
+           2913   10201   10195    8284
CTETRA      7293       1   13637     736     423    1053    5450   10195+
+           3995    7814   10202   10194
CTETRA      7294       1   13637     465     736    1053    5449    5451+
+           5450    7814    9132   10202
CTETRA      7295       1   14729     393     465     736    2913    4169+
+           5459   10201    8284    5451
CTETRA      7296       1   13384     155   13394     432    9555    4039+
+          13468    9214    3169   10203
CTETRA      7297       1   13384     431     155     432    9177    3166+
+           9555    9214    3170    3169
CTETRA      7298       1   12149     432     431    1232    8076    3170+
+           3473   10204   10205   10206
CTETRA      7299       1   17091   17913   12149     432   17099   12600+
+          12438    9213    8684    8076
CTETRA      7300       1   17913   13384   13394     432   13470   13468+
+          13469    8684    9214   10203
CTETRA      7301       1   17224   12905     433     928   13134    3183+
+           8718    8769    6979   10207
CTETRA      7302       1   12905     431     433     928    3182    3172+
+           3183    6979    6984   10207
CTETRA      7303       1   13384     431   13386     433    9177    4579+
+          13414   10208    3172   10209
CTETRA      7304       1   17224   13384   13386     433   13410   13414+
+          13412    8718   10208   10209
CTETRA      7305       1   17224   13384     433     434   13410   10208+
+           8718    7765   10210    3175
CTETRA      7306       1   13384     431     433     434    9177    3172+
+          10208   10210    3176    3175
CTETRA      7307       1   17287     434     431     929    5916    3176+
+           3190    6985   10211    6986
CTETRA      7308       1   17922     434   17287     929    5915    5916+
+          17293    7342   10211    6985
CTETRA      7309       1   17224   17922   13384     434   17230   13411+
+          13410    7765    5915   10210
CTETRA      7310       1   13386     431     503     928    4579    4055+
+           4578   10212    6984    6983
CTETRA      7311       1   13386     433     431     928   10209    3172+
+           4579   10212   10207    6984
CTETRA      7312       1   17224     433   13386     928    8718   10209+
+          13412    8769   10207   10212
CTETRA      7313       1   17224   13386   17225     928   13412   13413+
+          17231    8769   10212    7624
CTETRA      7314       1   17225   12907     928     964   13138    6980+
+           7624    7774    7216   10213
CTETRA      7315       1   12907     502     928     964    6977    6981+
+           6980    7216    7215   10213
CTETRA      7316       1   13386     503     502     928    4578    3641+
+           8713   10212    6983    6981
CTETRA      7317       1   17151   17152      62     435   17158    5511+
+           1423   10214   10215    3206
CTETRA      7318       1   17152     156      62     435    6741    4331+
+           5511   10215    3188    3206
CTETRA      7319       1   17152     254     156     435    4477    3185+
+           6741   10215    3189    3188
CTETRA      7320       1   17152     198     254     435    4478    2207+
+           4477   10215    6213    3189
CTETRA      7321       1   17151     198   17152     435    5172    4478+
+          17158   10214    6213   10215
CTETRA      7322       1   17151     435      62     438   10214    3206+
+           1423   10216    3209    3208
CTETRA      7323       1   17151     198     435     438    5172    6213+
+          10214   10216    6743    3209
CTETRA      7324       1   17151     202     198     438    9631    1990+
+           5172   10216    9632    6743
CTETRA      7325       1   17151      62     202     438    1423    5647+
+           9631   10216    3208    9632
CTETRA      7326       1   12123     162     436     439    3259    3196+
+           3261   10217    3214    3213
CTETRA      7327       1   12123   12125     162     439   12357    4703+
+           3259   10217   10218    3214
CTETRA      7328       1   17211   12125   12123     439   12356   12357+
+          12353    8840   10218   10217
CTETRA      7329       1   17211   12123   17212     439   12353   12352+
+          17216    8840   10217    3570
CTETRA      7330       1   17212   12123   12124     439   12352   12351+
+          12350    3570   10217   10219
CTETRA      7331       1   12123     558   12124     439    4641    4058+
+          12351   10217    6362   10219
CTETRA      7332       1   12123     436     558     439    3261    4638+
+           4641   10217    3213    6362
CTETRA      7333       1   11782     310     440    1199    3649    3216+
+           9074    9011    9176   10220
CTETRA      7334       1   13625   13630     310     440   14047    3771+
+           3770   10221   10222    3216
CTETRA      7335       1   17860   13630   13625     440   14046   14047+
+          14041    6151   10222   10221
CTETRA      7336       1   17860   11782     440    1199   11830    9074+
+           6151    9012    9011   10220
CTETRA      7337       1   13630     310     440     441    3771    3216+
+          10222   10223    3220    3219
CTETRA      7338       1   13630     309     310     441    5253    2461+
+           3771   10223    7272    3220
CTETRA      7339       1   11784     441     309     745    8882    7272+
+           6327    5520   10224    9117
CTETRA      7340       1   17859     441   11784     745    8881    8882+
+          11833    5519   10224    5520
CTETRA      7341       1   17859   13630   17860     441   14045   14046+
+          17862    8881   10223    6152
CTETRA      7342       1   17860   13630     440     441   14046   10222+
+           6151    6152   10223    3219
CTETRA      7343       1   12160     574     104     445    7465    4305+
+           6136   10225    7503    3239
CTETRA      7344       1   17173     574   12160     445    6165    7465+
+          12471    5187    7503   10225
CTETRA      7345       1   17173   12160   17174     445   12471   12472+
+          17195    5187   10225    3238
CTETRA      7346       1   17174   12160     104     445   12472    6136+
+           2601    3238   10225    3239
CTETRA      7347       1   11608     449     451     448   10226    3275+
+           9957   10227    3277    3276
CTETRA      7348       1   11895     448     449    1016   10228    3277+
+           9988    7556   10229   10230
CTETRA      7349       1   11686     660     448     655    4783   10231+
+           3267    4761    5968   10232
CTETRA      7350       1   11686   11695     448     660   11727    3268+
+           3267    4783    4785   10231
CTETRA      7351       1   11694     448   11695     797    5278    3268+
+          11725    8838   10233    5985
CTETRA      7352       1   11694     713     448    1007    5276    5279+
+           5278    9982    9981   10234
CTETRA      7353       1   11608     451     713     448    9957    9958+
+           9979   10227    3276    5279
CTETRA      7354       1   11895     410     660    1016    4778    4784+
+          10235    7556    8978   10236
CTETRA      7355       1   11695     660     410     797    4785    4784+
+           4782    5985   10237    8003
CTETRA      7356       1   11695     448     660     797    3268   10231+
+           4785    5985   10233   10237
CTETRA      7357       1   11895     660     448    1016   10235   10231+
+          10228    7556   10236   10229
CTETRA      7358       1   13653     797     410     962   10238    8003+
+           7211    7203   10239    8903
CTETRA      7359       1   13653   13656     797    1076   14123   10240+
+          10238    7952    7949   10241
CTETRA      7360       1   11694    1007     797     794    9982   10242+
+           8838    5975    9179   10243
CTETRA      7361       1   11694     448     797    1007    5278   10233+
+           8838    9982   10234   10242
CTETRA      7362       1   11608     660     448     797   10244   10231+
+          10227   10245   10237   10233
CTETRA      7363       1   11608     410     660     797   10246    4784+
+          10244   10245    8003   10237
CTETRA      7364       1   11895     449     448     450    9988    3277+
+          10228   10247    3273    4776
CTETRA      7365       1   17049     449   11895     450    3270    9988+
+          12011    3271    3273   10247
CTETRA      7366       1   17049   11686     450     655   11759    4775+
+           3271    8980    4761   10248
CTETRA      7367       1   11686     448     450     655    3267    4776+
+           4775    4761   10232   10248
CTETRA      7368       1   11608     451     449     656    9957    3275+
+          10226   10249    9037    9987
CTETRA      7369       1   17025     451   11608     656    7907    9957+
+          11666    4762    9037   10249
CTETRA      7370       1   17025   11895     656    1016   12009    4763+
+           4762    7953    7556   10250
CTETRA      7371       1   11895     449     656    1016    9988    9987+
+           4763    7556   10230   10250
CTETRA      7372       1   13560      40     452     453    6762    6763+
+           6263   10251    6819    3284
CTETRA      7373       1   13560      39      40     453    9307    1346+
+           6762   10251    9309    6819
CTETRA      7374       1   13560     298      39     453    6063    6639+
+           9307   10251    6640    9309
CTETRA      7375       1   13560     214     298     453    7298    2417+
+           6063   10251    3283    6640
CTETRA      7376       1   13560     452     214     453    6263    3280+
+           7298   10251    3284    3283
CTETRA      7377       1   16704   16713     121     456   16801    1661+
+           1679   10252   10253    3302
CTETRA      7378       1   17731   16713   16704     456   16809   16801+
+          16785    6264   10253   10252
CTETRA      7379       1   17730   17731   16704     456   17741   16785+
+          16784    5307    6264   10252
CTETRA      7380       1   17730   16603     456     809   16682    5308+
+           5307    6051    6053   10254
CTETRA      7381       1   16603     121     456     809    3140    3302+
+           5308    6053    8626   10254
CTETRA      7382       1   16713     121     456     457    1661    3302+
+          10253   10255    3306    3305
CTETRA      7383       1   16713     122     121     457    1666    1665+
+           1661   10255    7130    3306
CTETRA      7384       1   16713      81     122     457    9449    8628+
+           1666   10255    9450    7130
CTETRA      7385       1   17731      81   16713     457    7132    9449+
+          16809    6918    9450   10255
CTETRA      7386       1   17731   16713     456     457   16809   10253+
+           6264    6918   10255    3305
CTETRA      7387       1   16086     300     308     458    2453    2457+
+           2456   10256    8512    3320
CTETRA      7388       1   15867     458     300    1194    8267    8512+
+           2430    8962   10257    9044
CTETRA      7389       1   17669     458   15867    1194    8266    8267+
+          15956    9238   10257    8962
CTETRA      7390       1   17668   17669   16086     458   17689   16469+
+          16468    3319    8266   10256
CTETRA      7391       1   17668   16086     308     458   16468    2456+
+           3318    3319   10256    3320
CTETRA      7392       1   17352     380   13403     462    3344   10045+
+          13505    7599    3338   10258
CTETRA      7393       1   17352   13403   13401     462   13505   13507+
+          13497    7599   10258    8588
CTETRA      7394       1   13401   13403     708     462   13507    9848+
+           9841    8588   10258    6266
CTETRA      7395       1   16507     462     708     707    5243    6266+
+           5249    5247   10259    5248
CTETRA      7396       1   16507   16517     462     704   16539    3337+
+           5243    5225    5227   10260
CTETRA      7397       1   16517     380     462     704    3335    3338+
+           3337    5227   10047   10260
CTETRA      7398       1   13403      84     704     369    4569    5256+
+          10261    2792    4570   10262
CTETRA      7399       1   13403     704     380     369   10261   10047+
+          10045    2792   10262   10046
CTETRA      7400       1   13403     462     380     704   10258    3338+
+          10045   10261   10260   10047
CTETRA      7401       1   16507     704     462     707    5225   10260+
+           5243    5247   10263   10259
CTETRA      7402       1   16507   16508     704     621   16541    5226+
+           5225    8600    4474   10264
CTETRA      7403       1   16508      84     704     621    4473    5256+
+           5226    4474    4476   10264
CTETRA      7404       1   13706     704      84     369   10265    5256+
+           3717   10266   10262    4570
CTETRA      7405       1   13706     380     704     369   10044   10047+
+          10265   10266   10046   10262
CTETRA      7406       1   17352     380   13706     369    3344   10044+
+          14334    2790   10046   10266
CTETRA      7407       1   17352   13706   17353     369   14334   14335+
+          17381    2790   10266    2791
CTETRA      7408       1   17353   13706      84     369   14335    3717+
+           1506    2791   10266    4570
CTETRA      7409       1   13706      84     704     772    3717    5256+
+          10265   10267    5815    8901
CTETRA      7410       1   13706   13758      84     772   14486    6460+
+           3717   10267   10268    5815
CTETRA      7411       1   17874   13758   13706     772   14490   14486+
+          14337    7598   10268   10267
CTETRA      7412       1   17874   13706     380     772   14337   10044+
+           6529    7598   10267   10048
CTETRA      7413       1   13706     704     380     772   10265   10047+
+          10044   10267    8901   10048
CTETRA      7414       1   13579   13580     340     468   13874    9932+
+           9934   10269   10270    6075
CTETRA      7415       1   13579      66   13580     468    2324    4957+
+          13874   10269    5212   10270
CTETRA      7416       1   13579     186      66     468    4931    3520+
+           2324   10269    3382    5212
CTETRA      7417       1   13579     184     186     468    6365    1927+
+           4931   10269    3383    3382
CTETRA      7418       1   13579     340     184     468    9934    4191+
+           6365   10269    6075    3383
CTETRA      7419       1   17578   16015     130     473   16215    3430+
+           3429    4611   10271    4612
CTETRA      7420       1   16015     247     130     473    2183    3824+
+           3430   10271    3424    4612
CTETRA      7421       1   17579     247   16015     473    2181    2183+
+          16214    3422    3424   10271
CTETRA      7422       1   17578   17579   16015     473   17583   16214+
+          16215    4611    3422   10271
CTETRA      7423       1   13400     476     482    1005    3450    8808+
+           9263    7482   10272    9267
CTETRA      7424       1   17356     476   13400    1005    3448    3450+
+          13492    7481   10272    7482
CTETRA      7425       1   17356   13759   17357     476   14498   14496+
+          17377    3448   10273    7792
CTETRA      7426       1   17357   13759   13715     476   14496   14497+
+          14421    7792   10273   10274
CTETRA      7427       1   13715   13759     482     476   14497    8073+
+           8015   10274   10273    8808
CTETRA      7428       1   13759   13760     482    1005   14499    6206+
+           8073   10275   10276    9267
CTETRA      7429       1   17356   13760   13759    1005   14495   14499+
+          14498    7481   10276   10275
CTETRA      7430       1   17356   13759     476    1005   14498   10273+
+           3448    7481   10275   10272
CTETRA      7431       1   13759     482     476    1005    8073    8808+
+          10273   10275    9267   10272
CTETRA      7432       1   11878       9       8     966    3481    1245+
+           8075   10277    9276    7687
CTETRA      7433       1   11878       7       9     966    3480    1244+
+           3481   10277    7749    9276
CTETRA      7434       1   11878      50       7     966    7756    3598+
+           3480   10277    7750    7749
CTETRA      7435       1   11679     966      50     938    7231    7750+
+           1378    7031   10278    7032
CTETRA      7436       1   17054     966   11679     938    7229    7231+
+          11771    8017   10278    7031
CTETRA      7437       1   17054   11878       8     966   11953    8075+
+           1942    7229   10277    7687
CTETRA      7438       1   12731     127     483     527    3807    8059+
+           3489    3810    3809   10279
CTETRA      7439       1   12968     128     127     483    9521    1683+
+           8409   10280    3819    8059
CTETRA      7440       1   17319     128   12968     483    3818    9521+
+          13358    3488    3819   10280
CTETRA      7441       1   17319   12731     483     527   12756    3489+
+           3488    8333    3810   10279
CTETRA      7442       1   12968     483     127     527   10280    8059+
+           8409   10281   10279    3809
CTETRA      7443       1   17319     483   12968     527    3488   10280+
+          13358    8333   10279   10281
CTETRA      7444       1   17318   17319   12968     527   17323   13358+
+          13360    3808    8333   10281
CTETRA      7445       1   17318   12968     127     527   13360    8409+
+           3806    3808   10281    3809
CTETRA      7446       1   13551     186     222     487    8087    4926+
+           9673   10282    3527    4927
CTETRA      7447       1   13551      67     186     487    1444    3524+
+           8087   10282    3528    3527
CTETRA      7448       1   13551      68      67     487    1443    1442+
+           1444   10282    3545    3528
CTETRA      7449       1   13551     176      68     487    6367    1886+
+           1443   10282    3546    3545
CTETRA      7450       1   13551     222     176     487    9673    7432+
+           6367   10282    4927    3546
CTETRA      7451       1   11871     567     394    1069   10109    9967+
+           9964   10283    7901    9970
CTETRA      7452       1   17909     567   11871    1069    6492   10109+
+          11922    7899    7901   10283
CTETRA      7453       1   17044   17909   11871    1069   17046   11922+
+          11921    7906    7899   10283
CTETRA      7454       1   17044   11871     391    1069   11921   10090+
+           4433    7906   10283   10081
CTETRA      7455       1   11871     986     391    1069   10083   10080+
+          10090   10283   10085   10081
CTETRA      7456       1   11871     394     986    1069    9964    7463+
+          10083   10283    9970   10085
CTETRA      7457       1   13393     488     571     572   10284    4159+
+          10101    4162   10285   10102
CTETRA      7458       1   13393     262     571     488    9721    9725+
+          10101   10284    9724    4159
CTETRA      7459       1   11681     488     262     941    3533    9724+
+           3539    7046   10286    9723
CTETRA      7460       1   11681     488     941     974    3533   10286+
+           7046    7274   10287    8895
CTETRA      7461       1   11904     488     571     489   10288    4159+
+          10289   10290    3536    4160
CTETRA      7462       1   11681     489     488     974    3534    3536+
+           3533    7274   10291   10287
CTETRA      7463       1   17052     489   11681     974    7360    3534+
+          11767    7273   10291    7274
CTETRA      7464       1   17052   11904     910     489   12068   10088+
+           7349    7360   10290    6858
CTETRA      7465       1   17044     910   11904     489    6857   10088+
+          12066    6859    6858   10290
CTETRA      7466       1   11904     489     571     615   10290    4160+
+          10289   10292    7359    7358
CTETRA      7467       1   13393   13395     941     975   13460   10293+
+          10294    7282    7281   10295
CTETRA      7468       1   13393     941     572     975   10294   10296+
+           4162    7282   10295    9216
CTETRA      7469       1   13393     941     488     572   10294   10286+
+          10284    4162   10296   10285
CTETRA      7470       1   13393     262     488     941    9721    9724+
+          10284   10294    9723   10286
CTETRA      7471       1   13393   13395     262     941   13460    9722+
+           9721   10294   10293    9723
CTETRA      7472       1   11870   11904     941     572   12067   10297+
+          10298   10299    9218   10296
CTETRA      7473       1   11904     488     941     572   10288   10286+
+          10297    9218   10285   10296
CTETRA      7474       1   11904     571     488     572   10289    4159+
+          10288    9218   10102   10285
CTETRA      7475       1   13391     572     571     615    4163   10102+
+          10098   10099   10300    7358
CTETRA      7476       1   17043   13391   17044     572   13452   13447+
+          17047    4161    4163    9217
CTETRA      7477       1   17043   11904   11870     572   12065   12067+
+          11917    4161    9218   10299
CTETRA      7478       1   11870     941   11904     974   10298   10297+
+          12067   10301    8895   10302
CTETRA      7479       1   17052   11870   11904     974   12063   12067+
+          12068    7273   10301   10302
CTETRA      7480       1   17052   11904     489     974   12068   10290+
+           7360    7273   10302   10291
CTETRA      7481       1   11904     488     489     974   10288    3536+
+          10290   10302   10287   10291
CTETRA      7482       1   11904     941     488     974   10297   10286+
+          10288   10302    8895   10287
CTETRA      7483       1   11692     522    1013     569    3794    7541+
+           7539    4138    4140   10303
CTETRA      7484       1   13391    1013     261     570   10304    9730+
+           9727    4157   10305    9732
CTETRA      7485       1   13391     571     261    1013   10098    9728+
+           9727   10304   10100    9730
CTETRA      7486       1   13391     392     571    1013   10091   10096+
+          10098   10304   10095   10100
CTETRA      7487       1   11692    1013     392     569    7539   10095+
+           4620    4138   10303   10094
CTETRA      7488       1   13719       7   13722     490    1796    7016+
+          14356   10306    3580   10307
CTETRA      7489       1   17363   13719   13722     490   14353   14356+
+          14354    3560   10306   10307
CTETRA      7490       1   17363   13395     490    1089   13461    6976+
+           3560    9198    8080   10308
CTETRA      7491       1   13395       7     490    1089    8079    3580+
+           6976    8080    8082   10308
CTETRA      7492       1   13719       7     490     491    1796    3580+
+          10306   10309    3582    3563
CTETRA      7493       1   13719     155       7     491    1793    1797+
+           1796   10309    4041    3582
CTETRA      7494       1   13719     163     155     491    3602    1839+
+           1793   10309    4042    4041
CTETRA      7495       1   13390     491     163     996    7760    4042+
+           5082    7406   10310    7407
CTETRA      7496       1   17362     491   13390     996    8809    7760+
+          13439    7430   10310    7406
CTETRA      7497       1   17362   13719   17363     491   14341   14353+
+          17373    8809   10309    3562
CTETRA      7498       1   17363   13719     490     491   14353   10306+
+           3560    3562   10309    3563
CTETRA      7499       1   15210     492     118     726    5792    3569+
+           7125    5371   10311    8235
CTETRA      7500       1   15210   15213     492     972   15362    3566+
+           5792    7258    7260   10312
CTETRA      7501       1   15213     120     492     972    2758    3567+
+           3566    7260    8230   10312
CTETRA      7502       1   16054     118     120     492    2751    1648+
+           6951   10313    3569    3567
CTETRA      7503       1   15210     538     972     726    5370    7259+
+           7258    5371    5373   10314
CTETRA      7504       1   16054     120     538     972    6951    3907+
+           4855   10315    8230    7259
CTETRA      7505       1   16054     492     120     972   10313    3567+
+           6951   10315   10312    8230
CTETRA      7506       1   15210     972     492     726    7258   10312+
+           5792    5371   10314   10311
CTETRA      7507       1   12124     439     558     493   10219    6362+
+           4058   10316    3573    6101
CTETRA      7508       1   17212     439   12124     493    3570   10219+
+          12350    3571    3573   10316
CTETRA      7509       1   17212   15037     493     814   15085    6100+
+           3571    7719    7718   10317
CTETRA      7510       1   15037     558     493     814    6098    6101+
+           6100    7718    6103   10317
CTETRA      7511       1   17932     442   16019     249    6331    4751+
+          16213    2191    3576   10318
CTETRA      7512       1   17579   17932   16019     249   17584   16213+
+          16212    2189    2191   10318
CTETRA      7513       1   17579   16019     247     249   16212    2182+
+           2181    2189   10318    4772
CTETRA      7514       1   16019     442     247     249    4751    3413+
+           2182   10318    3576    4772
CTETRA      7515       1   13407     130     496    1176    3846    3589+
+           5073    8768    9090   10319
CTETRA      7516       1   17578     130   16027     496    3429    2680+
+          16256    3587    3589   10320
CTETRA      7517       1   17577   17578   16027     496   17582   16256+
+          16258    3607    3587   10320
CTETRA      7518       1   17577   13407     496    1176   13525    5073+
+           3607    8766    8768   10319
CTETRA      7519       1   13394     432     155     497   10203    3169+
+           4039   10321    4038    3593
CTETRA      7520       1   17913     432   13394     497    8684   10203+
+          13469    9209    4038   10321
CTETRA      7521       1   17913   13394   13395     497   13469   13463+
+          13467    9209   10321   10322
CTETRA      7522       1   13394       7   13395     497    3581    8079+
+          13463   10321    3592   10322
CTETRA      7523       1   13394     155       7     497    4039    1797+
+           3581   10321    3593    3592
CTETRA      7524       1   17461   15732     500     622   15779    5301+
+           5739    4494    4496   10323
CTETRA      7525       1   15732     616     500     622    4861    4439+
+           5301    4496    5289   10323
CTETRA      7526       1   15308     616   15309     500    4858    4857+
+          15712   10324    4439   10325
CTETRA      7527       1   17460   15308   15309     500   15716   15712+
+          15717    3628   10324   10325
CTETRA      7528       1   17460   15309   17461     500   15717   15719+
+          17494    3628   10325    5739
CTETRA      7529       1   15308     616     500     501    4858    4439+
+          10324   10326    4441    3631
CTETRA      7530       1   15734     501     616     721    4454    4441+
+           4453    5341   10327    6077
CTETRA      7531       1   17460     501   15734     721    3630    4454+
+          15783    8353   10327    5341
CTETRA      7532       1   17460   15308     500     501   15716   10324+
+           3628    3630   10326    3631
CTETRA      7533       1   17818     505   11782    1165    8576    3652+
+          11828    8668   10328    8669
CTETRA      7534       1   17818      57     505     889    1403    8577+
+           8576    6676    6680   10329
CTETRA      7535       1   15054      57   15056     505    9377    9376+
+          15178   10330    8577   10331
CTETRA      7536       1   15054     505   15056     677   10330   10331+
+          15178    9248   10332    4994
CTETRA      7537       1   15056     505     310     677   10331    3651+
+           4991    4994   10332    4995
CTETRA      7538       1   11782     505     310    1165    3652    3651+
+           3649    8669   10328    9174
CTETRA      7539       1   15056     310     505    1165    4991    3651+
+          10331   10333    9174   10328
CTETRA      7540       1   15056     854    1165    1233    6377   10334+
+          10333   10335   10336   10337
CTETRA      7541       1   17818    1165     826     889    8668    8670+
+           6148    6676   10338    6677
CTETRA      7542       1   17818     505    1165     889    8576   10328+
+           8668    6676   10329   10338
CTETRA      7543       1   15988     334     328     506    9917    9898+
+           9916   10339    6094    9899
CTETRA      7544       1   15256     506     334     673    3656    6094+
+           6093    4940   10340    9920
CTETRA      7545       1   15256     144     506     673    1947    3657+
+           3656    4940    4939   10340
CTETRA      7546       1   15988     188     144     506    9665    1935+
+           1926   10339    9586    3657
CTETRA      7547       1   15988     328     188     506    9916    9587+
+           9665   10339    9899    9586
CTETRA      7548       1   15988     334     506     673    9917    6094+
+          10339   10341    9920   10340
CTETRA      7549       1   15988   15993     334     673   16125    9918+
+           9917   10341   10342    9920
CTETRA      7550       1   15988   15989   15993     673   16100   16130+
+          16125   10341   10343   10342
CTETRA      7551       1   15988     144   15989     673    1926    1936+
+          16100   10341    4939   10343
CTETRA      7552       1   15988     506     144     673   10339    3657+
+           1926   10341   10340    4939
CTETRA      7553       1   15032     119      23     508    3676    3672+
+          10344   10345    3675    3674
CTETRA      7554       1   15032     119     508     548    3676    3675+
+          10345    3969    3971   10346
CTETRA      7555       1   17936   15032     508     548   15141   10345+
+           8915    9018    3969   10346
CTETRA      7556       1   17936   15032   15047     508   15141   15139+
+          15140    8915   10345   10347
CTETRA      7557       1   15032      23   15047     508   10344    8447+
+          15139   10345    3674   10347
CTETRA      7558       1   12184   12185     509     511   12572    4902+
+           3693   10348   10349    3690
CTETRA      7559       1   12185     510     509     511    4904    3687+
+           4902   10349    3691    3690
CTETRA      7560       1   17170     510   12185     511    5312    4904+
+          12580    6195    3691   10349
CTETRA      7561       1   17170   12185   12184     511   12580   12572+
+          12579    6195   10349   10348
CTETRA      7562       1   13403      84     514    1055    4569    3719+
+           6058    7824    9470   10350
CTETRA      7563       1   17639      84   16696     514    3718    8741+
+          16747    3720    3719   10351
CTETRA      7564       1   17934   17639   16696     514   17645   16747+
+          16746    7117    3720   10351
CTETRA      7565       1   17934   13403     514    1055   13519    6058+
+           7117    8818    7824   10350
CTETRA      7566       1   13404      84      13     515    1505    1619+
+           5809   10352    3722    6060
CTETRA      7567       1   13404     514      84     515    6059    3719+
+           1505   10352    3723    3722
CTETRA      7568       1   17934     514   13404     515    7117    6059+
+          13520    7118    3723   10352
CTETRA      7569       1   17934   13404      13     515   13520    5809+
+           8871    7118   10352    6060
CTETRA      7570       1   13758     289      84     516    9819    2369+
+           6460   10353    3732    3731
CTETRA      7571       1   17873     289   13758     516    5677    9819+
+          14491    3733    3732   10353
CTETRA      7572       1   17873   16517     516     771   16571    3734+
+           3733    5811    5813   10354
CTETRA      7573       1   16517      84     516     771    5255    3731+
+           3734    5813    5817   10354
CTETRA      7574       1   13758      84     772     771    6460    5815+
+          10268   10355    5817    5816
CTETRA      7575       1   13758     516      84     771   10353    3731+
+           6460   10355   10354    5817
CTETRA      7576       1   17873     516   13758     771    3733   10353+
+          14491    5811   10354   10355
CTETRA      7577       1   17873   13758   17874     771   14491   14490+
+          17887    5811   10355    5812
CTETRA      7578       1   17874   13758     772     771   14490   10268+
+           7598    5812   10355    5816
CTETRA      7579       1   13577     518     122    1175   10356    3781+
+           4110    8749   10357    8750
CTETRA      7580       1   13577   13589     122     518   13900    3108+
+           4110   10356   10358    3781
CTETRA      7581       1   17893   13589   13577     518   13902   13900+
+          13903    3792   10358   10356
CTETRA      7582       1   17893   13577   13578     518   13903   13849+
+          13896    3792   10356   10359
CTETRA      7583       1   13577   13578     518    1175   13849   10359+
+          10356    8749    9067   10357
CTETRA      7584       1   13589     122     518     519    3108    3781+
+          10358   10360    3785    3784
CTETRA      7585       1   13589     425     122     519   10197    3113+
+           3108   10360   10198    3785
CTETRA      7586       1   17894     425   13589     519    8581   10197+
+          13901    7933   10198   10360
CTETRA      7587       1   17893   17894   13589     519   17903   13901+
+          13902    3793    7933   10360
CTETRA      7588       1   17893   13589     518     519   13902   10358+
+           3792    3793   10360    3784
CTETRA      7589       1   16912     520     398     943   10128    8169+
+          10132   10361    8170    7053
CTETRA      7590       1   16912     399     520     943   10143    3787+
+          10128   10361   10144    8170
CTETRA      7591       1   16912      82     399     943   10142    9452+
+          10143   10361    7596   10144
CTETRA      7592       1   16601     943      82    1054    7597    7596+
+           1496    7819   10362    7820
CTETRA      7593       1   16601   16610     943     531   16627    8648+
+           7597    8614    3861   10363
CTETRA      7594       1   16609     943   16610     531    7052    8648+
+          16625    6766   10363    3861
CTETRA      7595       1   16609     398     943    1231    7050    7053+
+           7052   10135   10134   10364
CTETRA      7596       1   16714     520     399     521   10124    3787+
+           2938   10365    3791    3790
CTETRA      7597       1   17733     520   16714     521    7934   10124+
+          16804    7935    3791   10365
CTETRA      7598       1   17732   17733   16714     521   17743   16804+
+          16805    9183    7935   10365
CTETRA      7599       1   17732   16714      82     521   16805    9451+
+           1494    9183   10365    9453
CTETRA      7600       1   16714     399      82     521    2938    9452+
+           9451   10365    3790    9453
CTETRA      7601       1   13704     523   13705     525   10366   10367+
+          14318   10368   10112   10369
CTETRA      7602       1   13391     525     523     570    3802   10112+
+          10114    4157   10370   10371
CTETRA      7603       1   17366     525   13391     570    3800    3802+
+          13443    4156   10370    4157
CTETRA      7604       1   17366   13704   13705     525   14319   14318+
+          14317    3800   10368   10369
CTETRA      7605       1   13705     525     523     568   10369   10112+
+          10367   10372    9243   10113
CTETRA      7606       1   17366     525   13705     568    3800   10369+
+          14317    7431    9243   10372
CTETRA      7607       1   17910   17366   13705     568   17370   14317+
+          14320    4127    7431   10372
CTETRA      7608       1   17910   13705     567     568   14320   10106+
+           4125    4127   10372    4128
CTETRA      7609       1   13705     523     567     568   10367    4626+
+          10106   10372   10113    4128
CTETRA      7610       1   13704   13705     523     522   14318   10367+
+          10366   10373   10374    3795
CTETRA      7611       1   17836   13705   13704     522   14322   14318+
+          14315    7283   10374   10373
CTETRA      7612       1   17836   11691     522     637   11744    7540+
+           7283    8839    4625   10375
CTETRA      7613       1   11691    1013     522     637    7538    7541+
+           7540    4625    9731   10375
CTETRA      7614       1   13391     522    1013     570   10376    7541+
+          10304    4157   10377   10305
CTETRA      7615       1   13391     523     522     570   10114    3795+
+          10376    4157   10371   10377
CTETRA      7616       1   13705     523     522     524   10367    3795+
+          10374   10378    3799    3798
CTETRA      7617       1   13705     567     523     524   10106    4626+
+          10367   10378    4628    3799
CTETRA      7618       1   13705    1229     567     524   10115   10105+
+          10106   10378    9973    4628
CTETRA      7619       1   13705    1014    1229     524    8992    9972+
+          10115   10378    7548    9973
CTETRA      7620       1   11693     524    1014    1198    7549    7548+
+           7547    8999   10379   10380
CTETRA      7621       1   17835     524   11693    1198    8425    7549+
+          11747    8998   10379    8999
CTETRA      7622       1   17835   13705   17836     524   14323   14322+
+          17848    8425   10378    7284
CTETRA      7623       1   17836   13705     522     524   14322   10374+
+           7283    7284   10378    3798
CTETRA      7624       1   13704    1013     522     570   10381    7541+
+          10373   10382   10305   10377
CTETRA      7625       1   13704     261    1013     570    8117    9730+
+          10381   10382    9732   10305
CTETRA      7626       1   17365     261   13704     570    2240    8117+
+          14371    4155    9732   10382
CTETRA      7627       1   17365   13704   17366     570   14371   14319+
+          17369    4155   10382    4156
CTETRA      7628       1   17366   13704     525     570   14319   10368+
+           3800    4156   10382   10370
CTETRA      7629       1   13704     523     525     570   10366   10112+
+          10368   10382   10371   10370
CTETRA      7630       1   13704     522     523     570   10373    3795+
+          10366   10382   10377   10371
CTETRA      7631       1   15270     495     130     529    3584    3586+
+           3583   10383    3850    3849
CTETRA      7632       1   15269     495   15270     529    7764    3584+
+          15557   10384    3850   10383
CTETRA      7633       1   17444   15269   15270     529   15555   15557+
+          15556    6158   10384   10383
CTETRA      7634       1   17444   15270     248     529   15556    9712+
+           5547    6158   10383    9713
CTETRA      7635       1   15270     130     248     529    3583    2187+
+           9712   10383    3849    9713
CTETRA      7636       1   11877   11894      54     530   12008    1555+
+           1392   10385   10386    5957
CTETRA      7637       1   11894     411      54     530   10165    3036+
+           1555   10386   10166    5957
CTETRA      7638       1   17048     411   11894     530    3857   10165+
+          12017    3859   10166   10386
CTETRA      7639       1   17914   17048   11894     530   17058   12017+
+          12016    3860    3859   10386
CTETRA      7640       1   17914   11894   11877     530   12016   12008+
+          11951    3860   10386   10385
CTETRA      7641       1   16912     122     518    1175    3875    3781+
+          10387   10388    8750   10357
CTETRA      7642       1   17763     122   16912    1175    2176    3875+
+          16942    8748    8750   10388
CTETRA      7643       1   17763   13578    1175    1025   13847    9067+
+           8748    7592    7594   10389
CTETRA      7644       1   13578     518    1175    1025   10359   10357+
+           9067    7594   10390   10389
CTETRA      7645       1   16912     518     122     531   10387    3781+
+           3875   10391    3862    7911
CTETRA      7646       1   13578     531     518    1025   10392    3862+
+          10359    7594   10393   10390
CTETRA      7647       1   16609    1025     531     904   10394   10393+
+           6766    7299    8317   10395
CTETRA      7648       1   16609     943     531    1231    7052   10363+
+           6766   10135   10364   10396
CTETRA      7649       1   16601     531     943    1054    8614   10363+
+           7597    7819   10397   10362
CTETRA      7650       1   16601     122     531    1054    7142    7911+
+           8614    7819    7821   10397
CTETRA      7651       1   17763    1175   16912    1025    8748   10388+
+          16942    7592   10389   10398
CTETRA      7652       1   17763   16912   17764    1025   16942   16946+
+          17774    7592   10398    7593
CTETRA      7653       1   17764    1025   16912     905    7593   10398+
+          16946    6770    8318    6992
CTETRA      7654       1   16609     531    1025    1231    6766   10393+
+          10394   10135   10396   10399
CTETRA      7655       1   16912     518     531    1025   10387    3862+
+          10391   10398   10390   10393
CTETRA      7656       1   16912    1175     518    1025   10388   10357+
+          10387   10398   10389   10390
CTETRA      7657       1   13578     518     531     532   10359    3862+
+          10392   10400    3865    3864
CTETRA      7658       1   17893     518   13578     532    3792   10359+
+          13896    4108    3865   10400
CTETRA      7659       1   17893   16609     532     904   16660    5046+
+           4108    8316    7299   10401
CTETRA      7660       1   16609     531     532     904    6766    3864+
+           5046    7299   10395   10401
CTETRA      7661       1   17928   15047   15032     535   15136   15139+
+          15060    8252   10402   10403
CTETRA      7662       1   15032     552     535    1224   10404   10405+
+          10403    9530   10406   10407
CTETRA      7663       1   15032     535     119    1224   10403    6542+
+           3676    9530   10407    9531
CTETRA      7664       1   15032      23     119     535   10344    3672+
+           3676   10403    3894    6542
CTETRA      7665       1   15032   15047      23     535   15139    8447+
+          10344   10403   10402    3894
CTETRA      7666       1   17928   15047     535     536   15136   10402+
+           8252    8624   10408    3896
CTETRA      7667       1   15047      23     535     536    8447    3894+
+          10402   10408    3897    3896
CTETRA      7668       1   15047      25      23     536    8448    2380+
+           8447   10408    5350    3897
CTETRA      7669       1   15043      25   15047     536    9860    8448+
+          15129   10409    5350   10408
CTETRA      7670       1   17928   15043   15047     536   15135   15129+
+          15136    8624   10409   10408
CTETRA      7671       1   17631     221     424     539    5904    3611+
+           7833   10410    8981    5838
CTETRA      7672       1   17631     298     221     539    5906    5905+
+           5904   10410    8982    8981
CTETRA      7673       1   17631     120     298     539    6637    2423+
+           5906   10410    3910    8982
CTETRA      7674       1   17631     538     120     539    5785    3907+
+           6637   10410    3911    3910
CTETRA      7675       1   17631     424     538     539    7833    5836+
+           5785   10410    5838    3911
CTETRA      7676       1   11781    1082     594      26    8241   10411+
+           8679    1302    8242   10412
CTETRA      7677       1   11781   11790     594    1065   11822    8680+
+           8679    7880    7882   10413
CTETRA      7678       1   11790     322     594    1065    3923    9885+
+           8680    7882    9928   10413
CTETRA      7679       1   11605     321     322     594    9883    2503+
+           9884   10414    9876    9885
CTETRA      7680       1   11604     321   11605     594    9882    9883+
+          11641    6228    9876   10414
CTETRA      7681       1   17015   11604   11605     594   11638   11641+
+          11640    4342    6228   10414
CTETRA      7682       1   17015   11868     594    1082   11908   10415+
+           4342    8010    8009   10411
CTETRA      7683       1   11605    1045      78    1065    9927    9164+
+          10416   10417    9924    7881
CTETRA      7684       1   11605     322    1045    1065    9884    9886+
+           9927   10417    9928    9924
CTETRA      7685       1   11605     594     322    1065   10414    9885+
+           9884   10417   10413    9928
CTETRA      7686       1   11781    1065     594    1223    7880   10413+
+           8679    9416   10418   10419
CTETRA      7687       1   11781      78    1065    1223    1479    7881+
+           7880    9416    9418   10418
CTETRA      7688       1   17523     287   15854     540    8180    9814+
+          15892    8181    8179   10420
CTETRA      7689       1   17522   17523   15854     540   17560   15892+
+          15889    3924    8181   10420
CTETRA      7690       1   17522   15305     540     560   15700    3925+
+           3924    8411    4081   10421
CTETRA      7691       1   15305     134     540     560    4080    8178+
+           3925    4081    4083   10421
CTETRA      7692       1   15854     287     134     540    9814    2355+
+           3932   10420    8179    8178
CTETRA      7693       1   15854     134     133     560    3932    1710+
+           7987   10422    4083    4082
CTETRA      7694       1   15854     540     134     560   10420    8178+
+           3932   10422   10421    4083
CTETRA      7695       1   17522     540   15854     560    3924   10420+
+          15889    8411   10421   10422
CTETRA      7696       1   17522   15854     133     560   15889    7987+
+           7989    8411   10422    4082
CTETRA      7697       1   16010   16012     134     541   16196    2665+
+           6558   10423   10424    3933
CTETRA      7698       1   15855     541     134     848    4073    3933+
+           4072    6315   10425    6911
CTETRA      7699       1   17656     541   15855     848    3928    4073+
+          15893    6314   10425    6315
CTETRA      7700       1   17656   16012   16010     541   16198   16196+
+          16189    3928   10424   10423
CTETRA      7701       1   16010     541     134     542   10423    3933+
+           6558   10426    3931    3934
CTETRA      7702       1   17656     541   16010     542    3928   10423+
+          16189    3929    3931   10426
CTETRA      7703       1   17655   17656   16010     542   17676   16189+
+          16188    8002    3929   10426
CTETRA      7704       1   17655   16010     133     542   16188    7619+
+           7618    8002   10426    7988
CTETRA      7705       1   16010     134     133     542    6558    1710+
+           7619   10426    3934    7988
CTETRA      7706       1   14661     481     517     545    3889    3892+
+           3891   10427    3944    3943
CTETRA      7707       1   14661     482     481     545    6201    3486+
+           3889   10427    6188    3944
CTETRA      7708       1   14661      15     482     545    6199    6186+
+           6201   10427    6189    6188
CTETRA      7709       1   14661     517      15     545    3891    8020+
+           6199   10427    3943    6189
CTETRA      7710       1   14680     171     170     546    6057    1859+
+           1849   10428    5126    8608
CTETRA      7711       1   13786     546     171     602    3947    5126+
+           4378    4380   10429    4381
CTETRA      7712       1   13786     169     546     602    2349    3948+
+           3947    4380    8049   10429
CTETRA      7713       1   14680     170     169     546    1849    1853+
+           1852   10428    8608    3948
CTETRA      7714       1   14680     169     281     602    1852    2350+
+           3951   10430    8049    4382
CTETRA      7715       1   14680     546     169     602   10428    3948+
+           1852   10430   10429    8049
CTETRA      7716       1   14680     171     546     602    6057    5126+
+          10428   10430    4381   10429
CTETRA      7717       1   14680     281     171     602    3951    4379+
+           6057   10430    4382    4381
CTETRA      7718       1   16908     351     547     549    5698    3957+
+           3966   10431    7689    3975
CTETRA      7719       1   17759     351   16908     549    5696    5698+
+          16963    7293    7689   10431
CTETRA      7720       1   17759   16908   17760     549   16963   16927+
+          17771    7293   10431    3974
CTETRA      7721       1   17760   16908     547     549   16927    3966+
+           3973    3974   10431    3975
CTETRA      7722       1   13670     556     472     557    6767    4048+
+           5654   10432    4053    4052
CTETRA      7723       1   13670     107     556     557    5427    4034+
+           6767   10432    4064    4053
CTETRA      7724       1   13670     455     107     557    5426    5417+
+           5427   10432    5429    4064
CTETRA      7725       1   13670     472     455     557    5654    3407+
+           5426   10432    4052    5429
CTETRA      7726       1   15851     559     133    1077    8515    4069+
+           7995   10433   10434    7976
CTETRA      7727       1   17654   15851   17655     559   15871   15872+
+          17673    7966    8515    7967
CTETRA      7728       1   17654   16002   15998     559   16147   16149+
+          16152    7966    7968   10435
CTETRA      7729       1   15998   16002     132     559   16149    6429+
+           6774   10435    7968    4068
CTETRA      7730       1   16002     133     132     559    6430    1705+
+           6429    7968    4069    4068
CTETRA      7731       1   16012     286     134     848    2666    2352+
+           2665   10436    6912    6911
CTETRA      7732       1   17657     286   16012     848    2648    2666+
+          16199    6316    6912   10436
CTETRA      7733       1   17656   17657   16012     848   17678   16199+
+          16198    6314    6316   10436
CTETRA      7734       1   17656   16012     541     848   16198   10424+
+           3928    6314   10436   10425
CTETRA      7735       1   16012     134     541     848    2665    3933+
+          10424   10436    6911   10425
CTETRA      7736       1   16069     242     561     756    4803    4100+
+          10437   10438    8755    9461
CTETRA      7737       1   15291     756     242     755    5623    8755+
+           5616    5617   10439    5618
CTETRA      7738       1   15291     403     756     755    5620    5624+
+           5623    5617    8500   10439
CTETRA      7739       1   16069      91     403     756   10171    8319+
+           6272   10438    9456    5624
CTETRA      7740       1   16069     561      91     756   10437    9457+
+          10171   10438    9461    9456
CTETRA      7741       1   16069     561     242     562   10437    4100+
+           4803   10440    4104    4103
CTETRA      7742       1   16069      91     561     562   10171    9457+
+          10437   10440    9458    4104
CTETRA      7743       1   16069     413      91     562   10169    7395+
+          10171   10440   10170    9458
CTETRA      7744       1   17589     413   16069     562    3040   10169+
+          16409    7648   10170   10440
CTETRA      7745       1   17588   17589   16069     562   17611   16409+
+          16411    7647    7648   10440
CTETRA      7746       1   17588   16069   16058     562   16411   16406+
+          16412    7647   10440   10441
CTETRA      7747       1   16058   16069     242     562   16406    4803+
+           7396   10441   10440    4103
CTETRA      7748       1   17530   15862   15861     563   15929   15934+
+          15927    9228   10442   10443
CTETRA      7749       1   15861   15862     406     563   15934    4117+
+           8469   10443   10442    4112
CTETRA      7750       1   15859     406   15862     563    4118    4117+
+          15930   10444    4112   10442
CTETRA      7751       1   17531   15859   15862     563   15932   15930+
+          15928    8198   10444   10442
CTETRA      7752       1   17530   17531   15862     563   17551   15928+
+          15929    9228    8198   10442
CTETRA      7753       1   17530     563   15861     564    9228   10443+
+          15927    9229    4116   10445
CTETRA      7754       1   17530   15861     243     564   15927    9708+
+           8780    9229   10445    9707
CTETRA      7755       1   15861     406     243     564    8469    8495+
+           9708   10445    4115    9707
CTETRA      7756       1   15861     563     406     564   10443    4112+
+           8469   10445    4116    4115
CTETRA      7757       1   17664   17665   16077     565   17682   16445+
+          16438    8786    8185   10446
CTETRA      7758       1   17664   15862     565    1142   15931    4120+
+           8786    8504    8503   10447
CTETRA      7759       1   15862     406     565    1142    4117    4121+
+           4120    8503    8673   10447
CTETRA      7760       1   15281     565     406    1189    7704    4121+
+           8486    8919   10448    8921
CTETRA      7761       1   15281     565    1189    1039    7704   10448+
+           8919    7705    7707    8918
CTETRA      7762       1   17665   16066   16077     565   16394   16446+
+          16445    8185   10449   10446
CTETRA      7763       1   16074   16077     406    1142   16435    8704+
+           5635   10450   10451    8673
CTETRA      7764       1   16077     565     406    1142   10446    4121+
+           8704   10451   10447    8673
CTETRA      7765       1   17664     565   16077    1142    8786   10446+
+          16438    8504   10447   10451
CTETRA      7766       1   17663   17664   16077    1142   17685   16438+
+          16437    8502    8504   10451
CTETRA      7767       1   17663   16077   16074    1142   16437   16435+
+          16427    8502   10451   10450
CTETRA      7768       1   17894   13563     425     566   13807   10196+
+           8581    8583   10452    4123
CTETRA      7769       1   13563     121     425     566    6764    3114+
+          10196   10452    4124    4123
CTETRA      7770       1   16612     566     121    1174    8627    4124+
+           3141    8742   10453    8743
CTETRA      7771       1   17895     566   16612    1174    8584    8627+
+          16665    9054   10453    8742
CTETRA      7772       1   17894   17895   13563     566   17900   13806+
+          13807    8583    8584   10452
CTETRA      7773       1   11611    1229     567     638   10117   10105+
+          10108   10454   10116   10107
CTETRA      7774       1   11611    1014    1229     638    9976    9972+
+          10117   10454    9978   10116
CTETRA      7775       1   16990    1014   11611     638    7894    9976+
+          11672    4631    9978   10454
CTETRA      7776       1   17910   16990   11611     638   17014   11672+
+          11674    4629    4631   10454
CTETRA      7777       1   17910   11611     567     638   11674   10108+
+           4125    4629   10454   10107
CTETRA      7778       1   15042     315     318     470    8158    2492+
+          10455   10456    4189    4188
CTETRA      7779       1   15042     319     315     470    9865    2497+
+           8158   10456    9864    4189
CTETRA      7780       1   17403     319   15042     470    3398    9865+
+          15108    3395    9864   10456
CTETRA      7781       1   17403   15042   15050     470   15108   15143+
+          15145    3395   10456    8929
CTETRA      7782       1   15042     318   15050     470   10455   10457+
+          15143   10456    4188    8929
CTETRA      7783       1   15042     318     315     945   10455    2492+
+           8158   10458    9862    8958
CTETRA      7784       1   15042   15050     318     945   15143   10457+
+          10455   10458   10459    9862
CTETRA      7785       1   17431   15050   15042     945   15144   15143+
+          15142    7086   10459   10458
CTETRA      7786       1   17430   17431   15042     945   17437   15142+
+          15112    8957    7086   10458
CTETRA      7787       1   17430   15042     315     945   15112    8158+
+           2484    8957   10458    8958
CTETRA      7788       1   17538   15869   15868     577   15969   15968+
+          15965    4502   10460   10461
CTETRA      7789       1   15868   15869     301     577   15968    5422+
+           5421   10461   10460    4219
CTETRA      7790       1   15869     513     301     577    5770    4216+
+           5422   10460    4220    4219
CTETRA      7791       1   15216     577     513     580    4503    4220+
+           4237    4235   10462    4236
CTETRA      7792       1   17538     577   15216     580    4502    4503+
+          15370    7724   10462    4235
CTETRA      7793       1   17302   12740     578     819   12796    6096+
+           7659    6127    6123   10463
CTETRA      7794       1   12740     477     578     819    4728    6097+
+           6096    6123    6122   10463
CTETRA      7795       1   12882     510     477     578    5314    5319+
+           5320   10464    4225    6097
CTETRA      7796       1   17303     510   12882     578    4222    5314+
+          13028    4223    4225   10464
CTETRA      7797       1   17302   17303   12882     578   17331   13028+
+          13027    7659    4223   10464
CTETRA      7798       1   15216     513     579     581    4237    4232+
+           5420    4238    4240   10465
CTETRA      7799       1   15870     512     513     579    5470    3962+
+           5469   10466    4233    4232
CTETRA      7800       1   17931     512   15870     579    5780    5470+
+          15976    8521    4233   10466
CTETRA      7801       1   17931   15870   17539     579   15976   15975+
+          17546    8521   10466    5419
CTETRA      7802       1   17539   15216     579     581   15371    5420+
+           5419    5776    4238   10465
CTETRA      7803       1   15869   15870     513     580   15972    5469+
+           5770   10467   10468    4236
CTETRA      7804       1   17539   15870   15869     580   15975   15972+
+          15970    5775   10468   10467
CTETRA      7805       1   17538   17539   15869     580   17541   15970+
+          15969    7724    5775   10467
CTETRA      7806       1   17538   15869     577     580   15969   10460+
+           4502    7724   10467   10462
CTETRA      7807       1   15869     513     577     580    5770    4220+
+          10460   10467    4236   10462
CTETRA      7808       1   15870     513     580     581    5469    4236+
+          10468   10469    4240    4239
CTETRA      7809       1   15870     579     513     581   10466    4232+
+           5469   10469   10465    4240
CTETRA      7810       1   17539     579   15870     581    5419   10466+
+          15975    5776   10465   10469
CTETRA      7811       1   17539   15870     580     581   15975   10468+
+           5775    5776   10469    4239
CTETRA      7812       1   12862     827     104     588    9764    6156+
+           2607   10470    6418    8730
CTETRA      7813       1   17308     827   12862     588    6416    9764+
+          13262    6417    6418   10470
CTETRA      7814       1   17307   17308   12862     588   17340   13262+
+          13088    4277    6417   10470
CTETRA      7815       1   17307   12747     588     697   12837    4278+
+           4277    7064    5149   10471
CTETRA      7816       1   12747     104     588     697    3237    8730+
+           4278    5149    5151   10471
CTETRA      7817       1   12862     104     177     697    2607    4307+
+           9571   10472    5151    5150
CTETRA      7818       1   12862     588     104     697   10470    8730+
+           2607   10472   10471    5151
CTETRA      7819       1   17307     588   12862     697    4277   10470+
+          13088    7064   10471   10472
CTETRA      7820       1   17307   12862     177     697   13088    9571+
+           7063    7064   10472    5150
CTETRA      7821       1   12099   12118      37     590   12331    5237+
+           8396   10473   10474    4297
CTETRA      7822       1   17810     590      37     705    6274    4297+
+           2849    5234   10475    9118
CTETRA      7823       1   17810   17100     590     705   12622    5917+
+           6274    5234    8397   10475
CTETRA      7824       1   17100   12118   12099     590   12321   12331+
+          12317    5917   10474   10473
CTETRA      7825       1   12099     590      37     591   10473    4297+
+           8396   10476    4301    4300
CTETRA      7826       1   17100     590   12099     591    5917   10473+
+          12317    5918    4301   10476
CTETRA      7827       1   17100   12099   17101     591   12317   12270+
+          17129    5918   10476    5631
CTETRA      7828       1   17101   12602     591     758   12727    5632+
+           5631    5628    5630   10477
CTETRA      7829       1   12602      35     591     758    1343    6397+
+           5632    5630    6821   10477
CTETRA      7830       1   12099      37      35     591    8396    1337+
+           8342   10476    4300    6397
CTETRA      7831       1   13729      62     156     833    4327    4331+
+           4330   10478    6218    6217
CTETRA      7832       1   13729     102      62     833    1833    1575+
+           4327   10478    6734    6218
CTETRA      7833       1   13729     167     102     833    9556    5171+
+           1833   10478    9557    6734
CTETRA      7834       1   13729     156     167     833    4330    1843+
+           9556   10478    6217    9557
CTETRA      7835       1   11605     299    1083    1082   10479    9421+
+          10480   10481    8240    9488
CTETRA      7836       1   11781    1082     299    1223    8241    8240+
+           2427    9416   10482    9417
CTETRA      7837       1   11781     594    1082    1223    8679   10411+
+           8241    9416   10419   10482
CTETRA      7838       1   17015     594   11605    1082    4342   10414+
+          11640    8010   10411   10481
CTETRA      7839       1   17912   17015   11605    1082   17032   11640+
+          11642    8008    8010   10481
CTETRA      7840       1   17912   11605    1083    1082   11642   10480+
+           8011    8008   10481    9488
CTETRA      7841       1   11781     594     595      26    8679    4343+
+           7884    1302   10412   10483
CTETRA      7842       1   17015     594   11868     595    4342   10415+
+          11908    4344    4343   10484
CTETRA      7843       1   17015   11868   11874     595   11908   12059+
+          11927    4344   10484    6226
CTETRA      7844       1   17068   11874   11868     595   11937   12059+
+          11910    7883    6226   10484
CTETRA      7845       1   17068   11781     595      26   11854    7884+
+           7883    1303    1302   10483
CTETRA      7846       1   11780     596    1066    1067   10485    8875+
+           9799    7892   10486    9801
CTETRA      7847       1   11780     596     594    1228   10485    4346+
+           8678    9877   10487    9878
CTETRA      7848       1   11780     595     594     596    7885    4343+
+           8678   10485    4347    4346
CTETRA      7849       1   11780     595     596    1067    7885    4347+
+          10485    7892    8876   10486
CTETRA      7850       1   13383      13   13405     597    9264    6455+
+          13521   10488    6464   10489
CTETRA      7851       1   13383     507      13     597   10490    4841+
+           9264   10488    4352    6464
CTETRA      7852       1   13383     357     507     597    4367    4349+
+          10490   10488    4353    4352
CTETRA      7853       1   13383     357     597     600    4367    4353+
+          10488    4368    4370   10491
CTETRA      7854       1   17926   13383     597     600   13522   10488+
+           8941    9270    4368   10491
CTETRA      7855       1   17926   13383   13405     597   13522   13521+
+          13518    8941   10488   10489
CTETRA      7856       1   16910     547      98     598    3965    6261+
+           4740   10492    8437    4357
CTETRA      7857       1   17760     547   16910     598    3973    3965+
+          16925    7323    8437   10492
CTETRA      7858       1   17760   16910   17761     598   16925   16926+
+          17772    7323   10492    4356
CTETRA      7859       1   17761   16910      98     598   16926    4740+
+           4354    4356   10492    4357
CTETRA      7860       1   17934      13   13383     599    8871    9264+
+          13435    8872    4935   10493
CTETRA      7861       1   17934     599   13383     907    8872   10493+
+          13435    6787   10494    6788
CTETRA      7862       1   13383     599     357     907   10493    4364+
+           4367    6788   10494   10495
CTETRA      7863       1   13383     507     357     599   10490    4349+
+           4367   10493    4365    4364
CTETRA      7864       1   13383      13     507     599    9264    4841+
+          10490   10493    4935    4365
CTETRA      7865       1   13407     357     600     636    4366    4370+
+           4369    4614    4616   10496
CTETRA      7866       1   15269     597     357     600    6463    4353+
+           6462   10497   10491    4370
CTETRA      7867       1   17926     597   15269     600    8941    6463+
+          15720    9270   10491   10497
CTETRA      7868       1   17443   17926   15269     600   17447   15720+
+          15558    7626    9270   10497
CTETRA      7869       1   17443   13407     600     636   13528    4369+
+           7626    5545    4614   10496
CTETRA      7870       1   15269     495     529     636    7764    3850+
+          10384   10498    4615    6159
CTETRA      7871       1   15269     357     495     636    6462    4373+
+           7764   10498    4616    4615
CTETRA      7872       1   15269     600     357     636   10497    4370+
+           6462   10498   10496    4616
CTETRA      7873       1   17443     600   15269     636    7626   10497+
+          15558    5545   10496   10498
CTETRA      7874       1   17443   15269   17444     636   15558   15555+
+          17448    5545   10498    5546
CTETRA      7875       1   17444   15269     529     636   15555   10384+
+           6158    5546   10498    6159
CTETRA      7876       1   16025     495     357     601    3845    4373+
+           2688   10499    4376    4375
CTETRA      7877       1   16025     130     495     601    3844    3586+
+           3845   10499    6164    4376
CTETRA      7878       1   16025   16027     130     601   16259    2680+
+           3844   10499   10500    6164
CTETRA      7879       1   17577   16027   16025     601   16258   16259+
+          16255    6307   10500   10499
CTETRA      7880       1   17576   17577   16025     601   17581   16255+
+          16254    6306    6307   10499
CTETRA      7881       1   17576   16025   16026     601   16254   16253+
+          16252    6306   10499   10501
CTETRA      7882       1   16025     357   16026     601    2688    7345+
+          16253   10499    4375   10501
CTETRA      7883       1   17786   16915   17787     603   16956   16968+
+          17799    8125   10502    7131
CTETRA      7884       1   17787   16915     344     603   16968    7964+
+           4391    7131   10502    4386
CTETRA      7885       1   16915     345     344     603    8038    2620+
+           7964   10502    4387    4386
CTETRA      7886       1   17786     345   16915     603    6011    8038+
+          16956    8125    4387   10502
CTETRA      7887       1   16917   16918      89     604   16972   10503+
+          10504   10505   10506    6759
CTETRA      7888       1   16918     344      89     604    7965    6504+
+          10503   10506    4394    6759
CTETRA      7889       1   17787     344   16918     604    4391    7965+
+          16969    4392    4394   10506
CTETRA      7890       1   17787   16918   17788     604   16969   16973+
+          17794    4392   10506    8037
CTETRA      7891       1   17788   16918   16917     604   16973   16972+
+          16974    8037   10506   10505
CTETRA      7892       1   16706     121     452     605    8093    4398+
+           3287   10507    4401    4400
CTETRA      7893       1   16704     121   16706     605    1679    8093+
+          16788   10508    4401   10507
CTETRA      7894       1   17730   16704   16706     605   16784   16788+
+          16790    5303   10508   10507
CTETRA      7895       1   17729   17730   16706     605   17740   16790+
+          16791    5302    5303   10507
CTETRA      7896       1   17729   16604     605     805   16680    7817+
+           5302    6028    6030   10509
CTETRA      7897       1   16604     452     605     805    6258    4400+
+           7817    6030    6991   10509
CTETRA      7898       1   12605     253     606    1017    4449    4408+
+           6825    7560    7562   10510
CTETRA      7899       1   12077     447     253     606    4426    4405+
+           4427   10511    4409    4408
CTETRA      7900       1   12077   12101     447     606   12259    3262+
+           4426   10511   10512    4409
CTETRA      7901       1   17103   12101   12077     606   12258   12259+
+          12256    6822   10512   10511
CTETRA      7902       1   17103   12077   17104     606   12256   12257+
+          17126    6822   10511    6824
CTETRA      7903       1   17104   12605     606    1017   12721    6825+
+           6824    9148    7560   10510
CTETRA      7904       1   12101     447     606     607    3262    4409+
+          10512   10513    4414    4413
CTETRA      7905       1   12603     607     447     785    6809    4414+
+           5099    5920   10514    5921
CTETRA      7906       1   17103     607   12603     785    6808    6809+
+          12726    6451   10514    5920
CTETRA      7907       1   17103   12101     606     607   12258   10512+
+           6822    6808   10513    4413
CTETRA      7908       1   17525   15857     608     610   15903    5582+
+           5567    5568   10515    4419
CTETRA      7909       1   15857     609     608     610    5583    4416+
+           5582   10515    4420    4419
CTETRA      7910       1   17526     609   15857     610    5558    5583+
+          15904    5559    4420   10515
CTETRA      7911       1   17525   17526   15857     610   17547   15904+
+          15903    5568    5559   10515
CTETRA      7912       1   16014     609     608     611    5592    4416+
+           5595   10516    5585    5584
CTETRA      7913       1   15982     609   16014     611    8804    5592+
+          16204   10517    5585   10516
CTETRA      7914       1   17659   15982   16014     611   16208   16204+
+          16206    4421   10517   10516
CTETRA      7915       1   17658   17659   16014     611   17680   16206+
+          16207    8412    4421   10516
CTETRA      7916       1   17658   15856     611     742   15899    8413+
+           8412    8410    5499   10518
CTETRA      7917       1   15856     608     611     742    6312    5584+
+           8413    5499    6557   10518
CTETRA      7918       1   15982     609     611     612    8804    5585+
+          10517   10519    6902    4424
CTETRA      7919       1   15858     612     609    1181    9021    6902+
+           8803    8828   10520    9006
CTETRA      7920       1   17659     612   15858    1181    4423    9021+
+          15909    8827   10520    8828
CTETRA      7921       1   17659   15982     611     612   16208   10517+
+           4421    4423   10519    4424
CTETRA      7922       1   16003   16004     672     613   16169    6643+
+           9023   10521   10522    5744
CTETRA      7923       1   16004     616     672     613    5725    5721+
+           6643   10522    6624    5744
CTETRA      7924       1   15733     613     616     723    4432    6624+
+           4440    5347   10523    5356
CTETRA      7925       1   17593     613   15733     723    4430    4432+
+          15825    5346   10523    5347
CTETRA      7926       1   17592   17593   16004     613   17615   16171+
+          16170    4466    4430   10522
CTETRA      7927       1   17592   16004   16003     613   16170   16169+
+          16168    4466   10522   10521
CTETRA      7928       1   16004     616     613     723    5725    6624+
+          10522   10524    5356   10523
CTETRA      7929       1   16001     616   16004     723    8271    5725+
+          16165   10525    5356   10524
CTETRA      7930       1   17593   16001   16004     723   16172   16165+
+          16171    5346   10525   10524
CTETRA      7931       1   17593   16004     613     723   16171   10522+
+           4430    5346   10524   10523
CTETRA      7932       1   11682     391     571     614    2907   10097+
+           4158   10526    4434    7357
CTETRA      7933       1   11682     910     391     614    7348   10082+
+           2907   10526    6860    4434
CTETRA      7934       1   11682     489     910     614    3535    6858+
+           7348   10526    6861    6860
CTETRA      7935       1   11682     571     489     614    4158    4160+
+           3535   10526    7357    6861
CTETRA      7936       1   12950     255     253     617    4446    2211+
+           4447   10527    7856    4451
CTETRA      7937       1   12606     617     255     955    5216    7856+
+           5896    7157   10528    8646
CTETRA      7938       1   17237     617   12606     955    4450    5216+
+          12639    8864   10528    7157
CTETRA      7939       1   17237   12950     253     617   13288    4447+
+           4448    4450   10527    4451
CTETRA      7940       1   15308     672     616     721    5719    5721+
+           4858   10529    6078    6077
CTETRA      7941       1   15276     672   15308     721    4916    5719+
+          15708   10530    6078   10529
CTETRA      7942       1   17459   15276   15308     721   15709   15708+
+          15710    5340   10530   10529
CTETRA      7943       1   17459   15308   17460     721   15710   15716+
+          17493    5340   10529    8353
CTETRA      7944       1   17460   15308     501     721   15716   10326+
+           3630    8353   10529   10327
CTETRA      7945       1   15308     616     501     721    4858    4441+
+          10326   10529    6077   10327
CTETRA      7946       1   12168     253     255     618    4457    2211+
+           4456   10531    4462    4461
CTETRA      7947       1   12077     253   12168     618    4427    4457+
+          12499   10532    4462   10531
CTETRA      7948       1   17104   12077   12168     618   12257   12499+
+          12498    9143   10532   10531
CTETRA      7949       1   17104   12168   17105     618   12498   12506+
+          17138    9143   10531    7398
CTETRA      7950       1   17105   12606     618    1042   12719    5897+
+           7398    7731    7730   10533
CTETRA      7951       1   12606     255     618    1042    5896    4461+
+           5897    7730    7854   10533
CTETRA      7952       1   16507      92     621     707    1544    4475+
+           8600    5247    9464   10534
CTETRA      7953       1   13403      84      92     621    4569    4472+
+           9468   10535    4476    4475
CTETRA      7954       1   13403     704      84     621   10261    5256+
+           4569   10535   10264    4476
CTETRA      7955       1   16507     621     704     707    8600   10264+
+           5225    5247   10534   10263
CTETRA      7956       1   16696      84      92    1055    8741    4472+
+           9465   10536    9470    9469
CTETRA      7957       1   16696     514      84    1055   10351    3719+
+           8741   10536   10350    9470
CTETRA      7958       1   17934     514   16696    1055    7117   10351+
+          16746    8818   10350   10536
CTETRA      7959       1   17704   17934   16696    1055   17707   16746+
+          16745    7825    8818   10536
CTETRA      7960       1   17704   16696   16732    1055   16745   16904+
+          16906    7825   10536   10537
CTETRA      7961       1   16696     741   16732    1055    9471    9475+
+          16904   10536    9473   10537
CTETRA      7962       1   16696      92     741    1055    9465    9463+
+           9471   10536    9469    9473
CTETRA      7963       1   17538     577   15868     624    4502   10461+
+          15965    5418    5748   10538
CTETRA      7964       1   17537   17538   15868     624   17540   15965+
+          15964    4505    5418   10538
CTETRA      7965       1   17537   15868     301     624   15964    5421+
+           4504    4505   10538    4506
CTETRA      7966       1   15868     577     301     624   10461    4219+
+           5421   10538    5748    4506
CTETRA      7967       1   17211   12125     439     625   12356   10218+
+           8840    8841   10539    4512
CTETRA      7968       1   12125     162     439     625    4703    3214+
+          10218   10539    4513    4512
CTETRA      7969       1   12125     419     162     625   10180    3074+
+           4703   10539   10179    4513
CTETRA      7970       1   17211     419   12125     625    4402   10180+
+          12356    8841   10179   10539
CTETRA      7971       1   13736     544   14665     628    4596    4020+
+           5071   10540    6939   10541
CTETRA      7972       1   13736   14665     224     628    5071    9677+
+           9676   10540   10541    9675
CTETRA      7973       1   17388     224   14665     628    7412    9677+
+          14768    4536    9675   10541
CTETRA      7974       1   17388   14665   14663     628   14768   14764+
+          14766    4536   10541   10542
CTETRA      7975       1   14663   14665     544     628   14764    4020+
+           7766   10542   10541    6939
CTETRA      7976       1   14663     628     544     629   10542    6939+
+           7766   10543    4539    6392
CTETRA      7977       1   17388     628   14663     629    4536   10542+
+          14766    4537    4539   10543
CTETRA      7978       1   17387   17388   14663     629   17395   14766+
+          14767    7456    4537   10543
CTETRA      7979       1   17387   13399     629     896   13489    6391+
+           7456    8026    6709   10544
CTETRA      7980       1   13399     544     629     896    6389    6392+
+           6391    6709    6711   10544
CTETRA      7981       1   17112     630   12612     589    8754    4836+
+          12708    4285   10545    4286
CTETRA      7982       1   17112   12146   12135     630   12434   12431+
+          12396    8754   10546   10547
CTETRA      7983       1   12135   12146      20     630   12431    3835+
+           4489   10547   10546    4545
CTETRA      7984       1   12863     630      20     661   10548    4545+
+           7102    4795   10549    8852
CTETRA      7985       1   12612     661     630     662    4799   10549+
+           4836    4800    4802    4837
CTETRA      7986       1   17112     630   12135     631    8754   10547+
+          12396    6972    4549   10550
CTETRA      7987       1   17112   12135   17113     631   12396   12394+
+          17132    6972   10550    6973
CTETRA      7988       1   17113   12614     631     957   12703    6999+
+           6973    7162    7164   10551
CTETRA      7989       1   12614      20     631     957    7098    4548+
+           6999    7164    8667   10551
CTETRA      7990       1   12135     630      20     631   10547    4545+
+           4489   10550    4549    4548
CTETRA      7991       1   12149     431     503     633    3473    4055+
+           4054   10552    4582    4581
CTETRA      7992       1   13384     633     431    1232    8723    4582+
+           9177   10553   10554   10206
CTETRA      7993       1   17091   12149     633    1232   12438   10552+
+           7454   10555   10204   10554
CTETRA      7994       1   17091   12149   17092     633   12438   12435+
+          17096    7454   10552    7455
CTETRA      7995       1   17092   12149   12150     633   12435   12437+
+          12436    7455   10552   10556
CTETRA      7996       1   12149     503   12150     633    4054    3639+
+          12437   10552    4581   10556
CTETRA      7997       1   14667     544     426     635    4009    4008+
+           4006   10557    4604    6609
CTETRA      7998       1   14667     481     544     635    3502    3939+
+           4009   10557    4605    4604
CTETRA      7999       1   14667     427     481     635   10199    3494+
+           3502   10557   10200    4605
CTETRA      8000       1   14667     426     427     635    4006    3121+
+          10199   10557    6609   10200
CTETRA      8001       1   13391     522     523     569   10376    3795+
+          10114   10558    4140    4139
CTETRA      8002       1   13391    1013     522     569   10304    7541+
+          10376   10558   10303    4140
CTETRA      8003       1   13391     392    1013     569   10091   10095+
+          10304   10558   10094   10303
CTETRA      8004       1   13391     523     392     569   10114   10093+
+          10091   10558    4139   10094
CTETRA      8005       1   13704     522    1013     637   10373    7541+
+          10381   10559   10375    9731
CTETRA      8006       1   17836     522   13704     637    7283   10373+
+          14315    8839   10375   10559
CTETRA      8007       1   17836   13704   17837     637   14315   14316+
+          17847    8839   10559    7232
CTETRA      8008       1   17837   11690     637    1131   11742    4623+
+           7232    8430    8432   10560
CTETRA      8009       1   11690     261     637    1131    3544    4624+
+           4623    8432    9735   10560
CTETRA      8010       1   13704    1013     261     637   10381    9730+
+           8117   10559    9731    4624
CTETRA      8011       1   13704     263     987    1131    8118    8893+
+           9242   10561    9734    8655
CTETRA      8012       1   13704     261     263    1131    8117    2244+
+           8118   10561    9735    9734
CTETRA      8013       1   13704     637     261    1131   10559    4624+
+           8117   10561   10560    9735
CTETRA      8014       1   17837     637   13704    1131    7232   10559+
+          14316    8430   10560   10561
CTETRA      8015       1   17837   13704   17838    1131   14316   14628+
+          17846    8430   10561    8431
CTETRA      8016       1   17838   13704     987    1131   14628    9242+
+           8654    8431   10561    8655
CTETRA      8017       1   13639     393     639     683    4164    4658+
+           4657    5029    6366   10562
CTETRA      8018       1   14725     430     393     639    4643    3156+
+           6368   10563    6849    4658
CTETRA      8019       1   14725     460     430     639    4645    4644+
+           4643   10563    6736    6849
CTETRA      8020       1   14725     471     460     639    5168    5167+
+           4645   10563    6737    6736
CTETRA      8021       1   13639     639     471     683    4657    6737+
+           3400    5029   10562    5030
CTETRA      8022       1   14725     166     471     683    6363    5007+
+           5168   10564    5031    5030
CTETRA      8023       1   14725     393     166     683    6368    4487+
+           6363   10564    6366    5031
CTETRA      8024       1   14725     639     393     683   10563    4658+
+           6368   10564   10562    6366
CTETRA      8025       1   14725     471     639     683    5168    6737+
+          10563   10564    5030   10562
CTETRA      8026       1   17183   12111     640     643   12309    5203+
+           7191    7737   10565    4687
CTETRA      8027       1   12111     641     640     643    7197    4678+
+           5203   10565    4688    4687
CTETRA      8028       1   12111   12112     641     643   12307    5336+
+           7197   10565   10566    4688
CTETRA      8029       1   17183   12112   12111     643   12308   12307+
+          12309    7737   10566   10565
CTETRA      8030       1   12942     641     486     644    7193    4690+
+           5557   10567    4694    4693
CTETRA      8031       1   17315     641   12942     644    7845    7193+
+          13253    7829    4694   10567
CTETRA      8032       1   17314   17315   12942     644   17327   13253+
+          13254    7507    7829   10567
CTETRA      8033       1   17314   12942     486     644   13254    5557+
+           5122    7507   10567    4693
CTETRA      8034       1   12603     447     645     688    5099    6727+
+           6726    5089    6721   10568
CTETRA      8035       1   12938     253     447     645    3255    4405+
+           3256   10569    4699    6727
CTETRA      8036       1   17236     253   12938     645    3254    3255+
+          13292    4697    4699   10569
CTETRA      8037       1   17235   17236   12938     645   17257   13292+
+          13371    5910    4697   10569
CTETRA      8038       1   17235   12603     645     688   12632    6726+
+           5910    5090    5089   10568
CTETRA      8039       1   17342   15040   17343     646   15100   15099+
+          17346    6916   10570    4700
CTETRA      8040       1   17343   15040     162     646   15099    4510+
+           4509    4700   10570    4701
CTETRA      8041       1   15040     159     162     646    1810    1819+
+           4510   10570    6917    4701
CTETRA      8042       1   17342     159   15040     646    2570    1810+
+          15100    6916    6917   10570
CTETRA      8043       1   12177     477   12178     647    3454    5221+
+          12551   10571    4730   10572
CTETRA      8044       1   17168   12177   12178     647   12546   12551+
+          12550    4716   10571   10572
CTETRA      8045       1   17168   12740     647     828   12799    4717+
+           4716    9147    6190   10573
CTETRA      8046       1   12740     477     647     828    4728    4730+
+           4717    6190    7446   10573
CTETRA      8047       1   12178     477   12186     828    5221    5223+
+          12575   10574    7446   10575
CTETRA      8048       1   12178     647     477     828   10572    4730+
+           5221   10574   10573    7446
CTETRA      8049       1   17168     647   12178     828    4716   10572+
+          12550    9147   10573   10574
CTETRA      8050       1   17168   12178   17169     828   12550   12552+
+          17205    9147   10574    6191
CTETRA      8051       1   17169   12178   12186     828   12552   12575+
+          12576    6191   10574   10575
CTETRA      8052       1   12878     477     479     648    7236    5603+
+           5602   10576    5609    5608
CTETRA      8053       1   12740     648     477     820    5169    5609+
+           4728    6124   10577    6125
CTETRA      8054       1   17301     648   12740     820    4720    5169+
+          12795    7613   10577    6124
CTETRA      8055       1   17301   12878   12903     648   13033   13120+
+          13119    4720   10576   10578
CTETRA      8056       1   12878     479   12903     648    5602    3461+
+          13120   10576    5608   10578
CTETRA      8057       1   12903     648     479     649   10578    5608+
+           3461   10579    4723    5615
CTETRA      8058       1   17301     648   12903     649    4720   10578+
+          13119    4721    4723   10579
CTETRA      8059       1   17301   12903   17920     649   13119   13117+
+          17330    4721   10579    4724
CTETRA      8060       1   17920   12903     479     649   13117    3461+
+           5614    4724   10579    5615
CTETRA      8061       1   14685     282     281     650    2333    2335+
+           2332   10580    8000    8865
CTETRA      8062       1   14685     105     282     650    4633    4070+
+           2333   10580    8001    8000
CTETRA      8063       1   14685     102     105     650    4712    1588+
+           4633   10580    4726    8001
CTETRA      8064       1   14685     283     102     650    6601    4607+
+           4712   10580    4727    4726
CTETRA      8065       1   14685     281     283     650    2332    2339+
+           6601   10580    8865    4727
CTETRA      8066       1   12917      60   12919     653    6795    5883+
+          13169   10581    4745   10582
CTETRA      8067       1   12620     653      60    1049    4746    4745+
+           4743    8191   10583    7779
CTETRA      8068       1   17252     653   12620    1049    8189    4746+
+          12682    8190   10583    8191
CTETRA      8069       1   17251   17252   12917     653   17273   13178+
+          13176    6797    8189   10581
CTETRA      8070       1   17251   12917   12919     653   13176   13169+
+          13177    6797   10581   10582
CTETRA      8071       1   17252   12928   12917    1049   13216   13213+
+          13178    8190   10584   10585
CTETRA      8072       1   17252   12917     653    1049   13178   10581+
+           8189    8190   10585   10583
CTETRA      8073       1   12917      60     653    1049    6795    4745+
+          10581   10585    7779   10583
CTETRA      8074       1   12917   12928      60    1049   13213    6611+
+           6795   10585   10584    7779
CTETRA      8075       1   15263     130     247     654    5072    3824+
+           9062   10586    5057    4757
CTETRA      8076       1   17445     130   15263     654    2184    5072+
+          15536    5070    5057   10586
CTETRA      8077       1   17445   15263   17446     654   15536   15535+
+          17450    5070   10586    4756
CTETRA      8078       1   17446   15263     247     654   15535    9062+
+           4755    4756   10586    4757
CTETRA      8079       1   11608     449     448    1016   10226    3277+
+          10227   10587   10230   10229
CTETRA      8080       1   11608     656     449    1016   10249    9987+
+          10226   10587   10250   10230
CTETRA      8081       1   17025     656   11608    1016    4762   10249+
+          11666    7953   10250   10587
CTETRA      8082       1   17024   17025   11608    1016   17037   11666+
+          11663    7557    7953   10587
CTETRA      8083       1   17024   11608   11609    1016   11663   11662+
+          11661    7557   10587   10588
CTETRA      8084       1   11608     410   11609    1016   10246    8902+
+          11662   10587    8978   10588
CTETRA      8085       1   11608     660     410    1016   10244    4784+
+          10246   10587   10236    8978
CTETRA      8086       1   11608     448     660    1016   10227   10231+
+          10244   10587   10229   10236
CTETRA      8087       1   11895     660     410     655   10235    4784+
+           4778   10589    5968    5967
CTETRA      8088       1   11895     448     660     655   10228   10231+
+          10235   10589   10232    5968
CTETRA      8089       1   11895     450     448     655   10247    4776+
+          10228   10589   10248   10232
CTETRA      8090       1   17049     450   11895     655    3271   10247+
+          12011    8980   10248   10589
CTETRA      8091       1   17048   17049   11895     655   17059   12011+
+          12012    4759    8980   10589
CTETRA      8092       1   17048   11895     411     655   12012   10164+
+           3857    4759   10589    4760
CTETRA      8093       1   11895     410     411     655    4778    3037+
+          10164   10589    5967    4760
CTETRA      8094       1   11609    1016     410     659   10588    8978+
+           8902   10590    7559    4780
CTETRA      8095       1   17024    1016   11609     659    7557   10588+
+          11661    7558    7559   10590
CTETRA      8096       1   17024   11893     659    1062   12015    4779+
+           7558    9161    7873   10591
CTETRA      8097       1   11893     410     659    1062    4777    4780+
+           4779    7873    7872   10591
CTETRA      8098       1   11607   11609     410    1062   11657    8902+
+           9784   10592   10593    7872
CTETRA      8099       1   11609     659     410    1062   10590    4780+
+           8902   10593   10591    7872
CTETRA      8100       1   17024     659   11609    1062    7558   10590+
+          11661    9161   10591   10593
CTETRA      8101       1   17023   17024   11609    1062   17036   11661+
+          11658    7972    9161   10593
CTETRA      8102       1   17023   11609   11607    1062   11658   11657+
+          11656    7972   10593   10592
CTETRA      8103       1   12146      18      20     661    1276    1283+
+           3835   10594    4796    8852
CTETRA      8104       1   12146      17      18     661    1273    1277+
+           1276   10594    4797    4796
CTETRA      8105       1   12612     661      17     589    4799    4797+
+           4798    4286   10595    8855
CTETRA      8106       1   12612     630     661     589    4836   10549+
+           4799    4286   10545   10595
CTETRA      8107       1   12146      20     630     661    3835    4545+
+          10546   10594    8852   10549
CTETRA      8108       1   12863      17   12898     662    4794    4812+
+          13155   10596    4801   10597
CTETRA      8109       1   12863     661      17     662    4795    4797+
+           4794   10596    4802    4801
CTETRA      8110       1   12863     630     661     662   10548   10549+
+           4795   10596    4837    4802
CTETRA      8111       1   12613     662     630     947    4838    4837+
+           4546    7095   10598    7096
CTETRA      8112       1   17245     662   12613     947    6952    4838+
+          12661    7786   10598    7095
CTETRA      8113       1   17244   17245   12863     662   17266   13000+
+          13001    8671    6952   10596
CTETRA      8114       1   17244   12863   12898     662   13001   13155+
+          13152    8671   10596   10597
CTETRA      8115       1   12146      17     661     589    1273    4797+
+          10594   10599    8855   10595
CTETRA      8116       1   12140      17   12146     589    4818    1273+
+          12425   10600    8855   10599
CTETRA      8117       1   17111   12140   12146     589   12432   12425+
+          12433    4284   10600   10599
CTETRA      8118       1   17111   12146   17112     589   12433   12434+
+          17137    4284   10599    4285
CTETRA      8119       1   17112   12146     630     589   12434   10546+
+           8754    4285   10599   10545
CTETRA      8120       1   12146     661     630     589   10594   10549+
+          10546   10599   10595   10545
CTETRA      8121       1   17111   12612     663     619   12707    4807+
+           7552    4463    4465   10601
CTETRA      8122       1   12612      17     663     619    4798    4808+
+           4807    4465    8856   10601
CTETRA      8123       1   12140      76      17     663    4815    4814+
+           4818   10602    6296    4808
CTETRA      8124       1   12132      76   12140     663    5625    4815+
+          12406   10603    6296   10602
CTETRA      8125       1   17110   12132   12140     663   12403   12406+
+          12405    6864   10603   10602
CTETRA      8126       1   17110   12140   17111     663   12405   12432+
+          17136    6864   10602    7552
CTETRA      8127       1   12140      17     589     619    4818    8855+
+          10600   10604    8856    4464
CTETRA      8128       1   12140     663      17     619   10602    4808+
+           4818   10604   10601    8856
CTETRA      8129       1   17111     663   12140     619    7552   10602+
+          12432    4463   10601   10604
CTETRA      8130       1   17111   12140     589     619   12432   10600+
+           4284    4463   10604    4464
CTETRA      8131       1   16916     345     351     664    8039    2638+
+           5697   10605    4823    5712
CTETRA      8132       1   17758     345   16916     664    4820    8039+
+          16961    4821    4823   10605
CTETRA      8133       1   17758   16916   17759     664   16961   16964+
+          17770    4821   10605    5711
CTETRA      8134       1   17759   16916     351     664   16964    5697+
+           5696    5711   10605    5712
CTETRA      8135       1   12612     665      17    1121    8352    4829+
+           4798    8344   10606    8345
CTETRA      8136       1   17244     665   12612    1121    7785    8352+
+          12658    8778   10606    8344
CTETRA      8137       1   17243   17244   12898     665   17265   13152+
+          13102    7784    7785   10607
CTETRA      8138       1   17243   12898   12900     665   13102   13101+
+          13100    7784   10607   10608
CTETRA      8139       1   12898      76   12900     665    4811    6443+
+          13101   10607    4828   10608
CTETRA      8140       1   12898      17      76     665    4812    4814+
+           4811   10607    4829    4828
CTETRA      8141       1   12863      20     630     947    7102    4545+
+          10548   10609    7097    7096
CTETRA      8142       1   12863   12874      20     947   12992    7805+
+           7102   10609   10610    7097
CTETRA      8143       1   17245   12874   12863     947   13002   12992+
+          13000    7786   10610   10609
CTETRA      8144       1   17245   12863     662     947   13000   10596+
+           6952    7786   10609   10598
CTETRA      8145       1   12863     630     662     947   10548    4837+
+          10596   10609    7096   10598
CTETRA      8146       1   16696      84     291    1215    8741    5414+
+           7640   10611    9467    9823
CTETRA      8147       1   16696      92      84    1215    9465    4472+
+           8741   10611    9466    9467
CTETRA      8148       1   17710      92   16696    1215    4859    9465+
+          16749    9204    9466   10611
CTETRA      8149       1   17710   16696     290    1215   16749    7639+
+           9202    9204   10611    9205
CTETRA      8150       1   16696     291     290    1215    7640    2376+
+           7639   10611    9823    9205
CTETRA      8151       1   16001     409     668     667   10161    6623+
+           4883   10612    8983    8422
CTETRA      8152       1   17594     409   16001     667    4894   10161+
+          16219    6070    8983   10612
CTETRA      8153       1   17594   15733     667     669   15828    4863+
+           6070    4891    4890   10613
CTETRA      8154       1   15733     616     667     669    4440    4864+
+           4863    4890    5357   10613
CTETRA      8155       1   16001     668     616     667    4883    5287+
+           8271   10612    8422    4864
CTETRA      8156       1   16001     616     723     669    8271    5356+
+          10525   10614    5357    5348
CTETRA      8157       1   16001     667     616     669   10612    4864+
+           8271   10614   10613    5357
CTETRA      8158       1   17594     667   16001     669    6070   10612+
+          16219    4891   10613   10614
CTETRA      8159       1   17593   17594   16001     669   17616   16219+
+          16172    4889    4891   10614
CTETRA      8160       1   17593   16001     723     669   16172   10525+
+           5346    4889   10614    5348
CTETRA      8161       1   17171   12184   17172     671   12567   12566+
+          17206    7870   10615    7807
CTETRA      8162       1   17172   12184     429     671   12566    3694+
+           5723    7807   10615    4908
CTETRA      8163       1   12184     509     429     671    3693    3695+
+           3694   10615    4909    4908
CTETRA      8164       1   12743     671     509     830    5718    4909+
+           3686    6197   10616    8945
CTETRA      8165       1   17171     671   12743     830    7870    5718+
+          12811    8760   10616    6197
CTETRA      8166       1   17248   12858   12871     674   12981   12985+
+          12988    6379   10617   10618
CTETRA      8167       1   17248   12615     674     856   12669    6380+
+           6379    6458    6457   10619
CTETRA      8168       1   12615     620     674     856    6015    4971+
+           6380    6457    8751   10619
CTETRA      8169       1   12871     632     620     674    4963    4967+
+           4966   10618    4972    4971
CTETRA      8170       1   12858     632   12871     674    4559    4963+
+          12985   10617    4972   10618
CTETRA      8171       1   17408   15058   17409     314   15181   15186+
+          17426    4976   10620    2473
CTETRA      8172       1   17409   15058   15057     314   15186   15187+
+          15184    2473   10620   10621
CTETRA      8173       1   15057   15058     137     314   15187    9857+
+           9856   10621   10620    4989
CTETRA      8174       1   15053     137   15058     314   10075    9857+
+          15182   10622    4989   10620
CTETRA      8175       1   17408   15053   15058     314   15164   15182+
+          15181    4976   10622   10620
CTETRA      8176       1   17408   15053     314     675   15164   10622+
+           4976    4977   10623    4978
CTETRA      8177       1   15053     137     314     675   10075    4989+
+          10622   10623    5441    4978
CTETRA      8178       1   15053     389     137     675   10072    2898+
+          10075   10623   10073    5441
CTETRA      8179       1   17408     389   15053     675    5447   10072+
+          15164    4977   10073   10623
CTETRA      8180       1   17916     311   15058     676    4985    9855+
+          15194    4986    4988   10624
CTETRA      8181       1   17916   15058   15037     676   15194   15192+
+          15086    4986   10624   10625
CTETRA      8182       1   15037   15058     390     676   15192   10626+
+          10627   10625   10624    6107
CTETRA      8183       1   15058     137     390     676    9857    2905+
+          10626   10624    6920    6107
CTETRA      8184       1   15058     311     137     676    9855    7276+
+           9857   10624    4988    6920
CTETRA      8185       1   11869     310     505     677    7278    3651+
+          10628   10629    4995   10332
CTETRA      8186       1   17916     310   11869     677    4992    7278+
+          11912    4993    4995   10629
CTETRA      8187       1   17086   17916   11869     677   17089   11912+
+          11911    8870    4993   10629
CTETRA      8188       1   17086   15054     677     658   15179    9248+
+           8870    4770    4769   10630
CTETRA      8189       1   15054     505     677     658   10330   10332+
+           9248    4769   10631   10630
CTETRA      8190       1   14714      25     292     678    8104    2381+
+           5041   10632    8106    8916
CTETRA      8191       1   14714     315      25     678    8599    6967+
+           8104   10632    5010    8106
CTETRA      8192       1   14714     317     315     678    8830    2488+
+           8599   10632    5011    5010
CTETRA      8193       1   14687     317   14714     678    8935    8830+
+          14974   10633    5011   10632
CTETRA      8194       1   14687   14714     292     678   14974    5041+
+           5040   10633   10632    8916
CTETRA      8195       1   14687     678     292     679   10633    8916+
+           5040   10634    5013    5019
CTETRA      8196       1   14687     317     678     679    8935    5011+
+          10633   10634    5014    5013
CTETRA      8197       1   14687     295     317     679    6848    5035+
+           8935   10634    5018    5014
CTETRA      8198       1   14687     292     295     679    5040    2403+
+           6848   10634    5019    5018
CTETRA      8199       1   15058     390     137     680   10626    2905+
+           9857   10635    5702    8285
CTETRA      8200       1   15037     390   15058     680   10627   10626+
+          15192   10636    5702   10635
CTETRA      8201       1   17924   15037   15058     680   15193   15192+
+          15189    5021   10636   10635
CTETRA      8202       1   17924   15058   15053     680   15189   15182+
+          15188    5021   10635   10637
CTETRA      8203       1   15053   15058     137     680   15182    9857+
+          10075   10637   10635    8285
CTETRA      8204       1   15053     680     137     681   10637    8285+
+          10075   10638    5023    5457
CTETRA      8205       1   17924     680   15053     681    5021   10637+
+          15188    5024    5023   10638
CTETRA      8206       1   14728     681     682    1234    5483   10639+
+           5028   10640   10641   10642
CTETRA      8207       1   14728     388     681    1234    6732    5456+
+           5483   10640   10643   10641
CTETRA      8208       1   15053     137     388     681   10075    2895+
+          10074   10638    5457    5456
CTETRA      8209       1   12919     526   12920     684    3805    3804+
+          13174   10644    5055   10645
CTETRA      8210       1   17250   12919   12920     684   13181   13174+
+          13182    8393   10644   10645
CTETRA      8211       1   17250   12617     684    1129   12675    5054+
+           8393    8391    8390   10646
CTETRA      8212       1   12617     526     684    1129    5052    5055+
+           5054    8390    9262   10646
CTETRA      8213       1   12858   12920     526    1129   13183    3804+
+           4560   10647   10648    9262
CTETRA      8214       1   12920     684     526    1129   10645    5055+
+           3804   10648   10646    9262
CTETRA      8215       1   17250     684   12920    1129    8393   10645+
+          13182    8391   10646   10648
CTETRA      8216       1   17249   17250   12920    1129   17271   13182+
+          13184    8389    8391   10648
CTETRA      8217       1   17249   12920   12858    1129   13184   13183+
+          12982    8389   10648   10647
CTETRA      8218       1   12970      35     685     686    6400    5077+
+           9306   10649    5080    5079
CTETRA      8219       1   12603     686      35     689    6823    5080+
+           5097    5092   10650    5100
CTETRA      8220       1   17234     686   12603     689    5103    6823+
+          12630    8775   10650    5092
CTETRA      8221       1   17234   12970     685     686   13378    9306+
+           5102    5103   10649    5079
CTETRA      8222       1   17235     645   12938     688    5910   10569+
+          13371    5090   10568   10651
CTETRA      8223       1   17235   12938   12970     688   13371   13370+
+          13372    5090   10651   10652
CTETRA      8224       1   12938     447   12970     688    3256    6452+
+          13370   10651    6721   10652
CTETRA      8225       1   12938     645     447     688   10569    6727+
+           3256   10651   10568    6721
CTETRA      8226       1   17235     688   12970     689    5090   10652+
+          13372    5091    5093   10653
CTETRA      8227       1   17234   17235   12970     689   17256   13372+
+          13378    8775    5091   10653
CTETRA      8228       1   17234   12970     686     689   13378   10649+
+           5103    8775   10653   10650
CTETRA      8229       1   12970      35     686     689    6400    5080+
+          10649   10653    5100   10650
CTETRA      8230       1   12970     447      35     689    6452    5098+
+           6400   10653    5101    5100
CTETRA      8231       1   12970     688     447     689   10652    6721+
+           6452   10653    5093    5101
CTETRA      8232       1   13735   13736     223     690   14424    3556+
+           3555   10654   10655    5095
CTETRA      8233       1   17360   13736   13735     690   14422   14424+
+          14412    7012   10655   10654
CTETRA      8234       1   17360   13735   17361     690   14412   14411+
+          17367    7012   10654    5094
CTETRA      8235       1   17361   13735     223     690   14411    3555+
+           5087    5094   10654    5095
CTETRA      8236       1   12946     259   12957     691    5134    5135+
+          13326   10656    6406   10657
CTETRA      8237       1   12738     691     259     693    6407    6406+
+           2864    5124   10658    5130
CTETRA      8238       1   17313     691   12738     693    5115    6407+
+          12792    7776   10658    5124
CTETRA      8239       1   17313   12946   12957     691   13274   13326+
+          13325    5115   10656   10657
CTETRA      8240       1   12957     691     259     692   10657    6406+
+           5135   10659    5118    7506
CTETRA      8241       1   17313     691   12957     692    5115   10657+
+          13325    5116    5118   10659
CTETRA      8242       1   17312   17313   12957     692   17334   13325+
+          13318    8641    5116   10659
CTETRA      8243       1   17312   12745     692    1090   12823    6404+
+           8641    8086    8085   10660
CTETRA      8244       1   12745     251     692    1090    2226    6405+
+           6404    8085    8095   10660
CTETRA      8245       1   12957     259     251     692    5135    2235+
+           6403   10659    7506    6405
CTETRA      8246       1   12946     486     259     693    3515    5061+
+           5134   10661    5125    5130
CTETRA      8247       1   17314     486   12946     693    5122    3515+
+          13272    5123    5125   10661
CTETRA      8248       1   17313   17314   12946     693   17328   13272+
+          13274    7776    5123   10661
CTETRA      8249       1   17313   12946     691     693   13274   10656+
+           5115    7776   10661   10658
CTETRA      8250       1   12946     259     691     693    5134    6406+
+          10656   10661    5130   10658
CTETRA      8251       1   15050   15052     166     698   15157    8831+
+           5161   10662   10663    5158
CTETRA      8252       1   15052     150     166     698    1777    1830+
+           8831   10663    5159    5158
CTETRA      8253       1   17433     150   15052     698    1775    1777+
+          15159    7962    5159   10663
CTETRA      8254       1   17432   17433   15052     698   17441   15159+
+          15160    7419    7962   10663
CTETRA      8255       1   17432   15052   15050     698   15160   15157+
+          15161    7419   10663   10662
CTETRA      8256       1   12919     584      60     781   10664    7857+
+           5883    5885   10665    5886
CTETRA      8257       1   12919     584     781    1235   10664   10665+
+           5885   10666   10667   10668
CTETRA      8258       1   17118   12086   12091     584   12221   12223+
+          12222    5205    7863   10669
CTETRA      8259       1   17118   12091   12092     584   12222   12214+
+          12224    5205   10669   10670
CTETRA      8260       1   12091      60   12092     584    8065    5581+
+          12214   10669    7857   10670
CTETRA      8261       1   12092     584      60     586   10670    7857+
+           5581    4262    5208    5860
CTETRA      8262       1   17118     584   12092     586    5205   10670+
+          12224    5206    5208    4262
CTETRA      8263       1   17118   17119   12620     586   17125   12691+
+          12694    5206    4261    5859
CTETRA      8264       1   12092     586      60     753    4262    5860+
+           5581    5597   10671    5598
CTETRA      8265       1   12941     640     641     702    4674    4678+
+           4677   10672    5211    7601
CTETRA      8266       1   17316     640   12941     702    5200    4674+
+          13256    5209    5211   10672
CTETRA      8267       1   17315   17316   12941     702   17326   13256+
+          13255    7846    5209   10672
CTETRA      8268       1   17315   12941     641     702   13255    4677+
+           7845    7846   10672    7601
CTETRA      8269       1   13580     340     468     703    9932    6075+
+          10270   10673    6076    5215
CTETRA      8270       1   13580     257     340     703    4959    2583+
+           9932   10673    5224    6076
CTETRA      8271       1   13580      66     257     703    4957    2222+
+           4959   10673    5214    5224
CTETRA      8272       1   13580     468      66     703   10270    5212+
+           4957   10673    5215    5214
CTETRA      8273       1   13403     708     707    1056    9848    5248+
+          10674    7827   10675   10676
CTETRA      8274       1   13403     707     741    1056   10674    7808+
+           9472    7827   10676    9474
CTETRA      8275       1   13403      92     741     707    9468    9463+
+           9472   10674    9464    7808
CTETRA      8276       1   13403     621      92     707   10535    4475+
+           9468   10674   10534    9464
CTETRA      8277       1   13403     704     621     707   10261   10264+
+          10535   10674   10263   10534
CTETRA      8278       1   13403     462     704     707   10258   10260+
+          10261   10674   10259   10263
CTETRA      8279       1   13403     708     462     707    9848    6266+
+          10258   10674    5248   10259
CTETRA      8280       1   12118     377      37     705   10039    2850+
+           5237   10677    5235    9118
CTETRA      8281       1   17918     377   12118     705    5233   10039+
+          12318    5236    5235   10677
CTETRA      8282       1   17918   12118   17100     705   12318   12321+
+          17130    5236   10677    8397
CTETRA      8283       1   17100   12118     590     705   12321   10474+
+           5917    8397   10677   10475
CTETRA      8284       1   12118      37     590     705    5237    4297+
+          10474   10677    9118   10475
CTETRA      8285       1   17019   11601     193     706   11617    7140+
+           5238    5240   10678    5241
CTETRA      8286       1   11601     694     193     706    6081    5673+
+           7140   10678    5841    5241
CTETRA      8287       1   17020     694   11601     706    5127    6081+
+          11616    5840    5841   10678
CTETRA      8288       1   17019   17020   11601     706   17027   11616+
+          11617    5240    5840   10678
CTETRA      8289       1   16732     708     707     709   10679    5248+
+          10680   10681    5252    5251
CTETRA      8290       1   16695     708   16732     709    9843   10679+
+          16907   10682    5252   10681
CTETRA      8291       1   17712   16695   16732     709   16742   16907+
+          16905    5490   10682   10681
CTETRA      8292       1   17712   16732     741     709   16905    9475+
+           5488    5490   10681    5491
CTETRA      8293       1   16732     707     741     709   10680    7808+
+           9475   10681    5251    5491
CTETRA      8294       1   16695   16732     708     906   16907   10679+
+           9843    7809   10683    9846
CTETRA      8295       1   13403     906     708    1056    9061    9846+
+           9848    7827   10684   10675
CTETRA      8296       1   17704     906   13403    1056    6779    9061+
+          13509    7826   10684    7827
CTETRA      8297       1   17704   16732   16695     906   16906   16907+
+          16898    6779   10683    7809
CTETRA      8298       1   16732     707     708    1056   10680    5248+
+          10679   10685   10676   10675
CTETRA      8299       1   16732     741     707    1056    9475    7808+
+          10680   10685    9474   10676
CTETRA      8300       1   16732    1055     741    1056   10537    9473+
+           9475   10685    7828    9474
CTETRA      8301       1   17704    1055   16732    1056    7825   10537+
+          16906    7826    7828   10685
CTETRA      8302       1   17704   16732     906    1056   16906   10683+
+           6779    7826   10685   10684
CTETRA      8303       1   16732     708     906    1056   10679    9846+
+          10683   10685   10675   10684
CTETRA      8304       1   12922      58     375     710    2854    2830+
+          10035   10686    5259    5258
CTETRA      8305       1   17810     710      58     842    8385    5259+
+           2834    6269   10687    6270
CTETRA      8306       1   17810   17923     710     842   17812    8231+
+           8385    6269    6549   10687
CTETRA      8307       1   17923   12922   17253     710   13187   13214+
+          17275    8231   10686    6817
CTETRA      8308       1   17253   12922     375     710   13214   10035+
+           6816    6817   10686    5258
CTETRA      8309       1   16034     666   16042     711    7699    5280+
+          16308   10688    7113   10689
CTETRA      8310       1   17935   16034   16042     711   16305   16308+
+          16307    8330   10688   10689
CTETRA      8311       1   17935   16042   17605     711   16307   16334+
+          17606    8330   10689    8553
CTETRA      8312       1   17605   15721     711    1218   15744    5263+
+           8553    9234    9231   10690
CTETRA      8313       1   15721     367     711    1218    5260    5264+
+           5263    9231    9230   10690
CTETRA      8314       1   16042     666     367     711    5280    5269+
+           5282   10689    7113    5264
CTETRA      8315       1   16042     367   16048    1218    5282    9246+
+          16327   10691    9230   10692
CTETRA      8316       1   16042     711     367    1218   10689    5264+
+           5282   10691   10690    9230
CTETRA      8317       1   17605     711   16042    1218    8553   10689+
+          16334    9234   10690   10691
CTETRA      8318       1   17605   16042   16048    1218   16334   16327+
+          16335    9234   10691   10692
CTETRA      8319       1   15236     367     666     712    5267    5269+
+           5266   10693    5274    5273
CTETRA      8320       1   15721     712     367    1148    8564    5274+
+           5260    8534   10694    8535
CTETRA      8321       1   17930     712   15721    1148    8565    8564+
+          15745    9235   10694    8534
CTETRA      8322       1   17930   15236   15238     712   15440   15439+
+          15438    8565   10693   10695
CTETRA      8323       1   15236     666   15238     712    5266    7996+
+          15439   10693    5273   10695
CTETRA      8324       1   16991    1007   13656    1076    7486   10696+
+          14120    7948   10697    7949
CTETRA      8325       1   16991   11608   11610    1007   11665   11667+
+          11669    7486   10698   10699
CTETRA      8326       1   11608     713   11610    1007    9979    9980+
+          11667   10698    9981   10699
CTETRA      8327       1   11608     448     713    1007   10227    5279+
+           9979   10698   10234    9981
CTETRA      8328       1   11608     797     448    1007   10245   10233+
+          10227   10698   10242   10234
CTETRA      8329       1   13656    1007     797    1076   10696   10242+
+          10240    7949   10697   10241
CTETRA      8330       1   16991    1007   11610    1008    7486   10699+
+          11669    7488    7487   10700
CTETRA      8331       1   16991   13655    1008    1068   14116   10701+
+           7488    9239   10702   10078
CTETRA      8332       1   11610    1008    1130    1068   10700   10077+
+          10076    9240   10078    8428
CTETRA      8333       1   11610     346    1130    1008    9946    9949+
+          10076   10700    9985   10077
CTETRA      8334       1   11610     713     346    1008    9980    9947+
+           9946   10700    9984    9985
CTETRA      8335       1   11610    1007     713    1008   10699    9981+
+           9980   10700    7487    9984
CTETRA      8336       1   15309     616     668     622    4857    5287+
+           8417   10703    5289    5288
CTETRA      8337       1   15309     500     616     622   10325    4439+
+           4857   10703   10323    5289
CTETRA      8338       1   17461     500   15309     622    5739   10325+
+          15719    4494   10323   10703
CTETRA      8339       1   17461   15309   15252     622   15719   15718+
+          15524    4494   10703    8222
CTETRA      8340       1   15252   15309     668     622   15718    8417+
+           7107    8222   10703    5288
CTETRA      8341       1   16514     715     891     982    7379   10704+
+           6692    7315   10705    8539
CTETRA      8342       1   13789     715   13792     892   10706   10707+
+          14641    6693   10708    8607
CTETRA      8343       1   13789     715     892     717   10706   10708+
+           6693    5300   10709    6695
CTETRA      8344       1   16504     977     715     976   10710   10711+
+           7378    8510    7288   10712
CTETRA      8345       1   16504   16514     715     891   16527    7379+
+           7378    8715    6692   10704
CTETRA      8346       1   17755   16919   16917     892   16975   16977+
+          16971    6694   10713   10714
CTETRA      8347       1   16917   16919     715     892   16977   10715+
+          10716   10714   10713   10708
CTETRA      8348       1   13792     892     715     911    8607   10708+
+          10707    6867   10717   10718
CTETRA      8349       1   17754     892   13792     911    8606    8607+
+          14639    6866   10717    6867
CTETRA      8350       1   17754   16919   17755     892   16976   16975+
+          17778    8606   10713    6694
CTETRA      8351       1   13789     714     715     717   10719    5293+
+          10706    5300   10720   10709
CTETRA      8352       1   13562     714   13789     717   10721   10719+
+          14620    5299   10720    5300
CTETRA      8353       1   16512     779     714     902    8513   10722+
+           7148    6755    8514    7149
CTETRA      8354       1   16503     714   16512    1010    8487    7148+
+          16521    7509   10723    7510
CTETRA      8355       1   16503   16504     714     976   16525    7942+
+           8487    8508    8510   10724
CTETRA      8356       1   16504     715     714     976    7378    5293+
+           7942    8510   10712   10724
CTETRA      8357       1   13789     715     714     716   10706    5293+
+          10719   10725    5297    5296
CTETRA      8358       1   13789   13792     715     716   14641   10707+
+          10706   10725   10726    5297
CTETRA      8359       1   17877   13792   13789     716   14640   14641+
+          14619    7946   10726   10725
CTETRA      8360       1   17877   13789   17878     716   14619   14618+
+          17889    7946   10725    7947
CTETRA      8361       1   17878   13789   13562     716   14618   14620+
+          13795    7947   10725   10727
CTETRA      8362       1   13562   13789     714     716   14620   10719+
+          10721   10727   10725    5296
CTETRA      8363       1   16917     715     714     717   10716    5293+
+          10728   10729   10709   10720
CTETRA      8364       1   16917     892     715     717   10714   10708+
+          10716   10729    6695   10709
CTETRA      8365       1   17755     892   16917     717    6694   10714+
+          16971    5298    6695   10729
CTETRA      8366       1   17755   13562     717     779   13793    5299+
+           5298    9046    5875   10730
CTETRA      8367       1   13562     714     717     779   10721   10720+
+           5299    5875   10722   10730
CTETRA      8368       1   16512     714     779    1010    7148   10722+
+           8513    7510   10723   10731
CTETRA      8369       1   16917     717     714     779   10729   10720+
+          10728   10732   10730   10722
CTETRA      8370       1   17755     717   16917     779    5298   10729+
+          16971    9046   10730   10732
CTETRA      8371       1   17755   16917   17756     779   16971   16970+
+          17766    9046   10732    8604
CTETRA      8372       1   17756   16917   16918     779   16970   16972+
+          16966    8604   10732   10733
CTETRA      8373       1   16917      89   16918     779   10504   10503+
+          16972   10732    5874   10733
CTETRA      8374       1   16512     779      89    1010    8513    5874+
+           7361    7510   10731    7511
CTETRA      8375       1   16704     121     605     809    1679    4401+
+          10508   10734    8626    6052
CTETRA      8376       1   16704     456     121     809   10252    3302+
+           1679   10734   10254    8626
CTETRA      8377       1   17730     456   16704     809    5307   10252+
+          16784    6051   10254   10734
CTETRA      8378       1   17730   16704     605     809   16784   10508+
+           5303    6051   10734    6052
CTETRA      8379       1   12740     719     477     829    6090    5327+
+           4728    6193   10735    7447
CTETRA      8380       1   17169     719   12740     829    7277    6090+
+          12804    6192   10735    6193
CTETRA      8381       1   17169   12186   17170     719   12576   12578+
+          17207    7277   10736    7627
CTETRA      8382       1   17170   12186     510     719   12578    5220+
+           5312    7627   10736    5326
CTETRA      8383       1   12186     477     510     719    5223    5319+
+           5220   10736    5327    5326
CTETRA      8384       1   12112     486     641     720    5334    4690+
+           5336   10737    5332    5331
CTETRA      8385       1   12080     486   12112     720    5059    5334+
+          12302   10738    5332   10737
CTETRA      8386       1   17181   12080   12112     720   12306   12302+
+          12304    7840   10738   10737
CTETRA      8387       1   17181   12112   17182     720   12304   12305+
+          17192    7840   10737    8400
CTETRA      8388       1   17182   12736     720     992   12779    8401+
+           8400    7384    7386   10739
CTETRA      8389       1   12736     641     720     992    4685    5331+
+           8401    7386    8692   10739
CTETRA      8390       1   16003     613     672     722   10521    5744+
+           9023   10740    5361    5745
CTETRA      8391       1   17592     613   16003     722    4466   10521+
+          16168    5343    5361   10740
CTETRA      8392       1   17592   15735     722     812   15824    5344+
+           5343    6604    6083   10741
CTETRA      8393       1   15735     672     722     812    6079    5745+
+           5344    6083    7056   10741
CTETRA      8394       1   15979   16003     672     812   16161    9023+
+           8525   10742   10743    7056
CTETRA      8395       1   16003     722     672     812   10740    5745+
+           9023   10743   10741    7056
CTETRA      8396       1   17592     722   16003     812    5343   10740+
+          16168    6604   10741   10743
CTETRA      8397       1   17591   17592   16003     812   17614   16168+
+          16160    6084    6604   10743
CTETRA      8398       1   17591   16003   15979     812   16160   16161+
+          16158    6084   10743   10742
CTETRA      8399       1   16048     367     724     725    9246    7370+
+          10010   10744    7371    5364
CTETRA      8400       1   15201     725     367    1236    8556    7371+
+           8229   10745   10746   10747
CTETRA      8401       1   15201     364     725    1236    7715    5363+
+           8556   10745   10748   10746
CTETRA      8402       1   16048     724     364     725   10010    5359+
+           7961   10744    5364    5363
CTETRA      8403       1   16054     118     492     726    2751    3569+
+          10313   10749    8235   10311
CTETRA      8404       1   16054     364     118     726    4852    2763+
+           2751   10749    5372    8235
CTETRA      8405       1   16054     538     364     726    4855    4854+
+           4852   10749    5373    5372
CTETRA      8406       1   16054     972     538     726   10315    7259+
+           4855   10749   10314    5373
CTETRA      8407       1   16054     492     972     726   10313   10312+
+          10315   10749   10311   10314
CTETRA      8408       1   15211     364   15212     727    5795    7716+
+          15334   10750    5379   10751
CTETRA      8409       1   17470   15211   15212     727   15342   15334+
+          15344    9034   10750   10751
CTETRA      8410       1   17470   15212   17471     727   15344   15340+
+          17477    9034   10751    8984
CTETRA      8411       1   17471   15722     727    1152   15749    5378+
+           8984    8558    8557   10752
CTETRA      8412       1   15722     364     727    1152    5376    5379+
+           5378    8557    9038   10752
CTETRA      8413       1   15201   15212     364    1152   15330    7716+
+           7715   10753   10754    9038
CTETRA      8414       1   15212     727     364    1152   10751    5379+
+           7716   10754   10752    9038
CTETRA      8415       1   17471     727   15212    1152    8984   10751+
+          15340    8558   10752   10754
CTETRA      8416       1   17471   15212   15201    1152   15340   15330+
+          15338    8558   10754   10753
CTETRA      8417       1   15211     364     728    1091    5795    5382+
+          10755    8090    8092   10756
CTETRA      8418       1   16037     364   16039     728    6483    5386+
+          16289   10757    5382   10758
CTETRA      8419       1   17603   16037   16039     728   16296   16289+
+          16297    9031   10757   10758
CTETRA      8420       1   17602   17603   16039     728   17625   16297+
+          16301    9030    9031   10758
CTETRA      8421       1   17602   15724     728     861   15843    9032+
+           9030    9035    6479   10759
CTETRA      8422       1   15724     860     728     861    6478    9257+
+           9032    6479    6481   10759
CTETRA      8423       1   15206   15211     728     984   15343   10755+
+          10760    7330    9039   10761
CTETRA      8424       1   16037     364     728     729    6483    5382+
+          10757   10762    5385    5384
CTETRA      8425       1   15722     729     364     844    7081    5385+
+           5376    6287   10763    8629
CTETRA      8426       1   17603     729   15722     844    9033    7081+
+          15848    9233   10763    6287
CTETRA      8427       1   17603   16037     728     729   16296   10757+
+           9031    9033   10762    5384
CTETRA      8428       1   17840   13723   13651     730   14367   14360+
+          14256    7199   10764   10765
CTETRA      8429       1   17840   13651   17841     730   14256   14255+
+          17843    7199   10765    7200
CTETRA      8430       1   17841   13651      53     730   14255    9363+
+           7209    7200   10765    9365
CTETRA      8431       1   13651      50      53     730    7220    1391+
+           9363   10765    5391    9365
CTETRA      8432       1   13651   13723      50     730   14360    3596+
+           7220   10765   10764    5391
CTETRA      8433       1   17840   13723     730     731   14367   10764+
+           7199    7207   10766    5394
CTETRA      8434       1   13723      50     730     731    3596    5391+
+          10764   10766    5395    5394
CTETRA      8435       1   11689     731      50     899    7208    5395+
+           6728    6729   10767    6730
CTETRA      8436       1   17840     731   11689     899    7207    7208+
+          11738    9014   10767    6729
CTETRA      8437       1   13676     192     181     732    4868    4870+
+           4867   10768    5400    5399
CTETRA      8438       1   13676   13685     192     732   14203    5844+
+           4868   10768   10769    5400
CTETRA      8439       1   17856   13685   13676     732   14210   14203+
+          14206    8297   10769   10768
CTETRA      8440       1   17856   13676   17857     732   14206   14207+
+          17865    8297   10768    7526
CTETRA      8441       1   17857   11785     732    1128   11836    7527+
+           7526    8386    8388   10770
CTETRA      8442       1   11785     181     732    1128    1910    5399+
+           7527    8388    9123   10770
CTETRA      8443       1   16080     301   16088     734    5401    5402+
+          16477   10771    5424   10772
CTETRA      8444       1   17671   16080   16088     734   16454   16477+
+          16478    7377   10771   10772
CTETRA      8445       1   17671   15868     734    1143   15962    5423+
+           7377    8520    8519   10773
CTETRA      8446       1   15868     301     734    1143    5421    5424+
+           5423    8519    8770   10773
CTETRA      8447       1   16088     734     301    1143   10772    5424+
+           5402   10774   10773    8770
CTETRA      8448       1   17671     734   16088    1143    7377   10772+
+          16478    8520   10773   10774
CTETRA      8449       1   17670   17671   16088    1143   17691   16478+
+          16480    8518    8520   10774
CTETRA      8450       1   17670   16088     301    1143   16480    5402+
+           5741    8518   10774    8770
CTETRA      8451       1   16031     277     512     737    2312    7270+
+           3697   10775    5468    7684
CTETRA      8452       1   17694     277   16031     737    5465    2312+
+          16320    5466    5468   10775
CTETRA      8453       1   17933   17694   16031     737   17701   16320+
+          16449    7265    5466   10775
CTETRA      8454       1   17933   16031     512     737   16449    3697+
+           4840    7265   10775    7684
CTETRA      8455       1   17695     365   16045     739    6889    6890+
+          16318    8501    5478   10776
CTETRA      8456       1   17694   17695   16045     739   17700   16318+
+          16317    6533    8501   10776
CTETRA      8457       1   17694   16045     277     739   16317    2313+
+           5465    6533   10776    5477
CTETRA      8458       1   16045     365     277     739    6890    3707+
+           2313   10776    5478    5477
CTETRA      8459       1   14728     422   14729     740    3089    3088+
+          15022   10777    7813   10778
CTETRA      8460       1   14728     554     422     740    3999   10185+
+           3089   10777    9078    7813
CTETRA      8461       1   14728     554     740    1234    3999    9078+
+          10777   10640   10779   10780
CTETRA      8462       1   14728     740     388    1234   10777    5481+
+           6732   10640   10780   10643
CTETRA      8463       1   14728     465     388     740    5458    4143+
+           6732   10777    5482    5481
CTETRA      8464       1   14728   14729     465     740   15022    5459+
+           5458   10777   10778    5482
CTETRA      8465       1   17284      63     743     824    1419    5503+
+           5502    6140    6735   10781
CTETRA      8466       1   13648     455      63     743    3364    3297+
+           3366   10782    5645    5503
CTETRA      8467       1   13648     108     455     743    9491    5644+
+           3364   10782    5669    5645
CTETRA      8468       1   17284     743     108     824    5502    5669+
+           1609    6140   10781    9490
CTETRA      8469       1   13648      63      64     824    3366    1422+
+           9382   10783    6735    6142
CTETRA      8470       1   13648     743      63     824   10782    5503+
+           3366   10783   10781    6735
CTETRA      8471       1   13648     108     743     824    9491    5669+
+          10782   10783    9490   10781
CTETRA      8472       1   13648     823     108     824    9497    9489+
+           9491   10783    6141    9490
CTETRA      8473       1   13648      64     823     824    9382    6139+
+           9497   10783    6142    6141
CTETRA      8474       1   13597      89     401     746    6948    5524+
+          10148   10784    5528    5527
CTETRA      8475       1   16512     746      89     901    8597    5528+
+           7361    6752   10785    8505
CTETRA      8476       1   17879     746   16512     901    9020    8597+
+          16560    6751   10785    6752
CTETRA      8477       1   17943   17879   13597     746   17882   13936+
+          13949    5536    9020   10784
CTETRA      8478       1   17943   13597     401     746   13949   10148+
+           4411    5536   10784    5527
CTETRA      8479       1   15222     242    1140     748    8341    8491+
+          10152   10786    5552    8492
CTETRA      8480       1   15222     747     242     748    6628    5549+
+           8341   10786    5553    5552
CTETRA      8481       1   15740     748     747    1204    6928    5553+
+           6684    9068   10787    9069
CTETRA      8482       1   17453     748   15740    1204    6927    6928+
+          15802    9247   10787    9068
CTETRA      8483       1   17453   15222   17454     748   15389   15388+
+          17480    6927   10786    8355
CTETRA      8484       1   17454   15222    1140     748   15388   10152+
+           8796    8355   10786    8492
CTETRA      8485       1   15858     751    1145    1195   10788    9698+
+           8972    8967   10789    9697
CTETRA      8486       1   15858     609     751    1195    8803    5569+
+          10788    8967    9005   10789
CTETRA      8487       1   16063     240     609     751    9703    5761+
+           8805   10790    9704    5569
CTETRA      8488       1   16063     238     240     751    9700    9702+
+           9703   10790    9701    9704
CTETRA      8489       1   16063     237     238     751    9694    2148+
+           9700   10790    9699    9701
CTETRA      8490       1   16063    1145     237     751    9695    9693+
+           9694   10790    9698    9699
CTETRA      8491       1   17660   16063   15982    1195   16380   16383+
+          16382    8968   10791   10792
CTETRA      8492       1   15982   16063     609    1195   16383    8805+
+           8804   10792   10791    9005
CTETRA      8493       1   16063     751     609    1195   10790    5569+
+           8805   10791   10789    9005
CTETRA      8494       1   16063    1145     751    1195    9695    9698+
+          10790   10791    9697   10789
CTETRA      8495       1   17660    1145   16063    1195    8971    9695+
+          16380    8968    9697   10791
CTETRA      8496       1   15858    1145     751     752    8972    9698+
+          10788   10793    9007    5573
CTETRA      8497       1   15850    1145   15858     752    8526    8972+
+          15910   10794    9007   10793
CTETRA      8498       1   17527   15850   15858     752   15911   15910+
+          15912    7602   10794   10793
CTETRA      8499       1   17526   17527   15858     752   17552   15912+
+          15913    5759    7602   10793
CTETRA      8500       1   17526   15858     609     752   15913    8803+
+           5558    5759   10793    5572
CTETRA      8501       1   15858     751     609     752   10788    5569+
+           8803   10793    5573    5572
CTETRA      8502       1   12177     479     477     754    4943    5603+
+           3454   10795    5606    5605
CTETRA      8503       1   17917     479   12177     754    4944    4943+
+          12545    7443    5606   10795
CTETRA      8504       1   17168   17917   12177     754   17204   12545+
+          12546    7462    7443   10795
CTETRA      8505       1   17168   12177     647     754   12546   10571+
+           4716    7462   10795    7055
CTETRA      8506       1   12177     477     647     754    3454    4730+
+          10571   10795    5605    7055
CTETRA      8507       1   16069     242     756     755    4803    8755+
+          10438   10796    5618   10439
CTETRA      8508       1   16069     405     242     755    8499    2990+
+           4803   10796    5619    5618
CTETRA      8509       1   16069     403     405     755    6272    2988+
+           8499   10796    8500    5619
CTETRA      8510       1   16069     756     403     755   10438    5624+
+           6272   10796   10439    8500
CTETRA      8511       1   12603      35     757     786    5097    6453+
+           5925    5922    6398   10797
CTETRA      8512       1   12099      35   12102     757    8342    5106+
+          12263   10798    6453   10799
CTETRA      8513       1   17101   12099   12102     757   12270   12263+
+          12269    5626   10798   10799
CTETRA      8514       1   17101   12102   17102     757   12269   12268+
+          17128    5626   10799    5911
CTETRA      8515       1   17102   12603     757     786   12725    5925+
+           5911    6180    5922   10797
CTETRA      8516       1   12099      35     757     758    8342    6453+
+          10798   10800    6821    5629
CTETRA      8517       1   12099     591      35     758   10476    6397+
+           8342   10800   10477    6821
CTETRA      8518       1   17101     591   12099     758    5631   10476+
+          12270    5628   10477   10800
CTETRA      8519       1   17101   12099     757     758   12270   10798+
+           5626    5628   10800    5629
CTETRA      8520       1   12086   12089     526     759   12205    4555+
+           8394   10801   10802    7007
CTETRA      8521       1   12617     759     526     934    7372    7007+
+           5052    7021   10803    8689
CTETRA      8522       1   17116     759   12617     934    7806    7372+
+          12697    8398   10803    7021
CTETRA      8523       1   17116   12089   17117     759   12206   12207+
+          17122    7806   10802    5640
CTETRA      8524       1   17117   12089   12086     759   12207   12205+
+          12208    5640   10802   10801
CTETRA      8525       1   12086     759     526     760   10801    7007+
+           8394   10804    5643    7008
CTETRA      8526       1   17117     759   12086     760    5640   10801+
+          12208    5641    5643   10804
CTETRA      8527       1   17117   12619     760     585   12696    8708+
+           5641    4254    4256   10805
CTETRA      8528       1   12619     777     760     585    5861    8709+
+           8708    4256    9171   10805
CTETRA      8529       1   12919     526     760    1235    3805    7008+
+          10806   10666   10807   10808
CTETRA      8530       1   13685     761     192     788    5848    7614+
+           5844    5934   10809    5935
CTETRA      8531       1   16999     761   13685     788    5847    5848+
+          14217    7572   10809    5934
CTETRA      8532       1   16998   16999   11602     761   17005   11629+
+          11626    5660    5847   10810
CTETRA      8533       1   16998   11602   11600     761   11626   11625+
+          11624    5660   10810   10811
CTETRA      8534       1   11600   11602     192     761   11625   10065+
+          10812   10811   10810    7614
CTETRA      8535       1   11600     761     192     762   10811    7614+
+          10812   10813    5663    5846
CTETRA      8536       1   16998     761   11600     762    5660   10811+
+          11624    5661    5663   10813
CTETRA      8537       1   16998   13684     762     973   14201    5849+
+           5661    9182    7262   10814
CTETRA      8538       1   13684     193     762     973    5835    5845+
+           5849    7262    7264   10814
CTETRA      8539       1   11600     192     193     762   10812    1959+
+           7141   10813    5846    5845
CTETRA      8540       1   16995   13681     763     931   14240    5665+
+           7194    7991    7009   10815
CTETRA      8541       1   13681     474     763     931    3437    5666+
+           5665    7009    7011   10815
CTETRA      8542       1   11599     694     474     763    6080    5681+
+          10816   10817    7039    5666
CTETRA      8543       1   16996     694   11599     763    5678    6080+
+          11612    7159    7039   10817
CTETRA      8544       1   16995   16996   11599     763   17002   11612+
+          11615    7194    7159   10817
CTETRA      8545       1   16995   11599   11606     931   11615   11647+
+          11649    7991   10818   10819
CTETRA      8546       1   11599     236   11606     931    9996    9517+
+          11647   10818    7010   10819
CTETRA      8547       1   11599     474     236     931   10816    4670+
+           9996   10818    7011    7010
CTETRA      8548       1   11599     763     474     931   10817    5666+
+          10816   10818   10815    7011
CTETRA      8549       1   16995     763   11599     931    7194   10817+
+          11615    7991   10815   10818
CTETRA      8550       1   15856     608     286     764    6312    6311+
+           2650   10820    6336    5688
CTETRA      8551       1   17525     608   15856     764    5567    6312+
+          15902    6337    6336   10820
CTETRA      8552       1   17524   17525   15856     764   17548   15902+
+          15901    5687    6337   10820
CTETRA      8553       1   17524   15856     286     764   15901    2650+
+           5685    5687   10820    5688
CTETRA      8554       1   17924   15037     680     766   15193   10636+
+           5021    5797   10821    5704
CTETRA      8555       1   15037     390     680     766   10627    5702+
+          10636   10821    5705    5704
CTETRA      8556       1   15037     558     390     766    6098    6310+
+          10627   10821    6921    5705
CTETRA      8557       1   12931     766     558     815    5796    6921+
+           4639    6110   10822    6914
CTETRA      8558       1   17924     766   12931     815    5797    5796+
+          13382    7927   10822    6110
CTETRA      8559       1   16018     668     880     767    6289    8436+
+          10163   10823    6427    6621
CTETRA      8560       1   16018      33     668     767    6290    6280+
+           6289   10823    6428    6427
CTETRA      8561       1   15730     767      33     852    5715    6428+
+           7144    6350   10824    8434
CTETRA      8562       1   17596     767   15730     852    5713    5715+
+          15831    6349   10824    6350
CTETRA      8563       1   17595   17596   16018     767   17618   16272+
+          16222    6620    5713   10823
CTETRA      8564       1   17595   16018     880     767   16222   10163+
+           6618    6620   10823    6621
CTETRA      8565       1   15983      33   16018     852    1322    6290+
+          16275   10825    8434   10826
CTETRA      8566       1   17596   15983   16018     852   16121   16275+
+          16272    6349   10825   10826
CTETRA      8567       1   17596   16018     767     852   16272   10823+
+           5713    6349   10826   10824
CTETRA      8568       1   16018      33     767     852    6290    6428+
+          10823   10826    8434   10824
CTETRA      8569       1   12184     511     509     830   10348    3690+
+           3693   10827    6198    8945
CTETRA      8570       1   17170     511   12184     830    6195   10348+
+          12579    6196    6198   10827
CTETRA      8571       1   17170   12184   17171     830   12579   12567+
+          17208    6196   10827    8760
CTETRA      8572       1   17171   12184     671     830   12567   10615+
+           7870    8760   10827   10616
CTETRA      8573       1   12184     509     671     830    3693    4909+
+          10615   10827    8945   10616
CTETRA      8574       1   15850    1145     752    1026    8526    9007+
+          10794   10828    9009    7604
CTETRA      8575       1   15850     237    1145    1026    9690    9693+
+           8526   10828    9692    9009
CTETRA      8576       1   17527     237   15850    1026    5757    9690+
+          15911    7603    9692   10828
CTETRA      8577       1   17527   15850     752    1026   15911   10794+
+           7602    7603   10828    7604
CTETRA      8578       1   15869     513     769    1097    5770    5772+
+           5771    8129    8131   10829
CTETRA      8579       1   16079     513   16080     769    4268    7960+
+          16453   10830    5772   10831
CTETRA      8580       1   17672   16079   16080     769   16448   16453+
+          16452    6318   10830   10831
CTETRA      8581       1   17672   15869     769    1097   15967    5771+
+           6318    8335    8129   10829
CTETRA      8582       1   16080     301     734    1097    5401    5424+
+          10771   10832    8130    8403
CTETRA      8583       1   16080     513     301    1097    7960    4216+
+           5401   10832    8131    8130
CTETRA      8584       1   16080     769     513    1097   10831    5772+
+           7960   10832   10829    8131
CTETRA      8585       1   17672     769   16080    1097    6318   10831+
+          16452    8335   10829   10832
CTETRA      8586       1   17671   17672   16080    1097   17692   16452+
+          16454    8334    8335   10832
CTETRA      8587       1   17671   16080     734    1097   16454   10771+
+           7377    8334   10832    8403
CTETRA      8588       1   15037   15039     558     815   15087    6099+
+           6098   10833   10834    6914
CTETRA      8589       1   17345   15039   15037     815   15088   15087+
+          15089    6109   10834   10833
CTETRA      8590       1   17924   17345   15037     815   17350   15089+
+          15193    7927    6109   10833
CTETRA      8591       1   17924   15037     766     815   15193   10821+
+           5797    7927   10833   10822
CTETRA      8592       1   15037     558     766     815    6098    6921+
+          10821   10833    6914   10822
CTETRA      8593       1   12093     142   12095     773    7266    7268+
+          12243   10835    5822   10836
CTETRA      8594       1   12093     582     142     773    6800    4260+
+           7266   10835    5823    5822
CTETRA      8595       1   12916     773     582     782    5871    5823+
+           7425    5890   10837    8690
CTETRA      8596       1   12916      60     773     782    5869    5872+
+           5871    5890    5889   10837
CTETRA      8597       1   12090      60   12093     773    8064    8066+
+          12242   10838    5872   10835
CTETRA      8598       1   12090   12093   12095     773   12242   12243+
+          12238   10838   10835   10836
CTETRA      8599       1   11602     192     761     788   10065    7614+
+          10810   10839    5935   10809
CTETRA      8600       1   11602   11603     192     788   11630   10058+
+          10065   10839   10840    5935
CTETRA      8601       1   16999   11603   11602     788   11631   11630+
+          11629    7572   10840   10839
CTETRA      8602       1   16999   11602     761     788   11629   10810+
+           5847    7572   10839   10809
CTETRA      8603       1   17398   15044   15046     774   15115   15124+
+          15126    5850   10841   10842
CTETRA      8604       1   17828     776     774    1022    5856   10843+
+           7929    7581    8251    7928
CTETRA      8605       1   17828     774    1216     211    7929   10844+
+           9653    2024    8462    9655
CTETRA      8606       1   17398     774   13601    1216    5850    5852+
+          13991    9211   10844    9212
CTETRA      8607       1   15044    1219     209    1216    9658    9651+
+           9659   10845    9252    9654
CTETRA      8608       1   17397    1219   15044    1216    9251    9658+
+          15114    9210    9252   10845
CTETRA      8609       1   17397   15044   17398    1216   15114   15115+
+          17416    9210   10845    9211
CTETRA      8610       1   17398   15044     774    1216   15115   10841+
+           5850    9211   10845   10844
CTETRA      8611       1   17828    1216     774     776    9653   10844+
+           7929    5856   10846   10843
CTETRA      8612       1   17828     209    1216     776    2027    9654+
+           9653    5856    5858   10846
CTETRA      8613       1   17944   13601   13609     211   13953   14630+
+          13992    2026   10847   10848
CTETRA      8614       1   13601     774   13609     211    5852    5851+
+          14630   10847    8462   10848
CTETRA      8615       1   13601    1216     774     211    9212   10844+
+           5852   10847    9655    8462
CTETRA      8616       1   13601     209    1216     211    9650    9654+
+           9212   10847    9652    9655
CTETRA      8617       1   17890     209   13601     211    2023    9650+
+          13952    2025    9652   10847
CTETRA      8618       1   17944   17890   13601     211   17904   13952+
+          13953    2026    2025   10847
CTETRA      8619       1   15044     774    1216     776   10841   10844+
+          10845   10849   10843   10846
CTETRA      8620       1   15044   15046     774     776   15124   10842+
+          10841   10849   10850   10843
CTETRA      8621       1   17829     776    1220    1133    8250   10851+
+           9253    8444   10852    9255
CTETRA      8622       1   17829   16607     776    1101   16653    5857+
+           8250    8740    8150   10853
CTETRA      8623       1   16607     209     776    1101    2015    5858+
+           5857    8150    8152   10853
CTETRA      8624       1   15044    1216     209     776   10845    9654+
+           9659   10849   10846    5858
CTETRA      8625       1   15044     209     210    1101    9659    2018+
+           9661   10854    8152    8151
CTETRA      8626       1   15044     776     209    1101   10849    5858+
+           9659   10854   10853    8152
CTETRA      8627       1   17829    1101     776    1133    8740   10853+
+           8250    8444   10855   10852
CTETRA      8628       1   17829     210    1101    1133    8456    8151+
+           8740    8444    9662   10855
CTETRA      8629       1   12919      60     584     777    5883    7857+
+          10664   10856    5862    7858
CTETRA      8630       1   12919     653      60     777   10582    4745+
+           5883   10856    5863    5862
CTETRA      8631       1   17251     653   12919     777    6797   10582+
+          13177    6798    5863   10856
CTETRA      8632       1   17251   12618     777     908   12678    7859+
+           6798    6804    6803   10857
CTETRA      8633       1   12618     760     777     908    5642    8709+
+           7859    6803    8672   10857
CTETRA      8634       1   12919     760     777    1235   10806    8709+
+          10856   10666   10808   10858
CTETRA      8635       1   12919     777     584    1235   10856    7858+
+          10664   10666   10858   10667
CTETRA      8636       1   16914      80     775     778    9443    9430+
+          10859   10860    9432    5866
CTETRA      8637       1   16914    1135      80     778    9439    9435+
+           9443   10860    9440    9432
CTETRA      8638       1   17765    1135   16914     778    8457    9439+
+          16953    9100    9440   10860
CTETRA      8639       1   17927   17765   16914     778   17776   16953+
+          16954    5865    9100   10860
CTETRA      8640       1   17927   16914     775     778   16954   10859+
+           5864    5865   10860    5866
CTETRA      8641       1   16914     775      80    1200   10859    9430+
+           9443   10861    9647    9447
CTETRA      8642       1   17927     775   16914    1200    5864   10859+
+          16954    9015    9647   10861
CTETRA      8643       1   17927   16914   17804    1200   16954   16952+
+          17806    9015   10861    9016
CTETRA      8644       1   17940   17804   16914    1200   17805   16952+
+          16951    9099    9016   10861
CTETRA      8645       1   16914    1200    1103    1191   10861    9339+
+           9333   10862    9341    8943
CTETRA      8646       1   16914    1222    1103    1200    9442    9335+
+           9333   10861    9446    9339
CTETRA      8647       1   16914      80    1222    1200    9443    9433+
+           9442   10861    9447    9446
CTETRA      8648       1   12093     582     773     782    6800    5823+
+          10835   10863    8690   10837
CTETRA      8649       1   12091     582   12093     782    6801    6800+
+          12229   10864    8690   10863
CTETRA      8650       1   12091   12093      60     782   12229    8066+
+           8065   10864   10863    5889
CTETRA      8651       1   12093     773      60     782   10835    5872+
+           8066   10863   10837    5889
CTETRA      8652       1   16918     779      89     780   10733    5874+
+          10503   10865    5878    5877
CTETRA      8653       1   17756     779   16918     780    8604   10733+
+          16966    6509    5878   10865
CTETRA      8654       1   17756   13570     780     864   13825    6510+
+           6509    7286    6506   10866
CTETRA      8655       1   13570      89     780     864    6505    5877+
+           6510    6506    6508   10866
CTETRA      8656       1   12091      60     584     781    8065    7857+
+          10669   10867    5886   10665
CTETRA      8657       1   12916     781      60     783    5884    5886+
+           5869    5891   10868    5892
CTETRA      8658       1   12916   12918     781     783   13162    7695+
+           5884    5891    8261   10868
CTETRA      8659       1   12918    1037     781    1184    7696    7698+
+           7695    8849    8851   10869
CTETRA      8660       1   12086   12091     584     781   12223   10669+
+           7863   10870   10867   10665
CTETRA      8661       1   12091     582     782     783    6801    8690+
+          10864   10871    8260    5893
CTETRA      8662       1   12918     783     582    1184    8261    8260+
+           4280    8849   10872    9259
CTETRA      8663       1   12918     781     783    1184    7695   10868+
+           8261    8849   10869   10872
CTETRA      8664       1   12091      60     781     783    8065    5886+
+          10867   10871    5892   10868
CTETRA      8665       1   12091     782      60     783   10864    5889+
+           8065   10871    5893    5892
CTETRA      8666       1   12167   12168     255    1042   12508    4456+
+           5521   10873   10874    7854
CTETRA      8667       1   12168     618     255    1042   10531    4461+
+           4456   10874   10533    7854
CTETRA      8668       1   17105     618   12168    1042    7398   10531+
+          12506    7731   10533   10874
CTETRA      8669       1   17105   12168   12167    1042   12506   12508+
+          12507    7731   10874   10873
CTETRA      8670       1   16039     627   16040     784    8933    5683+
+          16294   10875    5903   10876
CTETRA      8671       1   17602   16039   16040     784   16301   16294+
+          16302    7849   10875   10876
CTETRA      8672       1   17601   17602   16040     784   17624   16302+
+          16304    7848    7849   10876
CTETRA      8673       1   17601   15725     784     985   15841    5902+
+           7848    7336    7333   10877
CTETRA      8674       1   15725     627     784     985    5898    5903+
+           5902    7333    7335   10877
CTETRA      8675       1   17601   16040     343     985   16304    9938+
+           6581    7336   10878    7334
CTETRA      8676       1   16040     627     343     985    5683    5899+
+           9938   10878    7335    7334
CTETRA      8677       1   16040     784     627     985   10876    5903+
+           5683   10878   10877    7335
CTETRA      8678       1   17601     784   16040     985    7848   10876+
+          16304    7336   10877   10878
CTETRA      8679       1   17922     165   13384     929    7341    9554+
+          13411    7342    7343   10879
CTETRA      8680       1   17922   13384     434     929   13411   10210+
+           5915    7342   10879   10211
CTETRA      8681       1   13384     431     434     929    9177    3176+
+          10210   10879    6986   10211
CTETRA      8682       1   13384     155     431     929    9555    3166+
+           9177   10879    6987    6986
CTETRA      8683       1   13384     165     155     929    9554    8069+
+           9555   10879    7343    6987
CTETRA      8684       1   12101   12102     447     785   12267    3263+
+           3262   10880   10881    5921
CTETRA      8685       1   17102   12102   12101     785   12268   12267+
+          12266    6179   10881   10880
CTETRA      8686       1   17102   12101   17103     785   12266   12258+
+          17127    6179   10880    6451
CTETRA      8687       1   17103   12101     607     785   12258   10513+
+           6808    6451   10880   10514
CTETRA      8688       1   12101     447     607     785    3262    4414+
+          10513   10880    5921   10514
CTETRA      8689       1   12102     447     785     786    3263    5921+
+          10881   10882    5924    5923
CTETRA      8690       1   12102      35     447     786    5106    5098+
+           3263   10882    6398    5924
CTETRA      8691       1   12102     757      35     786   10799    6453+
+           5106   10882   10797    6398
CTETRA      8692       1   17102     757   12102     786    5911   10799+
+          12268    6180   10797   10882
CTETRA      8693       1   17102   12102     785     786   12268   10881+
+           6179    6180   10882    5923
CTETRA      8694       1   11877     530      54     592   10385    5957+
+           1392   10883    4323    5958
CTETRA      8695       1   17914     530   11877     592    3860   10385+
+          11951    4324    4323   10883
CTETRA      8696       1   17914   11877   17056     592   11951   11950+
+          17057    4324   10883    6482
CTETRA      8697       1   17056   11877      44     592   11950    9325+
+           5929    6482   10883    9324
CTETRA      8698       1   11877      54      44     592    1392    4317+
+           9325   10883    5958    9324
CTETRA      8699       1   13685     192     787     789    5844    5932+
+          10884    5936    5938   10885
CTETRA      8700       1   13652   13685     787     789   14209   10884+
+          10886    7376    5936   10885
CTETRA      8701       1   17855   13652   13685     787   14115   14209+
+          14208    6725   10886   10884
CTETRA      8702       1   17855   13685   17856     787   14208   14210+
+          17866    6725   10884    6724
CTETRA      8703       1   17856   11786     787    1167   11838    5931+
+           6724    8853    8681   10887
CTETRA      8704       1   11786     192     787    1167    5397    5932+
+           5931    8681    8683   10887
CTETRA      8705       1   13685     192     732    1167    5844    5400+
+          10769   10888    8683    8682
CTETRA      8706       1   13685     787     192    1167   10884    5932+
+           5844   10888   10887    8683
CTETRA      8707       1   17856     787   13685    1167    6724   10884+
+          14210    8853   10887   10888
CTETRA      8708       1   17856   13685     732    1167   14210   10769+
+           8297    8853   10888    8682
CTETRA      8709       1   11603     787     192     789   10889    5932+
+          10058   10890   10885    5938
CTETRA      8710       1   13652     789     787    1237    7376   10885+
+          10886   10891   10892   10893
CTETRA      8711       1   16999     789   13652     898    7375    7376+
+          14113    6718   10894   10895
CTETRA      8712       1   11603     789     788     898   10890    5937+
+          10840    6720   10894   10896
CTETRA      8713       1   11603     192     788     789   10058    5935+
+          10840   10890    5938    5937
CTETRA      8714       1   17018   17019   11600     790   17028   11622+
+          11623    7520    5941   10897
CTETRA      8715       1   17018   11600   11602     790   11623   11625+
+          11627    7520   10897   10898
CTETRA      8716       1   11600     192   11602     790   10812   10065+
+          11625   10897    7452   10898
CTETRA      8717       1   11600     193     192     790    7141    1959+
+          10812   10897    5943    7452
CTETRA      8718       1   17019     193   11600     790    5238    7141+
+          11622    5941    5943   10897
CTETRA      8719       1   13653   13654     410     791   14129    7212+
+           7211   10899   10900    5969
CTETRA      8720       1   17813     791     410    1030    7951    5969+
+           5275    7632   10901    7633
CTETRA      8721       1   17813   17941     791    1030   17817    5961+
+           7951    7632    8658   10901
CTETRA      8722       1   17941   13654   17833     791   14125   14124+
+          17851    5961   10900    5962
CTETRA      8723       1   17833   13654   13656     791   14124   14128+
+          14130    5962   10900   10902
CTETRA      8724       1   13653   13656   13654     791   14123   14128+
+          14129   10899   10902   10900
CTETRA      8725       1   13653     791     410     793   10899    5969+
+           7211   10903    5972    5971
CTETRA      8726       1   13653   13656     791     793   14123   10902+
+          10899   10903   10904    5972
CTETRA      8727       1   13653     797   13656     793   10238   10240+
+          14123   10903    5986   10904
CTETRA      8728       1   13653     410     797     793    7211    8003+
+          10238   10903    5971    5986
CTETRA      8729       1   13656     791     793     795   10902    5972+
+          10904   10905    5990    5988
CTETRA      8730       1   17833     791   13656     795    5962   10902+
+          14130    5976    5990   10905
CTETRA      8731       1   17833   11694     795     794   11750    5977+
+           5976    5973    5975   10906
CTETRA      8732       1   11694     797     795     794    8838    5987+
+           5977    5975   10243   10906
CTETRA      8733       1   13656     793     797     795   10904    5986+
+          10240   10905    5988    5987
CTETRA      8734       1   13653    1076     797     962    7952   10241+
+          10238    7203   10907   10239
CTETRA      8735       1   16992    1076   13653     962    7950    7952+
+          14118    9106   10907    7203
CTETRA      8736       1   16991   16992   11608    1076   17012   11664+
+          11665    7948    7950   10908
CTETRA      8737       1   16991   11608    1007    1076   11665   10698+
+           7486    7948   10908   10697
CTETRA      8738       1   11608     797    1007    1076   10245   10242+
+          10698   10908   10241   10697
CTETRA      8739       1   11608     410     797     962   10246    8003+
+          10245   10909    8903   10239
CTETRA      8740       1   11608   11609     410     962   11662    8902+
+          10246   10909    8904    8903
CTETRA      8741       1   16992   11609   11608     962   11660   11662+
+          11664    9106    8904   10909
CTETRA      8742       1   16992   11608    1076     962   11664   10908+
+           7950    9106   10909   10907
CTETRA      8743       1   11608     797    1076     962   10245   10241+
+          10908   10909   10239   10907
CTETRA      8744       1   16910      98     547     798    4740    6261+
+           3965   10910    8758    5993
CTETRA      8745       1   17783      98   16910     798    5995    4740+
+          16933    8450    8758   10910
CTETRA      8746       1   17783   16910   17784     798   16933   16923+
+          17800    8450   10910    5992
CTETRA      8747       1   17784   16910     547     798   16923    3965+
+           3964    5992   10910    5993
CTETRA      8748       1   17762   16911      94     799   16930    4359+
+           3887    8634   10911    5999
CTETRA      8749       1   16911      98      94     799    4741    1565+
+           4359   10911    6000    5999
CTETRA      8750       1   17761      98   16911     799    4354    4741+
+          16928    6008    6000   10911
CTETRA      8751       1   17761   16911   17762     799   16928   16930+
+          17773    6008   10911    8634
CTETRA      8752       1   12615     801     620     179    6016    6018+
+           6015    1901   10912    6019
CTETRA      8753       1   17115     801   12615     179    8392    6016+
+          12702    1900   10912    1901
CTETRA      8754       1   17115   12138   12076     801   12402   12401+
+          12200    8392   10913   10914
CTETRA      8755       1   12076   12138     620     801   12401    6954+
+           4997   10914   10913    6018
CTETRA      8756       1   17114   12137   12138     179   12399   12392+
+          12400    1899   10915   10916
CTETRA      8757       1   17114   12138   17115     179   12400   12402+
+          17134    1899   10916    1900
CTETRA      8758       1   17115   12138     801     179   12402   10913+
+           8392    1900   10916   10912
CTETRA      8759       1   12138     620     801     179    6954    6018+
+          10913   10916    6019   10912
CTETRA      8760       1   12137     620   12138     179    6955    6954+
+          12392   10915    6019   10916
CTETRA      8761       1   17114   12137     179     802   12399   10915+
+           1899    7136   10917    6021
CTETRA      8762       1   12137     620     179     802    6955    6019+
+          10915   10917    6022    6021
CTETRA      8763       1   12868     802     620     806   10918    6022+
+           4467    6031   10919    6032
CTETRA      8764       1   12614     806     802    1031    8762   10919+
+           9138    7644    8763   10920
CTETRA      8765       1   17114     802   12614     956    7136    9138+
+          12704    9155   10921    7161
CTETRA      8766       1   17628   16697   16705     803   16752   16893+
+          16777    8615   10922   10923
CTETRA      8767       1   17728   16705   16697     803   16787   16893+
+          16754    8948   10923   10922
CTETRA      8768       1   17727   17728   16697     803   17738   16754+
+          16753    6023    8948   10922
CTETRA      8769       1   17727   16606     803     865   16676    6024+
+           6023    8909    6517   10924
CTETRA      8770       1   16606      27     803     865    6515    7190+
+           6024    6517    6516   10924
CTETRA      8771       1   17628      27   16697     803    7187    8947+
+          16752    8615    7190   10922
CTETRA      8772       1   17939   17727   16697     865   17737   16753+
+          16897    8632    8909   10925
CTETRA      8773       1   17939   16697   16731     865   16897   16901+
+          16902    8632   10925   10926
CTETRA      8774       1   15046    1093     865    1132    8101   10927+
+          10928    8441    8440   10929
CTETRA      8775       1   15046      27     865    1093    7183    6516+
+          10928    8101    8100   10927
CTETRA      8776       1   16697     803      27     865   10922    7190+
+           8947   10925   10924    6516
CTETRA      8777       1   17727     803   16697     865    6023   10922+
+          16753    8909   10924   10925
CTETRA      8778       1   16705     452      22     804    3286    6259+
+           6994   10930    6355    6354
CTETRA      8779       1   16705   16706     452     804   16781    3287+
+           3286   10930   10931    6355
CTETRA      8780       1   17729   16706   16705     804   16791   16781+
+          16786    6026   10931   10930
CTETRA      8781       1   17728   17729   16705     804   17739   16786+
+          16787    6255    6026   10930
CTETRA      8782       1   17728   16605     804    1192   16678    6256+
+           6255    8949    8951   10932
CTETRA      8783       1   16605      22     804    1192    6036    6354+
+           6256    8951    9042   10932
CTETRA      8784       1   16706     452     804     805    3287    6355+
+          10931   10933    6991    6029
CTETRA      8785       1   16706     605     452     805   10507    4400+
+           3287   10933   10509    6991
CTETRA      8786       1   17729     605   16706     805    5302   10507+
+          16791    6028   10509   10933
CTETRA      8787       1   17729   16706     804     805   16791   10931+
+           6026    6028   10933    6029
CTETRA      8788       1   12614     802     806     956    9138   10919+
+           8762    7161   10921   10934
CTETRA      8789       1   12137     620     802     806    6955    6022+
+          10917   10935    6032   10919
CTETRA      8790       1   12137     194     620     806    7796    4470+
+           6955   10935    6033    6032
CTETRA      8791       1   12873     806     194    1001    8018    6033+
+           7801    7803   10936    7804
CTETRA      8792       1   12614    1001     806    1002    7458   10936+
+           8762    7459    7461    8764
CTETRA      8793       1   12132     807      76     808    9429    6046+
+           5625   10937    6050    6049
CTETRA      8794       1   17109     807   12132     808    9156    9429+
+          12404    7433    6050   10937
CTETRA      8795       1   17109   12132   17110     808   12404   12403+
+          17135    7433   10937    7434
CTETRA      8796       1   17110   12611     808     846   12709    7449+
+           7434    6865    6297   10938
CTETRA      8797       1   12611      76     808     846    4826    6049+
+           7449    6297    6299   10938
CTETRA      8798       1   13644     811     810     855    9110    6074+
+           6399    6413    9827   10939
CTETRA      8799       1   14701     293     811     810    3004    6073+
+           9830   10940    6066    6074
CTETRA      8800       1   14701     408     293     810    3006    3005+
+           3004   10940    6067    6066
CTETRA      8801       1   13644     810     408     855    6399    6067+
+           4707    6413   10939    6414
CTETRA      8802       1   15979     812     672     813   10742    7056+
+           8525   10941    6087    7057
CTETRA      8803       1   17591     812   15979     813    6084   10742+
+          16158    6085    6087   10941
CTETRA      8804       1   17591   15979     270     813   16158    9769+
+           6068    6085   10941    9770
CTETRA      8805       1   15979     672     270     813    8525    5369+
+           9769   10941    7057    9770
CTETRA      8806       1   12186     828     477     829   10575    7446+
+           5223   10942    6194    7447
CTETRA      8807       1   17169     828   12186     829    6191   10575+
+          12576    6192    6194   10942
CTETRA      8808       1   17169   12186     719     829   12576   10736+
+           7277    6192   10942   10735
CTETRA      8809       1   12186     477     719     829    5223    5327+
+          10736   10942    7447   10735
CTETRA      8810       1   15993     334     673    1059    9918    9920+
+          10342   10943    9921    7850
CTETRA      8811       1   15993     333     334    1059    9922    9919+
+           9918   10943    9923    9921
CTETRA      8812       1   15993     147     333    1059    7678    5413+
+           9922   10943    8620    9923
CTETRA      8813       1   15989     147   15993    1059    1779    7678+
+          16130   10944    8620   10943
CTETRA      8814       1   15989   15993     673    1059   16130   10342+
+          10343   10944   10943    7850
CTETRA      8815       1   12882     578     477     819   10464    6097+
+           5320   10945   10463    6122
CTETRA      8816       1   17302     578   12882     819    7659   10464+
+          13027    6127   10463   10945
CTETRA      8817       1   17302   12882   12878     819   13027   13029+
+          13032    6127   10945   10946
CTETRA      8818       1   12878   12882     477     819   13029    5320+
+           7236   10946   10945    6122
CTETRA      8819       1   12124     493     558     814   10316    6101+
+           4058   10947   10317    6103
CTETRA      8820       1   17212     493   12124     814    3571   10316+
+          12350    7719   10317   10947
CTETRA      8821       1   17916   17212   12124     814   17215   12350+
+          12349    7717    7719   10947
CTETRA      8822       1   17916   12124   17143     814   12349   12347+
+          17155    7717   10947    6102
CTETRA      8823       1   17143   12124     558     814   12347    4058+
+           4057    6102   10947    6103
CTETRA      8824       1   15039     558     815     816    6099    6914+
+          10834   10948    6894    6112
CTETRA      8825       1   15039     436     558     816    3210    4638+
+           6099   10948    6895    6894
CTETRA      8826       1   12932     816     436     919    7811    6895+
+           3194    6899   10949    9133
CTETRA      8827       1   17344     816   12932     919    8651    7811+
+          13218    9157   10949    6899
CTETRA      8828       1   17344   15039   17345     816   15090   15088+
+          17347    8651   10948    6111
CTETRA      8829       1   17345   15039     815     816   15088   10834+
+           6109    6111   10948    6112
CTETRA      8830       1   11788     817     818    1021    7751    6120+
+           6233    7579   10015   10950
CTETRA      8831       1   17000     817   11603     818    6117   10014+
+          11634    6118    6120    6717
CTETRA      8832       1   16999   13652   17000     818   14113   14112+
+          17006    6716    6121    6118
CTETRA      8833       1   11788     818     836    1021    6233    6232+
+           6231    7579   10950    7580
CTETRA      8834       1   16065   16074     212     821   16424    7654+
+           8421   10951   10952    6131
CTETRA      8835       1   17662   16074   16065     821   16426   16424+
+          16386    7399   10952   10951
CTETRA      8836       1   17662   15860     821    1178   15919    7400+
+           7399    8785    8784   10953
CTETRA      8837       1   15860     212     821    1178    7970    6131+
+           7400    8784    9047   10953
CTETRA      8838       1   16074     212     821     822    7654    6131+
+          10952   10954    6135    6134
CTETRA      8839       1   16074     406     212     822    5635    2982+
+           7654   10954    8470    6135
CTETRA      8840       1   15862     822     406    1166    8788    8470+
+           4117    8674   10955    8675
CTETRA      8841       1   17663     822   15862    1166    8787    8788+
+          15933    8940   10955    8674
CTETRA      8842       1   17662   17663   16074     822   17684   16427+
+          16426    7969    8787   10954
CTETRA      8843       1   17662   16074     821     822   16426   10952+
+           7399    7969   10954    6134
CTETRA      8844       1   12859     485     255     825    7691    5523+
+           7734    8863    6147    6146
CTETRA      8845       1   12607     825     485    1238    7853    6147+
+           6661   10956   10957   10958
CTETRA      8846       1   17238   12607   17239     825   12642   12644+
+          17260    7155    7853    8862
CTETRA      8847       1   17238   12859   12950     825   13039   13281+
+          13280    7155    8863   10959
CTETRA      8848       1   12859     255   12950     825    7734    4446+
+          13281    8863    6146   10959
CTETRA      8849       1   17411   13626   13625     826   14037   14629+
+          14038   10960   10961   10962
CTETRA      8850       1   17411     826   13625    1233   10960   10962+
+          14038   10963   10964   10965
CTETRA      8851       1      57     889     888    1233    6680    6678+
+           6679   10966   10967   10968
CTETRA      8852       1   11782     826    1165    1199    6149    8670+
+           8669    9011   10969    9175
CTETRA      8853       1   17942     826   11782    1199    6150    6149+
+          11829    9010   10969    9011
CTETRA      8854       1   17942   13625   13626     826   14040   14629+
+          14029    6150   10962   10961
CTETRA      8855       1     310    1199    1165     854    9176    9175+
+           9174    8570   10970   10334
CTETRA      8856       1   13625    1199     440     854   10971   10220+
+          10221   10972   10970   10973
CTETRA      8857       1   17860     440   13625    1199    6151   10221+
+          14041    9012   10220   10971
CTETRA      8858       1   17942   17860   13625    1199   17861   14041+
+          14040    9010    9012   10971
CTETRA      8859       1   17942   13625     826    1199   14040   10962+
+           6150    9010   10971   10969
CTETRA      8860       1    1165    1199     826    1233    9175   10969+
+           8670   10337   10974   10964
CTETRA      8861       1   15260     668      33     765    6281    6280+
+           6283   10975    7686    7685
CTETRA      8862       1   15252     668   15260     765    7107    6281+
+          15526   10976    7686   10975
CTETRA      8863       1   17462   15252   15260     765   15523   15526+
+          15525    5699   10976   10975
CTETRA      8864       1   17462   15260   17463     765   15525   15552+
+          17488    5699   10975    6175
CTETRA      8865       1   17463   15730     765     851   15773    6176+
+           6175    6347    6346   10977
CTETRA      8866       1   15730      33     765     851    7144    7685+
+           6176    6346    7145   10977
CTETRA      8867       1   15260      33   15266     851    6283    3811+
+          15545   10978    7145   10979
CTETRA      8868       1   15260     765      33     851   10975    7685+
+           6283   10978   10977    7145
CTETRA      8869       1   17463     765   15260     851    6175   10975+
+          15552    6347   10977   10978
CTETRA      8870       1   17463   15260   15266     851   15552   15545+
+          15553    6347   10978   10979
CTETRA      8871       1   12890     509     510     550    7657    3687+
+           5313   10980    6183    6182
CTETRA      8872       1   12890   12892     509     550   13076    7134+
+           7657   10980   10981    6183
CTETRA      8873       1   17304   12892   12890     550   13078   13076+
+          13069    3981   10981   10980
CTETRA      8874       1   17303   17304   12890     550   17333   13069+
+          13068    3979    3981   10980
CTETRA      8875       1   17303   12890     510     550   13068    5313+
+           4222    3979   10980    6182
CTETRA      8876       1   17144     140   11887     831    3537    3538+
+          11968    7167    8711   10982
CTETRA      8877       1   17144   11887   11902     831   11968   12049+
+          12050    7167   10982   10983
CTETRA      8878       1   17073   11902   11887     831   12047   12049+
+          11970    6208   10983   10982
CTETRA      8879       1   17073   11776     831     252   11864    8710+
+           6208    2199    2198   10984
CTETRA      8880       1   11776     140     831     252    7154    8711+
+           8710    2198    8854   10984
CTETRA      8881       1   17144     831   11902     832    7167   10983+
+          12050    7168    6211   10985
CTETRA      8882       1   17144     832   11902     969    7168   10985+
+          12050    7244    7938   10986
CTETRA      8883       1   17074     832   11774    1185    6459    7269+
+          11865    8867   10987    8868
CTETRA      8884       1   17073   17074   11902     832   17084   12048+
+          12047    6210    6459   10985
CTETRA      8885       1   17073   11902     831     832   12047   10983+
+           6208    6210   10985    6211
CTETRA      8886       1   11604     278     834    1066    7890    9792+
+          10988   10989    8685    9800
CTETRA      8887       1   17016     278   11604    1066    2317    7890+
+          11637    7888    8685   10989
CTETRA      8888       1   17015   17016   11604    1066   17031   11637+
+          11638    7886    7888   10989
CTETRA      8889       1   17015   11604     596    1066   11638    6229+
+           4345    7886   10989    8875
CTETRA      8890       1   11780    1066     596    1228    9799    8875+
+          10485    9877   10990   10487
CTETRA      8891       1   11780     834    1066    1228    6222    9800+
+           9799    9877   10991   10990
CTETRA      8892       1   11604     834     278     835   10988    9792+
+           7890   10992    6224    9790
CTETRA      8893       1   11780     835     834    1228    6225    6224+
+           6222    9877   10993   10991
CTETRA      8894       1   11780     321     835    1228    7937    9875+
+           6225    9877    9879   10993
CTETRA      8895       1   11788     835     321    1230    9072    9875+
+           7143   10016   10994   10019
CTETRA      8896       1   11788    1021     835    1230    7579    9073+
+           9072   10016   10018   10994
CTETRA      8897       1   11603   11604     278     835   11635    7890+
+           7889   10995   10992    9790
CTETRA      8898       1   11604     596    1066    1228    6229    8875+
+          10989   10996   10487   10990
CTETRA      8899       1   11604     594     596    1228    6228    4346+
+           6229   10996    9878   10487
CTETRA      8900       1   11604     321     594    1228    9882    9876+
+           6228   10996    9879    9878
CTETRA      8901       1   11604     835     321    1228   10992    9875+
+           9882   10996   10993    9879
CTETRA      8902       1   11604     834     835    1228   10988    6224+
+          10992   10996   10991   10993
CTETRA      8903       1   11604    1066     834    1228   10989    9800+
+          10988   10996   10990   10991
CTETRA      8904       1   11874    1066     596    1067    7887    8875+
+           6227   10997    9801   10486
CTETRA      8905       1   11874     834    1066    1067    9797    9800+
+           7887   10997    9798    9801
CTETRA      8906       1   17069     834   11874    1067    7529    9797+
+          11936    7893    9798   10997
CTETRA      8907       1   17068   17069   11874    1067   17079   11936+
+          11937    7891    7893   10997
CTETRA      8908       1   17068   11874     595    1067   11937    6226+
+           7883    7891   10997    8876
CTETRA      8909       1   11874     596     595    1067    6227    4347+
+           6226   10997   10486    8876
CTETRA      8910       1   11787    1012     836    1179    7522   10998+
+           6723    8795    8836   10999
CTETRA      8911       1   13652     836     818    1237   11000    6232+
+           6121   10891   11001   11002
CTETRA      8912       1   13652   13790     818     836   14625    6119+
+           6121   11000   11003    6232
CTETRA      8913       1   17854   13790   13652     836   14623   14625+
+          14114    6447   11003   11000
CTETRA      8914       1   17854   13652   17855     836   14114   14115+
+          17867    6447   11000    6722
CTETRA      8915       1   17855   11787     836    1179   11840    6723+
+           6722    8793    8795   10999
CTETRA      8916       1   11787    1021     836    1012    7578    7580+
+           6723    7522   11004   10998
CTETRA      8917       1   11778    1021   11787     990    8433    7578+
+          11811    7365   11005    8874
CTETRA      8918       1   11778   11779    1021     990   11815    8873+
+           8433    7365    7532   11005
CTETRA      8919       1   11779     835    1021    1225    6223    9073+
+           8873    9787    9791   11006
CTETRA      8920       1   11603   11604     835    1021   11635   10992+
+          10995   11007   11008    9073
CTETRA      8921       1   11603     817   11604    1021   10014   10013+
+          11635   11007   10015   11008
CTETRA      8922       1   11603     818     817    1021    6717    6120+
+          10014   11007   10950   10015
CTETRA      8923       1   11603     836     818    1021   11009    6232+
+           6717   11007    7580   10950
CTETRA      8924       1   13790     818     836     837    6119    6232+
+          11003   11010    6236    6235
CTETRA      8925       1   13790     817     818     837    6116    6120+
+           6119   11010    7752    6236
CTETRA      8926       1   13790     321     817     837    9871    9872+
+           6116   11010    9874    7752
CTETRA      8927       1   13790     368     321     837   10011    2774+
+           9871   11010   10012    9874
CTETRA      8928       1   17854     368   13790     837    7034   10011+
+          14623    6448   10012   11010
CTETRA      8929       1   17854   13790     836     837   14623   11003+
+           6447    6448   11010    6235
CTETRA      8930       1   16993   11607   11609     106   11655   11657+
+          11659    1590   11011    9172
CTETRA      8931       1   11607     410   11609     106    9784    8902+
+          11657   11011    6239    9172
CTETRA      8932       1   11607     124     410     106    9515    4662+
+           9784   11011    6240    6239
CTETRA      8933       1   11607     123     124     106    9512    1669+
+           9515   11011    9513    6240
CTETRA      8934       1   16994     123   11607     106    2287    9512+
+          11654    1592    9513   11011
CTETRA      8935       1   16993   16994   11607     106   17010   11654+
+          11655    1590    1592   11011
CTETRA      8936       1   17716   16700   16702     838   16768   16772+
+          16774    8057   11012   11013
CTETRA      8937       1   16700      89   16702     838    6750    6749+
+          16772   11012    6245   11013
CTETRA      8938       1   17824     838      89    1085    6243    6245+
+           6242    8042   11014    8043
CTETRA      8939       1   17824   17716     838    1085   16554    8057+
+           6243    8042    9045   11014
CTETRA      8940       1   16700     284      89    1085    9811    7861+
+           6750   11015    8044    8043
CTETRA      8941       1   17938     284   16700    1085    2343    9811+
+          16769    8544    8044   11015
CTETRA      8942       1   17938   16700   17716    1085   16769   16768+
+          17717    8544   11015    9045
CTETRA      8943       1   17716   16700     838    1085   16768   11012+
+           8057    9045   11015   11014
CTETRA      8944       1   16700      89     838    1085    6750    6245+
+          11012   11015    8043   11014
CTETRA      8945       1   17716     838   16702     839    8057   11013+
+          16774    8058    6248   11016
CTETRA      8946       1   17715   17716   16702     839   17726   16774+
+          16775    9084    8058   11016
CTETRA      8947       1   17715   16504     839    1205   16595    8507+
+           9084    9093    9092   11017
CTETRA      8948       1   16504     979     839    1205   11018   11019+
+           8507    9092   11020   11017
CTETRA      8949       1   16702     839      89     979   11016    6247+
+           6749    7294   11019   11021
CTETRA      8950       1   16702     838      89     839   11013    6245+
+           6749   11016    6248    6247
CTETRA      8951       1   17895   13568   13563     840   13803   13808+
+          13806    8141   11022   11023
CTETRA      8952       1   13563   13568     121     840   13808    3289+
+           6764   11023   11022    8613
CTETRA      8953       1   13568     452     121     840    6262    4398+
+           3289   11022    6250    8613
CTETRA      8954       1   13561     452   13568     840    6357    6262+
+          13804   11024    6250   11022
CTETRA      8955       1   17895   13561   13568     840   13802   13804+
+          13803    8141   11024   11022
CTETRA      8956       1   17895   13561     840     841   13802   11024+
+           8141    7079   11025    6253
CTETRA      8957       1   13561     452     840     841    6357    6250+
+          11024   11025    6254    6253
CTETRA      8958       1   16613     841     452     849    6990    6254+
+           6257    6340   11026    6341
CTETRA      8959       1   17896     841   16613     849    7080    6990+
+          16667    9219   11026    6340
CTETRA      8960       1   17895   17896   13561     841   17899   13805+
+          13802    7079    7080   11025
CTETRA      8961       1   17628     803   16705    1192    8615   10923+
+          16777    8959    8950   11027
CTETRA      8962       1   17628   16705      22    1192   16777    6994+
+           1287    8959   11027    9042
CTETRA      8963       1   16705     804      22    1192   10930    6354+
+           6994   11027   10932    9042
CTETRA      8964       1   17728     804   16705    1192    6255   10930+
+          16787    8949   10932   11027
CTETRA      8965       1   17728   16705     803    1192   16787   10923+
+           8948    8949   11027    8950
CTETRA      8966       1   15287     403     672     139    7677    5366+
+           4915   11028    6276    7660
CTETRA      8967       1   15287     141     403     139    9526    6275+
+           7677   11028    6277    6276
CTETRA      8968       1   17457     141   15287     139    1737    9526+
+          15627    1729    6277   11028
CTETRA      8969       1   17457   15287   17458     139   15627   15629+
+          17491    1729   11028    1730
CTETRA      8970       1   17458   15735     139    1239   15788    6071+
+           1730   11029   11030   11031
CTETRA      8971       1   15287     139     672    1239   11028    7660+
+           4915   11032   11031   11033
CTETRA      8972       1   15201     843     364    1236   11034    8232+
+           7715   10745   11035   10748
CTETRA      8973       1   15721     843    1147    1150    8939   11036+
+           8533    8542   11037    9187
CTETRA      8974       1   17604     843   15721    1150    6285    8939+
+          15849    8541   11037    8542
CTETRA      8975       1   17604   16048   16037     843   16336   16333+
+          16298    6285   11038   11039
CTETRA      8976       1   16037   16048     364     843   16333    7961+
+           6483   11039   11038    8232
CTETRA      8977       1   16037     843     364     844   11039    8232+
+           6483   11040    6288    8629
CTETRA      8978       1   17604     843   16037     844    6285   11039+
+          16298    6286    6288   11040
CTETRA      8979       1   17603   17604   16037     844   17626   16298+
+          16296    9233    6286   11040
CTETRA      8980       1   17603   16037     729     844   16296   10762+
+           9033    9233   11040   10763
CTETRA      8981       1   16037     364     729     844    6483    5385+
+          10762   11040    8629   10763
CTETRA      8982       1   12900     665      76     845   10608    4828+
+           6443   11041    8343    6292
CTETRA      8983       1   17243     665   12900     845    7784   10608+
+          13100    8348    8343   11041
CTETRA      8984       1   17243   12610     845    1052   12654    6291+
+           8348    8357    7800   11042
CTETRA      8985       1   12610      76     845    1052    1474    6292+
+           6291    7800    8665   11042
CTETRA      8986       1   12900      76      77    1052    6443    1477+
+           9405   11043    8665    7799
CTETRA      8987       1   12900     845      76    1052   11041    6292+
+           6443   11043   11042    8665
CTETRA      8988       1   17243     845   12900    1052    8348   11041+
+          13100    8357   11042   11043
CTETRA      8989       1   17242   17243   12900    1052   17264   13100+
+          13103    7798    8357   11043
CTETRA      8990       1   17242   12900      77    1052   13103    9405+
+           7797    7798   11043    7799
CTETRA      8991       1   12132      76     663     846    5625    6296+
+          10603   11044    6299    6298
CTETRA      8992       1   12132     808      76     846   10937    6049+
+           5625   11044   10938    6299
CTETRA      8993       1   17110     808   12132     846    7434   10937+
+          12403    6865   10938   11044
CTETRA      8994       1   17110   12132     663     846   12403   10603+
+           6864    6865   11044    6298
CTETRA      8995       1   16026     601     357     847   10501    4375+
+           7345   11045    6305    6304
CTETRA      8996       1   17576     601   16026     847    6306   10501+
+          16252    6775    6305   11045
CTETRA      8997       1   17576   13383     847     907   13434    6776+
+           6775    6789    6788   11046
CTETRA      8998       1   13383     357     847     907    4367    6304+
+           6776    6788   10495   11046
CTETRA      8999       1   16079     513     769     738    4268    5772+
+          10830   11047    5472    6320
CTETRA      9000       1   16079     512     513     738    4230    3962+
+           4268   11047    5473    5472
CTETRA      9001       1   17933     512   16079     738    4840    4230+
+          16447    6530    5473   11047
CTETRA      9002       1   17933   16079   17672     738   16447   16448+
+          17693    6530   11047    6319
CTETRA      9003       1   17672   16079     769     738   16448   10830+
+           6318    6319   11047    6320
CTETRA      9004       1   17896   13606   13561     849   13983   13984+
+          13805    9219   11048   11049
CTETRA      9005       1   17896   13561     841     849   13805   11025+
+           7080    9219   11049   11026
CTETRA      9006       1   13561     452     841     849    6357    6254+
+          11025   11049    6341   11026
CTETRA      9007       1   13561      22     452     849    6358    6259+
+           6357   11049    6342    6341
CTETRA      9008       1   13561   13606      22     849   13984    1294+
+           6358   11049   11048    6342
CTETRA      9009       1   12868   12871     620     856   12987    4966+
+           4467   11050   11051    8751
CTETRA      9010       1   12871     674     620     856   10618    4971+
+           4966   11051   10619    8751
CTETRA      9011       1   17248     674   12871     856    6379   10618+
+          12988    6458   10619   11051
CTETRA      9012       1   17247   17248   12871     856   17269   12988+
+          12989    6456    6458   11051
CTETRA      9013       1   17247   12871   12868     856   12989   12987+
+          12990    6456   11051   11050
CTETRA      9014       1   14663     544     543     896    7766    3940+
+           8024   11052    6711    6710
CTETRA      9015       1   14663     629     544     896   10543    6392+
+           7766   11052   10544    6711
CTETRA      9016       1   17387     629   14663     896    7456   10543+
+          14767    8026   10544   11052
CTETRA      9017       1   17386   17387   14663     896   17394   14767+
+          14798    8025    8026   11052
CTETRA      9018       1   17386   14663     543     896   14798    8024+
+           6946    8025   11052    6710
CTETRA      9019       1   14699     464   14701     855    7444    7437+
+          14904   11053    6415   11054
CTETRA      9020       1   14699   14701     811     855   14904    9830+
+           9829   11053   11054    9827
CTETRA      9021       1   14701     810     811     855   10940    6074+
+           9830   11054   10939    9827
CTETRA      9022       1   14701     408     810     855    3006    6067+
+          10940   11054    6414   10939
CTETRA      9023       1   14701     464     408     855    7437    4706+
+           3006   11054    6415    6414
CTETRA      9024       1   12954   12957     251    1090   13315    6403+
+           6402   11055   11056    8095
CTETRA      9025       1   12957     692     251    1090   10659    6405+
+           6403   11056   10660    8095
CTETRA      9026       1   17312     692   12957    1090    8641   10659+
+          13318    8086   10660   11056
CTETRA      9027       1   17311   17312   12957    1090   17335   13318+
+          13317    8084    8086   11056
CTETRA      9028       1   17311   12957   12954    1090   13317   13315+
+          13307    8084   11056   11055
CTETRA      9029       1   12121     126     153     203    6922    6435+
+           6924   11057    6437    6436
CTETRA      9030       1   12121     271     126     203    9772    7213+
+           6922   11057    6845    6437
CTETRA      9031       1   17187     271   12121     203    2273    9772+
+          12337    6844    6845   11057
CTETRA      9032       1   17919   17187   12121     203   17194   12337+
+          12335    1994    6844   11057
CTETRA      9033       1   17221     203   17919     199    1992    1994+
+          17222    1975   11058    1976
CTETRA      9034       1   17221     153     203     199    1788    6436+
+           1992    1975    8329   11058
CTETRA      9035       1   13405     597      13     857   10489    6464+
+           6455   11059    6467    6466
CTETRA      9036       1   17926     597   13405     857    8941   10489+
+          13518    9266    6467   11059
CTETRA      9037       1   17926   13405   13400     857   13518   13511+
+          13517    9266   11059   11060
CTETRA      9038       1   13400   13405      11     857   13511    9279+
+           9281   11060   11059    6476
CTETRA      9039       1   13405      13      11     857    6455    6475+
+           9279   11059    6466    6476
CTETRA      9040       1   16991    1008   13655     858    7488   10701+
+          14116    6469    8907   11061
CTETRA      9041       1   16991   13655   13656     858   14116   14121+
+          14120    6469   11061   11062
CTETRA      9042       1   17834   13656   13655     858   14131   14121+
+          14126    8896   11062   11061
CTETRA      9043       1   17834   11693     858     916   11748    8897+
+           8896    8114    8116   11063
CTETRA      9044       1   11693    1130     858     916    9027    9029+
+           8897    8116    8426   11063
CTETRA      9045       1   13655     858    1008    1068   11061    8907+
+          10701   10702   10079   10078
CTETRA      9046       1   16991     858   13656     794    6469   11062+
+          14120    6471    6470   11064
CTETRA      9047       1   16991   13656    1007     794   14120   10696+
+           7486    6471   11064    9179
CTETRA      9048       1   13656     797    1007     794   10240   10242+
+          10696   11064   10243    9179
CTETRA      9049       1   13656     795     797     794   10905    5987+
+          10240   11064   10906   10243
CTETRA      9050       1   17833     795   13656     794    5976   10905+
+          14130    5973   10906   11064
CTETRA      9051       1   17833   13656   17834     794   14130   14131+
+          17850    5973   11064    5974
CTETRA      9052       1   17834   13656     858     794   14131   11062+
+           8896    5974   11064    6470
CTETRA      9053       1   11694     858    1008     859    8898    8907+
+           9983   11065    6473    7490
CTETRA      9054       1   11694     794     858     859    5975    6470+
+           8898   11065    6474    6473
CTETRA      9055       1   11694    1007     794     859    9982    9179+
+           5975   11065    7489    6474
CTETRA      9056       1   11694    1008    1007     859    9983    7487+
+           9982   11065    7490    7489
CTETRA      9057       1   13754      13      11    1047    1252    6475+
+           9277   11066    9225    9280
CTETRA      9058       1   17354      13   13754    1047    6454    1252+
+          14472    7768    9225   11066
CTETRA      9059       1   17354   13754   17355    1047   14472   14473+
+          17383    7768   11066    7769
CTETRA      9060       1   17355   13400    1047    1180   13493    8824+
+           7769    8811    8810   11067
CTETRA      9061       1   13400      11    1047    1180    9281    9280+
+           8824    8810    9282   11067
CTETRA      9062       1   15206     860     627     984   11068    6477+
+           5788    7330   11069    7331
CTETRA      9063       1   15206   15209     627     860   15325    4929+
+           5788   11068   11070    6477
CTETRA      9064       1   17469   15209   15206     860   15327   15325+
+          15328    9052   11070   11068
CTETRA      9065       1   17469   15206   17470     860   15328   15341+
+          17476    9052   11068    8990
CTETRA      9066       1   17470   15723     860    1159   15752    8991+
+           8990    8925    8610   11071
CTETRA      9067       1   15723     728     860    1159    5381    9257+
+           8991    8610    8612   11071
CTETRA      9068       1   15206     728     860     984   10760    9257+
+          11068    7330   10761   11069
CTETRA      9069       1   16039     627     860     984    8933    6477+
+          11072   11073    7331   11069
CTETRA      9070       1   16039     538     627     984    5387    5790+
+           8933   11073    7332    7331
CTETRA      9071       1   15211     984     538    1091    9039    7332+
+           5435    8090   11074    8091
CTETRA      9072       1   15211     728     984    1091   10755   10761+
+           9039    8090   10756   11074
CTETRA      9073       1   16039     860     728     984   11072    9257+
+          10758   11073   11069   10761
CTETRA      9074       1   16039     860     627     861   11072    6477+
+           8933   11075    6481    6480
CTETRA      9075       1   16039     728     860     861   10758    9257+
+          11072   11075   10759    6481
CTETRA      9076       1   17602     728   16039     861    9030   10758+
+          16301    9035   10759   11075
CTETRA      9077       1   17602   16039     784     861   16301   10875+
+           7849    9035   11075    8923
CTETRA      9078       1   16039     627     784     861    8933    5903+
+          10875   11075    6480    8923
CTETRA      9079       1   16917     604      89     863   10505    6759+
+          10504   11076    6761    6760
CTETRA      9080       1   17788     604   16917     863    8037   10505+
+          16974    6498    6761   11076
CTETRA      9081       1   17788   16702     863     979   16766    6499+
+           6498    9127    7294   11077
CTETRA      9082       1   16702      89     863     979    6749    6760+
+           6499    7294   11021   11077
CTETRA      9083       1   16917      89     839     979   10504    6247+
+          11078   11079   11021   11019
CTETRA      9084       1   16917     863      89     979   11076    6760+
+          10504   11079   11077   11021
CTETRA      9085       1   17788     863   16917     979    6498   11076+
+          16974    9127   11077   11079
CTETRA      9086       1   17788   16917   17789     979   16974   16978+
+          17795    9127   11079    7295
CTETRA      9087       1   17789     979     976     978    7295   11080+
+           7287    7290    7297    7291
CTETRA      9088       1   16504     839     979     976    8507   11019+
+          11018    8510    8509   11080
CTETRA      9089       1   16918     780      89     864   10865    5877+
+          10503   11081   10866    6508
CTETRA      9090       1   17756     780   16918     864    6509   10865+
+          16966    7286   10866   11081
CTETRA      9091       1   17756   16918   17757     864   16966   16965+
+          17768    7286   11081    7285
CTETRA      9092       1   17757   16918     344     864   16965    7965+
+           6511    7285   11081    6507
CTETRA      9093       1   16918      89     344     864   10503    6504+
+           7965   11081    6508    6507
CTETRA      9094       1   15046     865     866    1132   10928    6520+
+          11082    8441   10929   11083
CTETRA      9095       1   17829     866    1015    1220    7918    7919+
+           7553    9253   11084    9254
CTETRA      9096       1   17829   16615     866    1095   16674    7584+
+           7918   11085    8120   11086
CTETRA      9097       1   16615      27     866    1095    7185    6519+
+           7584    8120    8119   11086
CTETRA      9098       1   15046     865      27     866   10928    6516+
+           7183   11082    6520    6519
CTETRA      9099       1   16697   16731     865    1093   16901   10926+
+          10925   11087   11088   10927
CTETRA      9100       1   17747   16731   16697    1093   16899   16901+
+          16751    8438   11088   11087
CTETRA      9101       1   17936   17747   16697    1093   17750   16751+
+          16750    8099    8438   11087
CTETRA      9102       1   17936   16697      27    1093   16750    8947+
+           7186    8099   11087    8100
CTETRA      9103       1   16697     865      27    1093   10925    6516+
+           8947   11087   10927    8100
CTETRA      9104       1   17897   13608   13606     867   13981   13978+
+          13985    8293   11089   11090
CTETRA      9105       1   17897   16613     867    1057   16668    6527+
+           8293    7832    7831   11091
CTETRA      9106       1   16613      22     867    1057    6038    6523+
+           6527    7831    7903   11091
CTETRA      9107       1   13606      27      22     867    1305    1304+
+           1294   11090    6524    6523
CTETRA      9108       1   13606   13608      27     867   13978    8102+
+           1305   11090   11089    6524
CTETRA      9109       1   12858    1129     526     868   10647    9262+
+           4560   11092    9160    6537
CTETRA      9110       1   17249    1129   12858     868    8389   10647+
+          12982    9146    9160   11092
CTETRA      9111       1   17249   12616     868     944   12672    7308+
+           9146    7635    7084   11093
CTETRA      9112       1   12616     632     868     944    4969    6536+
+           7308    7084    9145   11093
CTETRA      9113       1   12858     526     632     868    4560    4556+
+           4559   11092    6537    6536
CTETRA      9114       1   12087     582   12091     869    4248    6801+
+          12228   11094    8802   11095
CTETRA      9115       1   12087     583     582     869    4251    4250+
+           4248   11094    6540    8802
CTETRA      9116       1   12087     526     583     869    8395    4564+
+           4251   11094    6541    6540
CTETRA      9117       1   12086     526   12087     869    8394    8395+
+          12198   11096    6541   11094
CTETRA      9118       1   12086   12087   12091     869   12198   12228+
+          12223   11096   11094   11095
CTETRA      9119       1   12914      37   12922     871    6267    2851+
+          13188   11097    6814   11098
CTETRA      9120       1   12601     871      37    1038    8067    6814+
+           1338    7700   11099    7701
CTETRA      9121       1   17923     871   12601    1038    6547    8067+
+          12625    8399   11099    7700
CTETRA      9122       1   17923   12914   12922     871   13185   13188+
+          13187    6547   11097   11098
CTETRA      9123       1   12922     871      37     842   11098    6814+
+           2851   11100    6548    6271
CTETRA      9124       1   17923     871   12922     842    6547   11098+
+          13187    6549    6548   11100
CTETRA      9125       1   17923   12922     710     842   13187   10686+
+           8231    6549   11100   10687
CTETRA      9126       1   12922      58     710     842    2854    5259+
+          10686   11100    6270   10687
CTETRA      9127       1   12922      37      58     842    2851    2845+
+           2854   11100    6271    6270
CTETRA      9128       1   15853     135     132     718    9524    1716+
+           6780   11101    6576    6575
CTETRA      9129       1   17520     135   15853     718    8555    9524+
+          15883    5321    6576   11101
CTETRA      9130       1   17520   15297     718     415   15666    5322+
+           5321    3047    3049   11102
CTETRA      9131       1   15853     718     132     415   11101    6575+
+           6780    6784   11102    6785
CTETRA      9132       1   15852     133     135     874    4066    1717+
+           9523   11103    6583    9522
CTETRA      9133       1   15851     133   15852     874    7995    4066+
+          15875   11104    6583   11103
CTETRA      9134       1   17521   15851   15852     874   15876   15875+
+          15877    7641   11104   11103
CTETRA      9135       1   17521   15852     135     874   15877    9523+
+           8936    7641   11103    9522
CTETRA      9136       1   15851     133     874     875    7995    6583+
+          11104   11105    6587    6586
CTETRA      9137       1   17522     133   15851     875    7989    7995+
+          15885    8184    6587   11105
CTETRA      9138       1   17521   17522   15851     875   17559   15885+
+          15876    7642    8184   11105
CTETRA      9139       1   17521   15851     874     875   15876   11104+
+           7641    7642   11105    6586
CTETRA      9140       1   15852     876     132    1078    6590    6781+
+           4065    7979   11106    8776
CTETRA      9141       1   17653     876   15852    1078    6588    6590+
+          15874    7978   11106    7979
CTETRA      9142       1   17653   15998   16023     876   16153   16240+
+          16239    6588   11107   11108
CTETRA      9143       1   15998     132   16023     876    6774    6490+
+          16240   11107    6781   11108
CTETRA      9144       1   15998     559     132    1078   10435    4068+
+           6774   11109    8183    8776
CTETRA      9145       1   17654     559   15998    1078    7966   10435+
+          16152    7980    8183   11109
CTETRA      9146       1   17653   17654   15998    1078   17674   16152+
+          16153    7978    7980   11109
CTETRA      9147       1   17653   15998     876    1078   16153   11107+
+           6588    7978   11109   11106
CTETRA      9148       1   15998     132     876    1078    6774    6781+
+          11107   11109    8776   11106
CTETRA      9149       1   16023     876     132     877   11108    6781+
+           6490   11110    6831    6783
CTETRA      9150       1   17653     876   16023     877    6588   11108+
+          16239    7974    6831   11110
CTETRA      9151       1   17932   17653   16023     877   17675   16239+
+          16237    6591    7974   11110
CTETRA      9152       1   17932   16023     442     877   16237    6594+
+           6331    6591   11110    6592
CTETRA      9153       1   16023     132     442     877    6490    3625+
+           6594   11110    6783    6592
CTETRA      9154       1   11773     657     310     537    6468    6651+
+           3648    3905   11111    6681
CTETRA      9155       1   17075     657   11773     537    4768    6468+
+          11826    3904   11111    3905
CTETRA      9156       1   17074   17075   11869     657   17085   11914+
+          11915    4766    4768   11112
CTETRA      9157       1   17074   11869   11902     657   11915   12058+
+          12048    4766   11112    8996
CTETRA      9158       1   17143   11902   11869     657   12051   12058+
+          11913    6650    8996   11112
CTETRA      9159       1   17143   11869     310     657   11913    7278+
+           2462    6650   11112    6651
CTETRA      9160       1   11774     309     310     882    9169    2461+
+           5112   11113    7279    6654
CTETRA      9161       1   17144     882     309     969    8800    7279+
+           7246    7244   11114    7245
CTETRA      9162       1   17144   11902     882     969   12050    8801+
+           8800    7244   10986   11114
CTETRA      9163       1   11774     882     657    1185   11113    6653+
+           4767    8868   11115    8869
CTETRA      9164       1   11774     310     657     882    5112    6651+
+           4767   11113    6654    6653
CTETRA      9165       1   12608     884    1183     885    8858   11116+
+           8845    8860    6666   11117
CTETRA      9166       1   12156   12167     485     884   12504    3510+
+           5496   11118   11119    6662
CTETRA      9167       1   17106   12167   12156     884   12509   12504+
+          12510    6846   11119   11118
CTETRA      9168       1   17106   12156   17107     884   12510   12589+
+          17140    6846   11118    8383
CTETRA      9169       1   17107   12608     884    1183   12715    8858+
+           8383    9141    8845   11116
CTETRA      9170       1   12156     485   12188    1183    5496    6655+
+          12588   11120   11121   11122
CTETRA      9171       1   12156     884     485    1183   11118    6662+
+           5496   11120   11116   11121
CTETRA      9172       1   17107     884   12156    1183    8383   11118+
+          12589    9141   11116   11120
CTETRA      9173       1   17107   12156   12188    1183   12589   12588+
+          12590    9141   11120   11122
CTETRA      9174       1   11869     505     310     537   10628    3651+
+           7278   11123    6667    6681
CTETRA      9175       1   15054     537     505     658   11124    6667+
+          10330    4769   11125   10631
CTETRA      9176       1   15054     537     658     180   11124   11125+
+           4769    1904   11126    4771
CTETRA      9177       1   17915   11905   11869     537   12073   12074+
+          12061    3903   11127   11123
CTETRA      9178       1   17915   11869   17075     537   12061   11914+
+          17076    3903   11123    3904
CTETRA      9179       1   17075   11869     657     537   11914   11112+
+           4768    3904   11123   11111
CTETRA      9180       1   11869     310     657     537    7278    6651+
+          11112   11123    6681   11111
CTETRA      9181       1   17086   11869   11905     658   11911   12074+
+          12071    4770   11128   11129
CTETRA      9182       1   11869     537   11905     658   11123   11127+
+          12074   11128   11125   11129
CTETRA      9183       1   11869     505     537     658   10628    6667+
+          11123   11128   10631   11125
CTETRA      9184       1   11869     677     505     658   10629   10332+
+          10628   11128   10630   10631
CTETRA      9185       1   17086     677   11869     658    8870   10629+
+          11911    4770   10630   11128
CTETRA      9186       1   15054     505     537     886   10330    6667+
+          11124   11130    6670    6669
CTETRA      9187       1   15054      57     505     886    9377    8577+
+          10330   11130    9374    6670
CTETRA      9188       1   15054    1155      57     886    9380    9373+
+           9377   11130    9381    9374
CTETRA      9189       1   15054      29    1155     886    9300    8579+
+           9380   11130    9299    9381
CTETRA      9190       1   15054      29     886     180    9300    9299+
+          11130    1904    9301   11131
CTETRA      9191       1   15054     886     537     180   11130    6669+
+          11124    1904   11131   11126
CTETRA      9192       1   17411   13626     826     888   14037   10961+
+          10960   11132   11133    6674
CTETRA      9193       1   17411      57   13626     888    9375    9378+
+          14037   11132    6679   11133
CTETRA      9194       1   17411   15056      57    1233   15176    9376+
+           9375   10963   10335   10966
CTETRA      9195       1   17411     888     826    1233   11132    6674+
+          10960   10963   10968   10964
CTETRA      9196       1     826     888     889    1233    6674    6678+
+           6677   10964   10968   10967
CTETRA      9197       1   15056     889      57    1233   11134    6680+
+           9376   10335   10967   10966
CTETRA      9198       1   15056     505      57     889   10331    8577+
+           9376   11134   10329    6680
CTETRA      9199       1   15056    1165     505     889   10333   10328+
+          10331   11134   10338   10329
CTETRA      9200       1    1165     826     889    1233    8670    6677+
+          10338   10337   10964   10967
CTETRA      9201       1   16090     747   16091     890    5539    6682+
+          16494   11135    6687   11136
CTETRA      9202       1   17586   16090   16091     890   16498   16494+
+          16499    9043   11135   11136
CTETRA      9203       1   17586   15741     890     893   15812    6686+
+           9043    9064    6697   11137
CTETRA      9204       1   15741     747     890     893    6683    6687+
+           6686    6697    6699   11137
CTETRA      9205       1   16034   16091     666     893   16500    6704+
+           7699   11138   11139    6698
CTETRA      9206       1   16091     747     666     893    6682    6396+
+           6704   11139    6699    6698
CTETRA      9207       1   16091     890     747     893   11136    6687+
+           6682   11139   11137    6699
CTETRA      9208       1   17586     890   16091     893    9043   11136+
+          16499    9064   11137   11139
CTETRA      9209       1   17585   17586   16091     893   17608   16499+
+          16501    8771    9064   11139
CTETRA      9210       1   17585   16091   16034     893   16501   16500+
+          16306    8771   11139   11138
CTETRA      9211       1   13792     891    1149     911   11140    8537+
+          10022    6867   11141   10024
CTETRA      9212       1   13792     715     891     911   10707   10704+
+          11140    6867   10718   11141
CTETRA      9213       1   16504     891     715     977    8715   10704+
+           7378   10710   11142   10711
CTETRA      9214       1   16504   16505     891    1138   16529    6690+
+           8715    8482    8481   11143
CTETRA      9215       1   16505     204     891    1138    6688    6691+
+           6690    8481    9639   11143
CTETRA      9216       1   16919    1149     204     891   10025    9600+
+           9135   11144    8537    6691
CTETRA      9217       1   16919     204     206    1138    9135    1999+
+           9136   11145    9639    9638
CTETRA      9218       1   16919     891     204    1138   11144    6691+
+           9135   11145   11143    9639
CTETRA      9219       1   16504    1138     891     977    8482   11143+
+           8715   10710   11146   11142
CTETRA      9220       1   16504    1138     977    1206    8482   11146+
+          10710    9095   11147   11148
CTETRA      9221       1   16919    1138     206    1075   11145    9638+
+           9136   11149   11150    7944
CTETRA      9222       1   13792     715     716     894   10707    5297+
+          10726   11151    6702    6701
CTETRA      9223       1   16514     894     715     982    7955    6702+
+           7379    7315   11152   10705
CTETRA      9224       1   17877     894   16514     982    7954    7955+
+          16564    7860   11152    7315
CTETRA      9225       1   17877   13792     716     894   14640   10726+
+           7946    7954   11151    6701
CTETRA      9226       1   16919     891     715     911   11144   10704+
+          10715   11153   11141   10718
CTETRA      9227       1   16919    1149     891     911   10025    8537+
+          11144   11153   10024   11141
CTETRA      9228       1   16919   16920    1149     911   16982   10026+
+          10025   11153   11154   10024
CTETRA      9229       1   17754   16920   16919     911   16981   16982+
+          16976    6866   11154   11153
CTETRA      9230       1   17754   16919     892     911   16976   10713+
+           8606    6866   11153   10717
CTETRA      9231       1   16919     715     892     911   10715   10708+
+          10713   11153   10718   10717
CTETRA      9232       1   13723     175       7     899    9560    1878+
+           3599   11155    7736    6731
CTETRA      9233       1   17839     175   13723     899    8891    9560+
+          14368    9013    7736   11155
CTETRA      9234       1   17839   13723   17840     899   14368   14367+
+          17844    9013   11155    9014
CTETRA      9235       1   17840   13723     731     899   14367   10766+
+           7207    9014   11155   10767
CTETRA      9236       1   13723      50     731     899    3596    5395+
+          10766   11155    6730   10767
CTETRA      9237       1   13723       7      50     899    3599    3598+
+           3596   11155    6731    6730
CTETRA      9238       1   13597      89     746     901    6948    5528+
+          10784   11156    8505   10785
CTETRA      9239       1   13562      89   13597     901    5873    6948+
+          13935   11157    8505   11156
CTETRA      9240       1   17879   13562   13597     901   13796   13935+
+          13936    6751   11157   11156
CTETRA      9241       1   17879   13597     746     901   13936   10784+
+           9020    6751   11156   10785
CTETRA      9242       1   13562      89     901     902    5873    8505+
+          11157   11158    8506    6754
CTETRA      9243       1   13562     779      89     902    5875    5874+
+           5873   11158    8514    8506
CTETRA      9244       1   13562     714     779     902   10721   10722+
+           5875   11158    7149    8514
CTETRA      9245       1   16513     902     714    1141    7150    7149+
+           5292    8497   11159    9221
CTETRA      9246       1   17878     902   16513    1141    7810    7150+
+          16562    8496   11159    8497
CTETRA      9247       1   17878   13562   17879     902   13795   13796+
+          17880    7810   11158    6753
CTETRA      9248       1   17879   13562     901     902   13796   11157+
+           6751    6753   11158    6754
CTETRA      9249       1   17021     983   11599     903    7319    9995+
+          11646    7320    7321   11160
CTETRA      9250       1   17020   17021   11599     903   17033   11646+
+          11618    7069    7320   11160
CTETRA      9251       1   17020   11599     694     903   11618    6080+
+           5127    7069   11160    7070
CTETRA      9252       1   11599     474     694     903   10816    5681+
+           6080   11160    6757    7070
CTETRA      9253       1   11599     236     474     903    9996    4670+
+          10816   11160    6758    6757
CTETRA      9254       1   11599     983     236     903    9995    7327+
+           9996   11160    7321    6758
CTETRA      9255       1   17892   13578   13569     904   13895   13828+
+          13879    7300   11161    6768
CTETRA      9256       1   17764   13569   13578     904   13823   13828+
+          13827    6769    6768   11161
CTETRA      9257       1   17764   13578    1025     904   13827    7594+
+           7593    6769   11161    8317
CTETRA      9258       1   13578     531    1025     904   10392   10393+
+           7594   11161   10395    8317
CTETRA      9259       1   13578     532     531     904   10400    3864+
+          10392   11161   10401   10395
CTETRA      9260       1   17893     532   13578     904    4108   10400+
+          13896    8316   10401   11161
CTETRA      9261       1   17892   17893   13578     904   17902   13896+
+          13895    7300    8316   11161
CTETRA      9262       1   16609     905     980    1212   11162   11163+
+           7302    9185   11164    9186
CTETRA      9263       1   16609     905     904     980   11162    6772+
+           7299    7302   11163    7303
CTETRA      9264       1   16609    1025     904     905   10394    8317+
+           7299   11162    8318    6772
CTETRA      9265       1   16609    1025     905    1231   10394    8318+
+          11162   10135   10399   11165
CTETRA      9266       1   16609    1231     905    1212   10135   11165+
+          11162    9185   10137   11164
CTETRA      9267       1   13569     980     905    1119   11166   11163+
+           6771    9076   11167    9077
CTETRA      9268       1   13569     904     905     980    6768    6772+
+           6771   11166    7303   11163
CTETRA      9269       1   17892     904   13569     980    7300    6768+
+          13879    7301    7303   11166
CTETRA      9270       1   17892   16608     980    1116   16658    8310+
+           7301    8455    8311   11168
CTETRA      9271       1   16608    1136     980    1116    9345   11169+
+           8310    8311    8471   11168
CTETRA      9272       1   16026     847     357     907   11045    6304+
+           7345   11170   11046   10495
CTETRA      9273       1   17576     847   16026     907    6775   11045+
+          16252    6789   11046   11170
CTETRA      9274       1   17934   17576   16026     907   17580   16252+
+          16251    6787    6789   11170
CTETRA      9275       1   17934   16026     599     907   16251    9065+
+           8872    6787   11170   10494
CTETRA      9276       1   16026     357     599     907    7345    4364+
+           9065   11170   10495   10494
CTETRA      9277       1   12077     253     618    1017    4427    4462+
+          10532   11171    7562    7561
CTETRA      9278       1   12077     606     253    1017   10511    4408+
+           4427   11171   10510    7562
CTETRA      9279       1   17104     606   12077    1017    6824   10511+
+          12257    9148   10510   11171
CTETRA      9280       1   17104   12077     618    1017   12257   10532+
+           9143    9148   11171    7561
CTETRA      9281       1   16920    1149     911     912   10026   10024+
+          11154   11172   10023    6869
CTETRA      9282       1   16920     306    1149     912    9620    9622+
+          10026   11172    9621   10023
CTETRA      9283       1   17754     306   16920     912    2447    9620+
+          16981    6868    9621   11172
CTETRA      9284       1   17754   16920     911     912   16981   11154+
+           6866    6868   11172    6869
CTETRA      9285       1   16051     197   16052     914    1968    1967+
+          16339   11173    6888   11174
CTETRA      9286       1   17696   16051   16052     914   16337   16339+
+          16338    8263   11173   11174
CTETRA      9287       1   17696   15033     914    1134   15070    6876+
+           8263    8454    8453   11175
CTETRA      9288       1   15033     365     914    1134    6875    6877+
+           6876    8453    9036   11175
CTETRA      9289       1   16052     197     365     914    1967    5984+
+           5983   11174    6888    6877
CTETRA      9290       1   17695   16052     365    1134   16341    5983+
+           6889    8452   11176    9036
CTETRA      9291       1   16052     914     365    1134   11174    6877+
+           5983   11176   11175    9036
CTETRA      9292       1   17696     914   16052    1134    8263   11174+
+          16338    8454   11175   11176
CTETRA      9293       1   17695   17696   16052    1134   17699   16338+
+          16341    8452    8454   11176
CTETRA      9294       1   15233     277     365     915    5486    3707+
+           5485   11177    8019    6881
CTETRA      9295       1   17561     277   15233     915    6891    5486+
+          15432    7091    8019   11177
CTETRA      9296       1   17561   15233   17562     915   15432   15433+
+          17568    7091   11177    6880
CTETRA      9297       1   17562   15233     365     915   15433    5485+
+           6879    6880   11177    6881
CTETRA      9298       1   16990     916   13655    1068    6884   11178+
+          14117    7896    8429   10702
CTETRA      9299       1   13655     916     858    1068   11178   11063+
+          11061   10702    8429   10079
CTETRA      9300       1   17834     858   13655     916    8896   11061+
+          14126    8114   11063   11178
CTETRA      9301       1   17834   13655   17835     916   14126   14127+
+          17849    8114   11178    8115
CTETRA      9302       1   17835   13655   13705     916   14127   14632+
+          14323    8115   11178    6883
CTETRA      9303       1   16990   13705   13655     916   14321   14632+
+          14117    6884    6883   11178
CTETRA      9304       1   11693    1014    1130     917    7547    9951+
+           9027   11179    7895    8427
CTETRA      9305       1   11693    1014     917    1198    7547    7895+
+          11179    8999   10380   11180
CTETRA      9306       1   11693     917     916    1198   11179    6887+
+           8116    8999   11180    9000
CTETRA      9307       1   11693    1130     916     917    9027    8426+
+           8116   11179    8427    6887
CTETRA      9308       1   13705     917    1014    1198    6886    7895+
+           8992   11181   11180   10380
CTETRA      9309       1   13705     916     917    1198    6883    6887+
+           6886   11181    9000   11180
CTETRA      9310       1   17835     916   13705    1198    8115    6883+
+          14323    8998    9000   11181
CTETRA      9311       1   17835   13705     524    1198   14323   10378+
+           8425    8998   11181   10379
CTETRA      9312       1   13705    1014     524    1198    8992    7548+
+          10378   11181   10380   10379
CTETRA      9313       1   17344   15038   15039     918   15094   15093+
+          15090    7726   11182   11183
CTETRA      9314       1   15038     162   15039     918    3070    3211+
+          15093   11182    6898   11183
CTETRA      9315       1   17343     162   15038     918    4509    3070+
+          15095    6896    6898   11182
CTETRA      9316       1   17343   15038   17344     918   15095   15094+
+          17348    6896   11182    7726
CTETRA      9317       1   15222     747     748    1204    6628    5553+
+          10786   11184    9069   10787
CTETRA      9318       1   15219     747   15222    1204    8056    6628+
+          15383   11185    9069   11184
CTETRA      9319       1   17453   15219   15222    1204   15390   15383+
+          15389    9247   11185   11184
CTETRA      9320       1   17453   15222     748    1204   15389   10786+
+           6927    9247   11184   10787
CTETRA      9321       1   14671   14672     543     921   14800    7423+
+           7470   11186   11187    6934
CTETRA      9322       1   17386     543   14672     921    6946    7423+
+          14802    8265    6934   11187
CTETRA      9323       1   17385   17386   14672     921   17393   14802+
+          14801    8124    8265   11187
CTETRA      9324       1   17385   14672   14671     921   14801   14800+
+          14797    8124   11187   11186
CTETRA      9325       1   14671     921     543     922   11186    6934+
+           7470   11188    6938    6937
CTETRA      9326       1   17385     921   14671     922    8124   11186+
+          14797    7473    6938   11188
CTETRA      9327       1   17385   13396     922    1161   13480    7474+
+           7473    8815    8636   11189
CTETRA      9328       1   13396     482     922    1161    7477    8028+
+           7474    8636    8635   11189
CTETRA      9329       1   14671     543     482     922    7470    8016+
+           8262   11188    6937    8028
CTETRA      9330       1   13736     544     628     923    4596    6939+
+          10540   11190    6942    6941
CTETRA      9331       1   17359     544   13736     923    6703    4596+
+          14423    8268    6942   11190
CTETRA      9332       1   17359   13736   17360     923   14423   14422+
+          17374    8268   11190    8021
CTETRA      9333       1   17360   13389     923     897   13437    7410+
+           8021    8259    6712   11191
CTETRA      9334       1   13389     224     923     897    2100    7411+
+           7410    6712    6947   11191
CTETRA      9335       1   13736     628     224     923   10540    9675+
+           9676   11190    6941    7411
CTETRA      9336       1   13737     543     544     924    4001    3940+
+           4004   11192    6945    6950
CTETRA      9337       1   17358     543   13737     924    6931    4001+
+          14419    6943    6945   11192
CTETRA      9338       1   17358   13737   17359     924   14419   14425+
+          17376    6943   11192    7471
CTETRA      9339       1   17359   13737     544     924   14425    4004+
+           6703    7471   11192    6950
CTETRA      9340       1   12731     926     127     932    8062    8060+
+           3807    7014   11193    7015
CTETRA      9341       1   17186     926   12731     932    8061    8062+
+          12751    8408   11193    7014
CTETRA      9342       1   17186   12100     925     926   12245    9775+
+           8053    8061   11194    6960
CTETRA      9343       1   12100     126     925     926    3888    6958+
+           9775   11194    6961    6960
CTETRA      9344       1   12100     127     126     926    3817    1677+
+           3888   11194    8060    6961
CTETRA      9345       1   17928   15043     536     927   15135   10409+
+           8624    8625   11195    7227
CTETRA      9346       1   15043      25     536     927    9860    5350+
+          10409   11195    6970    7227
CTETRA      9347       1   15043     315      25     927    8157    6967+
+           9860   11195    6971    6970
CTETRA      9348       1   15043     323     315     927    9894    2506+
+           8157   11195    9895    6971
CTETRA      9349       1   17928     323   15043     927    8254    9894+
+          15135    8625    9895   11195
CTETRA      9350       1   13385   13386     502     964   13420    8713+
+           7680   11196   11197    7215
CTETRA      9351       1   13386     928     502     964   10212    6981+
+           8713   11197   10213    7215
CTETRA      9352       1   17225     928   13386     964    7624   10212+
+          13413    7774   10213   11197
CTETRA      9353       1   17225   13386   13385     964   13413   13420+
+          13418    7774   11197   11196
CTETRA      9354       1   16912   16913     905    1231   16945    6993+
+           6992   11198   11199   11165
CTETRA      9355       1   16912     398   16913    1231   10132   10133+
+          16945   11198   10134   11199
CTETRA      9356       1   16912     943     398    1231   10361    7053+
+          10132   11198   10364   10134
CTETRA      9357       1   16912     531     943    1231   10391   10363+
+          10361   11198   10396   10364
CTETRA      9358       1   16912    1025     531    1231   10398   10393+
+          10391   11198   10399   10396
CTETRA      9359       1   16912     905    1025    1231    6992    8318+
+          10398   11198   11165   10399
CTETRA      9360       1   16913     905    1231    1212    6993   11165+
+          11199   11200   11164   10137
CTETRA      9361       1     905     980    1212    1119   11163    9186+
+          11164    9077   11167   11201
CTETRA      9362       1   16608    1212     980    1136    9184    9186+
+           8310    9345   11202   11169
CTETRA      9363       1   16608    1105    1212    1136    8175   10140+
+           9184    9345   10141   11202
CTETRA      9364       1   16913     398    1105    1212   10133   10138+
+          10139   11200   10136   10140
CTETRA      9365       1   16913    1231     398    1212   11199   10134+
+          10133   11200   10137   10136
CTETRA      9366       1   12966   12967     129     930   13354    2056+
+           5197   11203   11204    7005
CTETRA      9367       1   12967     127     129     930    7000    1693+
+           2056   11204    7006    7005
CTETRA      9368       1   17318     127   12967     930    3806    7000+
+          13362    8217    7006   11204
CTETRA      9369       1   17318   12967   12966     930   13362   13354+
+          13361    8217   11204   11203
CTETRA      9370       1   12100     127     926     932    3817    8060+
+          11194   11205    7015   11193
CTETRA      9371       1   17185     127   12100     932    3815    3817+
+          12246    7013    7015   11205
CTETRA      9372       1   17185   12100   17186     932   12246   12245+
+          17188    7013   11205    8408
CTETRA      9373       1   17186   12100     926     932   12245   11194+
+           8061    8408   11205   11193
CTETRA      9374       1   15055      78    1045      83    9419    9164+
+           9925   11206    9414    7759
CTETRA      9375       1   13626      83      78    1156    8031    9414+
+           9411    8586   11207    9412
CTETRA      9376       1   17412      83   13626    1156    1499    8031+
+          14031    8585   11207    8586
CTETRA      9377       1   17911   17412   15055      83   17421   15174+
+          15175    1497    1499   11206
CTETRA      9378       1   17911   15055    1045      83   15175    9925+
+           7757    1497   11206    7759
CTETRA      9379       1   13627      78    1045     402    9413    9164+
+           7758   11208    7017    9165
CTETRA      9380       1   13626      78   13627     402    9411    9413+
+          14032   11209    7017   11208
CTETRA      9381       1   17852   13626   13627     402   14028   14032+
+          14036    2962   11209   11208
CTETRA      9382       1   17852   13627   17853     402   14036   14035+
+          17869    2962   11208    2963
CTETRA      9383       1   17853   11789     402    1081   11844    8029+
+           2963    8007    8004   11210
CTETRA      9384       1   11789     322     402    1081    2501    8030+
+           8029    8004    8006   11210
CTETRA      9385       1   13627    1045     322     402    7758    9886+
+           9887   11208    9165    8030
CTETRA      9386       1   15055    1208      78    1156    9410    9112+
+           9419   11211    9408    9412
CTETRA      9387       1   15054    1208   15055    1156    9409    9410+
+          15171   11212    9408   11211
CTETRA      9388       1   17412   15054   15055    1156   15167   15171+
+          15174    8585   11212   11211
CTETRA      9389       1   17412   15055      83    1156   15174   11206+
+           1499    8585   11211   11207
CTETRA      9390       1   15055      78      83    1156    9419    9414+
+          11206   11211    9412   11207
CTETRA      9391       1   13626      78     402     933    9411    7017+
+          11209   11213    7020    7019
CTETRA      9392       1   13626    1208      78     933    9406    9112+
+           9411   11213    9114    7020
CTETRA      9393       1   13626      57    1208     933    9378    9372+
+           9406   11213    8291    9114
CTETRA      9394       1   17818     933      57    1070    8290    8291+
+           1403    7912   11214    8574
CTETRA      9395       1   17818   17852     933    1070   11847    8292+
+           8290    7912    9115   11214
CTETRA      9396       1   17852   13626     402     933   14028   11209+
+           2962    8292   11213    7019
CTETRA      9397       1   12089     632     526     934    4552    4556+
+           4555   11215    7022    8689
CTETRA      9398       1   12076     632   12089     934    4996    4552+
+          12203   11216    7022   11215
CTETRA      9399       1   17116   12076   12089     934   12199   12203+
+          12206    8398   11216   11215
CTETRA      9400       1   17116   12089     759     934   12206   10802+
+           7806    8398   11215   10803
CTETRA      9401       1   12089     526     759     934    4555    7007+
+          10802   11215    8689   10803
CTETRA      9402       1   12076     632     934     935    4996    7022+
+          11216   11217    7025    7024
CTETRA      9403       1   12616     935     632     872    7428    7025+
+           4969    6551   11218    6552
CTETRA      9404       1   17116     935   12616     872    7427    7428+
+          12700    7839   11218    6551
CTETRA      9405       1   17116   12076     934     935   12199   11216+
+           8398    7427   11217    7024
CTETRA      9406       1   11878     937      50     938    9355    7029+
+           7756   11219    7033    7032
CTETRA      9407       1   17055     937   11878     938    7754    9355+
+          11952    7755    7033   11219
CTETRA      9408       1   17054   17055   11878     938   17065   11952+
+          11953    8017    7755   11219
CTETRA      9409       1   17054   11878     966     938   11953   10277+
+           7229    8017   11219   10278
CTETRA      9410       1   11878      50     966     938    7756    7750+
+          10277   11219    7032   10278
CTETRA      9411       1   17018     790   11602     939    7520   10898+
+          11627    7036    7453   11220
CTETRA      9412       1   17018   11872     939    1187   11929    7037+
+           7036    9180    8885   11221
CTETRA      9413       1   11872     192     939    1187    2779    7103+
+           7037    8885    8887   11221
CTETRA      9414       1   11602     790     192     939   10898    7452+
+          10065   11220    7453    7103
CTETRA      9415       1   17017   11602    1186    1187   11628   10063+
+           9120    9121   11222    8886
CTETRA      9416       1   11602     192    1186    1187   10065    8884+
+          10063   11222    8887    8886
CTETRA      9417       1   11602     939     192    1187   11220    7103+
+          10065   11222   11221    8887
CTETRA      9418       1   17018     939   11602    1187    7036   11220+
+          11627    9180   11221   11222
CTETRA      9419       1   17017   17018   11602    1187   17029   11627+
+          11628    9121    9180   11222
CTETRA      9420       1   11870     572     941     975   10299   10296+
+          10298   11223    9216   10295
CTETRA      9421       1   17043     572   11870     975    4161   10299+
+          11917    9215    9216   11223
CTETRA      9422       1   17913   17043   11870     975   17045   11917+
+          11916    7280    9215   11223
CTETRA      9423       1   17913   13395     975    1087   13467    7281+
+           7280    9199   11224   11225
CTETRA      9424       1   13395     941     975    1087   10293   10295+
+           7281   11224   11226   11225
CTETRA      9425       1   11870     941     974     593   10298    8895+
+          10301   11227    7045    7275
CTETRA      9426       1   13395     593     941    1087   11228    7045+
+          10293   11224   11229   11226
CTETRA      9427       1   13395       7     593    1087    8079    8894+
+          11228   11224    8071   11229
CTETRA      9428       1   11870       8       7     593    9274    1241+
+           9273   11227    9272    8894
CTETRA      9429       1   17053       8   11870     593    1940    9274+
+          11919    4340    9272   11227
CTETRA      9430       1   17052   17053   11870     593   17063   11919+
+          12063    4338    4340   11227
CTETRA      9431       1   17052   11870     974     593   12063   10301+
+           7273    4338   11227    7275
CTETRA      9432       1   17913   11870   17154    1087   11916   11918+
+          17156    9199   11230    8070
CTETRA      9433       1   17154   11870       7    1087   11918    9273+
+           1240    8070   11230    8071
CTETRA      9434       1   11870     593       7    1087   11227    8894+
+           9273   11230   11229    8071
CTETRA      9435       1   11870     941     593    1087   10298    7045+
+          11227   11230   11226   11229
CTETRA      9436       1   11870     975     941    1087   11223   10295+
+          10298   11230   11225   11226
CTETRA      9437       1   17913     975   11870    1087    7280   11223+
+          11916    9199   11225   11230
CTETRA      9438       1   13395     941     593     942   10293    7045+
+          11228   11231    7049    7048
CTETRA      9439       1   13395     262     941     942    9722    9723+
+          10293   11231    7355    7049
CTETRA      9440       1   11690     942     262     988    7356    7355+
+           3541    7352   11232    7353
CTETRA      9441       1   11690       7     942     988    1876    8825+
+           7356    7352    8041   11232
CTETRA      9442       1   13395     593       7     942   11228    8894+
+           8079   11231    7048    8825
CTETRA      9443       1   15050     318     945     946   10457    9862+
+          10459   11233    9863    7089
CTETRA      9444       1   15050     166     318     946    5161    5002+
+          10457   11233    8975    9863
CTETRA      9445       1   14721     946     166     999    8952    8975+
+           1828    7421   11234    8172
CTETRA      9446       1   17431     946   14721     999    7088    8952+
+          14995    8177   11234    7421
CTETRA      9447       1   17431   15050     945     946   15144   10459+
+           7086    7088   11233    7089
CTETRA      9448       1   17246   12873   12874     948   13004   12996+
+          13006    7435   11235   11236
CTETRA      9449       1   17246   12613     948    1051   12663    7099+
+           7435    8347    7789   11237
CTETRA      9450       1   12613      20     948    1051    4544    7100+
+           7099    7789    8358   11237
CTETRA      9451       1   12873      20   12874     948    7802    7805+
+          12996   11235    7100   11236
CTETRA      9452       1   12874      20     947    1051    7805    7097+
+          10610   11238    8358    7788
CTETRA      9453       1   12874     948      20    1051   11236    7100+
+           7805   11238   11237    8358
CTETRA      9454       1   17246     948   12874    1051    7435   11236+
+          13006    8347   11237   11238
CTETRA      9455       1   17245   17246   12874    1051   17267   13006+
+          13002    7787    8347   11238
CTETRA      9456       1   17245   12874     947    1051   13002   10610+
+           7786    7787   11238    7788
CTETRA      9457       1   15238     712     666     951   10695    5273+
+           7996   11239    8221    7116
CTETRA      9458       1   17930     712   15238     951    8565   10695+
+          15438    8789    8221   11239
CTETRA      9459       1   17930   15741     951     870   15807    7115+
+           8789    6543    6545   11240
CTETRA      9460       1   15741     666     951     870    6696    7116+
+           7115    6545    8792   11240
CTETRA      9461       1   15219   15238     666     870   15451    7996+
+           8055   11241   11242    8792
CTETRA      9462       1   15238     951     666     870   11239    7116+
+           7996   11242   11240    8792
CTETRA      9463       1   17930     951   15238     870    8789   11239+
+          15438    6543   11240   11242
CTETRA      9464       1   17930   15238   17452     870   15438   15441+
+          17482    6543   11242    6544
CTETRA      9465       1   17452   15238   15219     870   15441   15451+
+          15437    6544   11242   11241
CTETRA      9466       1   16062     260     114     952   11243    2238+
+          11244   11245    9720    9503
CTETRA      9467       1   16062     308     260     952    9258    8274+
+          11243   11245    8226    9720
CTETRA      9468       1   16061     308   16062     952    3323    9258+
+          16377   11246    8226   11245
CTETRA      9469       1   17667   16061   16062     952   16375   16377+
+          16373    7120   11246   11245
CTETRA      9470       1   17667   15863     952    1137   15942    8406+
+           7120    8480    8479   11247
CTETRA      9471       1   15863     114     952    1137    9499    9503+
+           8406    8479    9501   11247
CTETRA      9472       1   16061     308     952     953    3323    8226+
+          11246   11248    8227    7123
CTETRA      9473       1   17668     308   16061     953    3318    3323+
+          16376    8464    8227   11248
CTETRA      9474       1   17667   17668   16061     953   17688   16376+
+          16375    7122    8464   11248
CTETRA      9475       1   17667   16061     952     953   16375   11246+
+           7120    7122   11248    7123
CTETRA      9476       1   16917      89     779    1010   10504    5874+
+          10732   11249    7511   10731
CTETRA      9477       1   16503    1010      89    1211    7509    7511+
+           6241    9152   11250    9153
CTETRA      9478       1   16503     714    1010    1211    8487   10723+
+           7509    9152   11251   11250
CTETRA      9479       1   16917     779     714    1010   10732   10722+
+          10728   11249   10731   10723
CTETRA      9480       1   13562     716     714    1141   10727    5296+
+          10721   11252    8498    9221
CTETRA      9481       1   17878     716   13562    1141    7947   10727+
+          13795    8496    8498   11252
CTETRA      9482       1   17878   13562     902    1141   13795   11158+
+           7810    8496   11252   11159
CTETRA      9483       1   13562     714     902    1141   10721    7149+
+          11158   11252    9221   11159
CTETRA      9484       1   17926     857   13400     954    9266   11060+
+          13517    8276    8022   11253
CTETRA      9485       1   17926     954   13400    1171    8276   11253+
+          13517    9063   11254    8721
CTETRA      9486       1   13400     954     482    1171   11253    8807+
+           9263    8721   11254    9269
CTETRA      9487       1   13400      12     482     954    9285    8806+
+           9263   11253    7152    8807
CTETRA      9488       1   13400      11      12     954    9281    1251+
+           9285   11253    7153    7152
CTETRA      9489       1   13400     857      11     954   11060    6476+
+           9281   11253    8022    7153
CTETRA      9490       1   13754    1047      11    1180   11066    9280+
+           9277   11255   11067    9282
CTETRA      9491       1   17355    1047   13754    1180    7769   11066+
+          14473    8811   11067   11255
CTETRA      9492       1   17355   13754   13760    1180   14473   14494+
+          14493    8811   11255   11256
CTETRA      9493       1   13754      11   13760    1180    9277    9278+
+          14494   11255    9282   11256
CTETRA      9494       1   13760    1180      11    1006   11256    9282+
+           9278   11257    8813    9283
CTETRA      9495       1   17355    1180   13760    1006    8811   11256+
+          14493    8812    8813   11257
CTETRA      9496       1   17355   13760   17356    1006   14493   14495+
+          17378    8812   11257    7483
CTETRA      9497       1   17356   13760    1005    1006   14495   10276+
+           7481    7483   11257    7484
CTETRA      9498       1   13760     482    1005    1006    6206    9267+
+          10276   11257    9268    7484
CTETRA      9499       1   13760      12     482    1006    9284    8806+
+           6206   11257    9286    9268
CTETRA      9500       1   13760      11      12    1006    9278    1251+
+           9284   11257    9283    9286
CTETRA      9501       1   12950     825     255     955   10959    6146+
+           4446   11258    7158    8646
CTETRA      9502       1   17238     825   12950     955    7155   10959+
+          13280    7156    7158   11258
CTETRA      9503       1   17237   17238   12950     955   17259   13280+
+          13288    8864    7156   11258
CTETRA      9504       1   17237   12950     617     955   13288   10527+
+           4450    8864   11258   10528
CTETRA      9505       1   12950     255     617     955    4446    7856+
+          10527   11258    8646   10528
CTETRA      9506       1   13707     708     305    1221   11259    9840+
+           9315   11260    9323    9839
CTETRA      9507       1   13707     379     708    1221    9318    7166+
+          11259   11260    9321    9323
CTETRA      9508       1   13707     959     379    1221    9314    9316+
+           9318   11260    9322    9321
CTETRA      9509       1   13707     305     959    1221    9315    8733+
+           9314   11260    9839    9322
CTETRA      9510       1   13707     305     708     371    9315    9840+
+          11259   11261    8566    9842
CTETRA      9511       1   17351     305   13707     371    2443    9315+
+          14327    2801    8566   11261
CTETRA      9512       1   17351   13707   17352     371   14327   14333+
+          17379    2801   11261    2802
CTETRA      9513       1   17352   13707     379     371   14333    9318+
+           3343    2802   11261    9317
CTETRA      9514       1   13707     708     379     371   11259    7166+
+           9318   11261    9842    9317
CTETRA      9515       1   13624   13675     140     960   14191    4872+
+           1733   11262   11263    7175
CTETRA      9516       1   13675     182     140     960    9574    1912+
+           4872   11263    9576    7175
CTETRA      9517       1   17858     182   13675     960    8299    9574+
+          14192    9111    9576   11263
CTETRA      9518       1   17858   13675   13624     960   14192   14191+
+          14044    9111   11263   11262
CTETRA      9519       1   13624     960     140     961   11262    7175+
+           1733   11264    7179    7178
CTETRA      9520       1   17858     960   13624     961    9111   11262+
+          14044    8879    7179   11264
CTETRA      9521       1   17858   13624   13630     961   14044   14043+
+          14042    8879   11264   11265
CTETRA      9522       1   13624     309   13630     961    5818    5253+
+          14043   11264    9116   11265
CTETRA      9523       1   13624     140     309     961    1733    6326+
+           5818   11264    7178    9116
CTETRA      9524       1   13385     964     502     913   11196    7215+
+           7680   11266    7218    7217
CTETRA      9525       1   17225     964   13385     913    7774   11196+
+          13418    6872    7218   11266
CTETRA      9526       1   17225   13385   17226     913   13418   13419+
+          17232    6872   11266    6873
CTETRA      9527       1   17226   13385     502     913   13419    7680+
+           8712    6873   11266    7217
CTETRA      9528       1   17913     497   13395     967    9209   10322+
+          13467    9200    7235   11267
CTETRA      9529       1   17913   13395    1087     967   13467   11224+
+           9199    9200   11267    8072
CTETRA      9530       1   13395       7    1087     967    8079    8071+
+          11224   11267    7234    8072
CTETRA      9531       1   13395     497       7     967   10322    3592+
+           8079   11267    7235    7234
CTETRA      9532       1   17094   12143     504     968   12415    6930+
+           7242    7243   11268    7240
CTETRA      9533       1   12143     502     504     968    3654    3647+
+           6930   11268    7241    7240
CTETRA      9534       1   17093     502   12143     968    3653    3654+
+          12416    7625    7241   11268
CTETRA      9535       1   17093   12143   17094     968   12416   12415+
+          17095    7625   11268    7243
CTETRA      9536       1   11774     309     882     969    9169    7279+
+          11113   11269    7245   11114
CTETRA      9537       1   11774   11775     309     969   11797    6325+
+           9169   11269   11270    7245
CTETRA      9538       1   11774     832   11775     969    7269    6212+
+          11797   11269    7938   11270
CTETRA      9539       1   11774     832     969    1185    7269    7938+
+          11269    8868   10987   11271
CTETRA      9540       1   11774     969     882    1185   11269   11114+
+          11113    8868   11271   11115
CTETRA      9541       1   11775     309     969     958    6325    7245+
+          11270   11272    7248    7247
CTETRA      9542       1   11775     140     309     958    6323    6326+
+           6325   11272    8877    7248
CTETRA      9543       1   11775     831     140     958    6209    8711+
+           6323   11272    7170    8877
CTETRA      9544       1   11775     832     831     958    6212    6211+
+           6209   11272    7171    7170
CTETRA      9545       1   11775     969     832     958   11270    7938+
+           6212   11272    7247    7171
CTETRA      9546       1   17227     504   13388     970    7249    7250+
+          13428    7251    7253   11273
CTETRA      9547       1   17920   17227   13388     970   17228   13428+
+          13430    7767    7251   11273
CTETRA      9548       1   17920   13388     479     970   13430    4947+
+           5614    7767   11273    7491
CTETRA      9549       1   13388     504     479     970    7250    5767+
+           4947   11273    7253    7491
CTETRA      9550       1   12129     504     479     971    3831    5767+
+           7499   11274    7256    7257
CTETRA      9551       1   17094     504   12129     971    7242    3831+
+          12418    7254    7256   11274
CTETRA      9552       1   17917   17094   12129     971   17098   12418+
+          12547    7497    7254   11274
CTETRA      9553       1   17917   12129     479     971   12547    7499+
+           4944    7497   11274    7257
CTETRA      9554       1   16919     977    1138    1075   11275   11146+
+          11145   11149   11276   11150
CTETRA      9555       1   16919     891    1138     977   11144   11143+
+          11145   11275   11142   11146
CTETRA      9556       1   16919     715     891     977   10715   10704+
+          11144   11275   10711   11142
CTETRA      9557       1   16917     715   16919     977   10716   10715+
+          16977   11277   10711   11275
CTETRA      9558       1   17789   16917   16919     977   16978   16977+
+          16979    7289   11277   11275
CTETRA      9559       1   17789     977   16919    1075    7289   11275+
+          16979    7943   11276   11149
CTETRA      9560       1   17789   16917     977     976   16978   11277+
+           7289    7287   11278    7288
CTETRA      9561       1   16917     715     977     976   10716   10711+
+          11277   11278   10712    7288
CTETRA      9562       1   16917     714     715     976   10728    5293+
+          10716   11278   10724   10712
CTETRA      9563       1   16503     976     714    1211    8508   10724+
+           8487    9152   11279   11251
CTETRA      9564       1   16503     839     976    1211    6246    8509+
+           8508    9152    9154   11279
CTETRA      9565       1   16917     979     839     976   11079   11019+
+          11078   11278   11080    8509
CTETRA      9566       1   17789     979   16917     976    7295   11079+
+          16978    7287   11080   11278
CTETRA      9567       1   16504     978     979    1205   11280    7297+
+          11018    9092   11281   11020
CTETRA      9568       1   16504     976     979     978    8510   11080+
+          11018   11280    7291    7297
CTETRA      9569       1   16504     977     976     978   10710    7288+
+           8510   11280    7292    7291
CTETRA      9570       1   16504     977     978    1206   10710    7292+
+          11280    9095   11148   11282
CTETRA      9571       1   16504     978    1205    1206   11280   11281+
+           9092    9095   11282    9096
CTETRA      9572       1   16702     979     978    1205    7294    7297+
+           7296   11283   11020   11281
CTETRA      9573       1   16702     839     979    1205   11016   11019+
+           7294   11283   11017   11020
CTETRA      9574       1   17715     839   16702    1205    9084   11016+
+          16775    9093   11017   11283
CTETRA      9575       1   17715   16702   16701    1205   16775   16765+
+          16770    9093   11283   11284
CTETRA      9576       1   16701   16702     978    1205   16765    7296+
+           9088   11284   11283   11281
CTETRA      9577       1   12858     632     674     944    4559    4972+
+          10617   11285    9145    7083
CTETRA      9578       1   12858     868     632     944   11092    6536+
+           4559   11285   11093    9145
CTETRA      9579       1   17249     868   12858     944    9146   11092+
+          12982    7635   11093   11285
CTETRA      9580       1   17248   17249   12858     944   17270   12982+
+          12981    7082    7635   11285
CTETRA      9581       1   17248   12858     674     944   12981   10617+
+           6379    7082   11285    7083
CTETRA      9582       1   13792    1149     891     982   10022    8537+
+          11140   11286    8540    8539
CTETRA      9583       1   13792     306    1149     982    8605    9622+
+          10022   11286    7316    8540
CTETRA      9584       1   13792     981     306     982   10021    7313+
+           8605   11286    7317    7316
CTETRA      9585       1   17877     981   13792     982    7656   10021+
+          14640    7860    7317   11286
CTETRA      9586       1   17877   13792     894     982   14640   11151+
+           7954    7860   11286   11152
CTETRA      9587       1   13792     715     894     982   10707    6702+
+          11151   11286   10705   11152
CTETRA      9588       1   13792     891     715     982   11140   10704+
+          10707   11286    8539   10705
CTETRA      9589       1   13395     987     262     988    9564    7350+
+           9722   11287    7354    7353
CTETRA      9590       1   13395       7     987     988    8079    8040+
+           9564   11287    8041    7354
CTETRA      9591       1   13395     942       7     988   11231    8825+
+           8079   11287   11232    8041
CTETRA      9592       1   13395     262     942     988    9722    7355+
+          11231   11287    7353   11232
CTETRA      9593       1   13724       7     987    1088    7739    8040+
+           9563   11288    8078    9565
CTETRA      9594       1   13722       7   13724    1088    7016    7739+
+          14366   11289    8078   11288
CTETRA      9595       1   17364   13722   13724    1088   14355   14366+
+          14369    8821   11289   11288
CTETRA      9596       1   17364   13393    1088    1210   13456    8823+
+           8821    9128    9130   11290
CTETRA      9597       1   13393     987    1088    1210    9566    9565+
+           8823    9130    9567   11290
CTETRA      9598       1   13724    1088     987    1210   11288    9565+
+           9563   11291   11290    9567
CTETRA      9599       1   17364    1088   13724    1210    8821   11288+
+          14369    9128   11290   11291
CTETRA      9600       1   17364   13724   17365    1210   14369   14370+
+          17371    9128   11291    9129
CTETRA      9601       1   17365   13724     987    1210   14370    9563+
+           8892    9129   11291    9567
CTETRA      9602       1   11603     989     192     990   10059    7363+
+          10058   11292    7367    7366
CTETRA      9603       1   11603     358     989     990   10062    9795+
+          10059   11292    7531    7367
CTETRA      9604       1   11779     990     358    1225    7532    7531+
+           2690    9787   11293    9788
CTETRA      9605       1   11779    1021     990    1225    8873   11005+
+           7532    9787   11006   11293
CTETRA      9606       1   11787     990    1021    1012    8874   11005+
+           7578    7522   11294   11004
CTETRA      9607       1   11787     192     990    1012    5930    7366+
+           8874    7522    7524   11294
CTETRA      9608       1   11873     192     989     991    4911    7363+
+           9999   11295    7383    7533
CTETRA      9609       1   11777     991     192     920    7381    7383+
+           7380    6909   11296    9119
CTETRA      9610       1   17071     991   11777     920    7537    7381+
+          11859    6908   11296    6909
CTETRA      9611       1   17070   17071   11873     991   17081   11935+
+          11934    7536    7537   11295
CTETRA      9612       1   17070   11873     989     991   11934    9999+
+           8113    7536   11295    7533
CTETRA      9613       1   11873     387     192     920   10066    8109+
+           4911   11297    6910    9119
CTETRA      9614       1   17071     387   11873     920    5657   10066+
+          11935    6908    6910   11297
CTETRA      9615       1   17071   11873     991     920   11935   11295+
+           7537    6908   11297   11296
CTETRA      9616       1   11873     192     991     920    4911    7383+
+          11295   11297    9119   11296
CTETRA      9617       1   15988     328   15993     993    9916    9915+
+          16125   11298    7389   11299
CTETRA      9618       1   15988     188     328     993    9665    9587+
+           9916   11298    9588    7389
CTETRA      9619       1   15988     213     188     993    9666    9178+
+           9665   11298    9667    9588
CTETRA      9620       1   17599     213   15988     993    2037    9666+
+          16110    9237    9667   11298
CTETRA      9621       1   17598   17599   15988     993   17621   16110+
+          16123    8269    9237   11298
CTETRA      9622       1   17598   15988   15993     993   16123   16125+
+          16124    8269   11298   11299
CTETRA      9623       1   15993     993     328     994   11299    7389+
+           9915   11300    7393    7392
CTETRA      9624       1   17598     993   15993     994    8269   11299+
+          16124    8270    7393   11300
CTETRA      9625       1   17598   15993   15994     994   16124   16116+
+          16126    8270   11300   11301
CTETRA      9626       1   15993     326   15994     994    8283    8282+
+          16116   11300    8074   11301
CTETRA      9627       1   15993     328     326     994    9915    2525+
+           8283   11300    7392    8074
CTETRA      9628       1   16065     821     212    1178   10951    6131+
+           8421   11302   10953    9047
CTETRA      9629       1   17662     821   16065    1178    7399   10951+
+          16386    8785   10953   11302
CTETRA      9630       1   17661   17662   16065    1178   17683   16386+
+          16385    8783    8785   11302
CTETRA      9631       1   17661   15850    1178    1146   15891    8930+
+           8783    9004    8529   11303
CTETRA      9632       1   15850     212    1178    1146    8528    9047+
+           8930    8529    8531   11303
CTETRA      9633       1   13718     223     163     940    5075    3126+
+           5074   11304    8027    7405
CTETRA      9634       1   17361     223   13718     940    5087    5075+
+          14339    7041    8027   11304
CTETRA      9635       1   17361   13718   17362     940   14339   14338+
+          17368    7041   11304    7042
CTETRA      9636       1   17362   13718   13719     940   14338   14340+
+          14341    7042   11304   11305
CTETRA      9637       1   13718     163   13719     940    5074    3602+
+          14340   11304    7405   11305
CTETRA      9638       1   13719     940     163     996   11305    7405+
+           3602   11306    7408    7407
CTETRA      9639       1   17362     940   13719     996    7042   11305+
+          14341    7430    7408   11306
CTETRA      9640       1   17362   13719     491     996   14341   10309+
+           8809    7430   11306   10310
CTETRA      9641       1   13719     163     491     996    3602    4042+
+          10309   11306    7407   10310
CTETRA      9642       1   12735     129   12110     997    7740    5189+
+           9134    8756    7413    7570
CTETRA      9643       1   17183   17184   12735     997   17191   12773+
+          12774    7569    7571    8756
CTETRA      9644       1   17184   12110   12108     997   12296   12294+
+          12287    7571    7570   11307
CTETRA      9645       1   12108   12110     129     997   12294    5189+
+           6996   11307    7570    7413
CTETRA      9646       1   12108     997     129     998   11307    7413+
+           6996   11308    7417    7416
CTETRA      9647       1   17184     997   12108     998    7571   11307+
+          12287    8698    7417   11308
CTETRA      9648       1   17184   12108   17185     998   12287   12286+
+          17190    8698   11308    8404
CTETRA      9649       1   17185   12108     127     998   12286    3816+
+           3815    8404   11308    8405
CTETRA      9650       1   12108     129     127     998    6996    1693+
+           3816   11308    7416    8405
CTETRA      9651       1   15050     698     166     999   10662    5158+
+           5161   11309    7422    8172
CTETRA      9652       1   17432     698   15050     999    7419   10662+
+          15161    7420    7422   11309
CTETRA      9653       1   17431   17432   15050     999   17436   15161+
+          15144    8177    7420   11309
CTETRA      9654       1   17431   15050     946     999   15144   11233+
+           7088    8177   11309   11234
CTETRA      9655       1   15050     166     946     999    5161    8975+
+          11233   11309    8172   11234
CTETRA      9656       1   12076     620     632     872    4997    4967+
+           4996   11310    6553    6552
CTETRA      9657       1   12076     801     620     872   10914    6018+
+           4997   11310    9144    6553
CTETRA      9658       1   17115     801   12076     872    8392   10914+
+          12200    7838    9144   11310
CTETRA      9659       1   17115   12076   17116     872   12200   12199+
+          17121    7838   11310    7839
CTETRA      9660       1   17116   12076     935     872   12199   11217+
+           7427    7839   11310   11218
CTETRA      9661       1   12076     632     935     872    4996    7025+
+          11217   11310    6552   11218
CTETRA      9662       1   12868     856     620    1000   11050    8751+
+           4467   11311    8752    7535
CTETRA      9663       1   17247     856   12868    1000    6456   11050+
+          12990    7439    8752   11311
CTETRA      9664       1   17247   12614    1000    1031   12666    7440+
+           7439    7645    7644   11312
CTETRA      9665       1   12614     802    1000    1031    9138    7534+
+           7440    7644   10920   11312
CTETRA      9666       1   12868     620     802    1000    4467    6022+
+          10918   11311    7535    7534
CTETRA      9667       1   17246   12868   12873    1031   13003   13005+
+          13004    7643   11313   11314
CTETRA      9668       1   12868     806   12873    1031    6031    8018+
+          13005   11313    8763   11314
CTETRA      9669       1   12868     802     806    1031   10918   10919+
+           6031   11313   10920    8763
CTETRA      9670       1   12868    1000     802    1031   11311    7534+
+          10918   11313   11312   10920
CTETRA      9671       1   17247    1000   12868    1031    7439   11311+
+          12990    7645   11312   11313
CTETRA      9672       1   17246   17247   12868    1031   17268   12990+
+          13003    7643    7645   11313
CTETRA      9673       1   12137      20     194    1001    8063    1983+
+           7796   11315    7457    7804
CTETRA      9674       1   12614    1001      20     956    7458    7457+
+           7098    7161   11316    8666
CTETRA      9675       1   12614     806    1001     956    8762   10936+
+           7458    7161   10934   11316
CTETRA      9676       1   12137     194     806    1001    7796    6033+
+          10935   11315    7804   10936
CTETRA      9677       1   17246    1031   12873    1002    7643   11314+
+          13004    7636    8765   11317
CTETRA      9678       1   17246   12873     948    1002   13004   11235+
+           7435    7636   11317    7637
CTETRA      9679       1   12873      20     948    1002    7802    7100+
+          11235   11317    7460    7637
CTETRA      9680       1   12873    1001      20    1002    7803    7457+
+           7802   11317    7461    7460
CTETRA      9681       1   12873     806    1001    1002    8018   10936+
+           7803   11317    8764    7461
CTETRA      9682       1   12873    1031     806    1002   11314    8763+
+           8018   11317    8765    8764
CTETRA      9683       1   12137     806     802     956   10935   10919+
+          10917   11318   10934   10921
CTETRA      9684       1   12137    1001     806     956   11315   10936+
+          10935   11318   11316   10934
CTETRA      9685       1   12137      20    1001     956    8063    7457+
+          11315   11318    8666   11316
CTETRA      9686       1   12135      20   12137     956    4489    8063+
+          12387   11319    8666   11318
CTETRA      9687       1   17113   12135   12137     956   12394   12387+
+          12395    7160   11319   11318
CTETRA      9688       1   17113   12137   17114     956   12395   12399+
+          17133    7160   11318    9155
CTETRA      9689       1   17114   12137     802     956   12399   10917+
+           7136    9155   11318   10921
CTETRA      9690       1   14670   14671     482    1161   14795    8262+
+           6863   11320   11321    8635
CTETRA      9691       1   14671     922     482    1161   11188    8028+
+           8262   11321   11189    8635
CTETRA      9692       1   17385     922   14671    1161    7473   11188+
+          14797    8815   11189   11321
CTETRA      9693       1   17385   14671   14670    1161   14797   14795+
+          14796    8815   11321   11320
CTETRA      9694       1   13398     482    1004    1003    7476    7480+
+           7479    7468    8168   11322
CTETRA      9695       1   13715     476     482    1004   10274    8808+
+           8015   11323    7794    7480
CTETRA      9696       1   17357     476   13715    1004    7792   10274+
+          14421    7793    7794   11323
CTETRA      9697       1   17357   13398    1004    1003   13476    7479+
+           7793    8264    7468   11322
CTETRA      9698       1   13715     482     543    1003    8015    8016+
+           6932   11324    8168    7467
CTETRA      9699       1   13715    1004     482    1003   11323    7480+
+           8015   11324   11322    8168
CTETRA      9700       1   17357    1004   13715    1003    7793   11323+
+          14421    8264   11322   11324
CTETRA      9701       1   17357   13715   17358    1003   14421   14418+
+          17375    8264   11324    7466
CTETRA      9702       1   17358   13715     543    1003   14418    6932+
+           6931    7466   11324    7467
CTETRA      9703       1   17598     994   15994    1209    8270   11301+
+          16126    9261    9126   11325
CTETRA      9704       1   17598   15994      52    1209   16126    9361+
+           7495    9261   11325    9362
CTETRA      9705       1   15994     326      52    1209    8282    7502+
+           9361   11325    9125    9362
CTETRA      9706       1   15994     994     326    1209   11301    8074+
+           8282   11325    9126    9125
CTETRA      9707       1   16917     839      89    1211   11078    6247+
+          10504   11326    9154    9153
CTETRA      9708       1   16917     976     839    1211   11278    8509+
+          11078   11326   11279    9154
CTETRA      9709       1   16917     714     976    1211   10728   10724+
+          11278   11326   11251   11279
CTETRA      9710       1   16917    1010     714    1211   11249   10723+
+          10728   11326   11250   11251
CTETRA      9711       1   16917      89    1010    1211   10504    7511+
+          11249   11326    9153   11250
CTETRA      9712       1   12188    1183     485    1011   11122   11121+
+           6655   11327    8846   11328
CTETRA      9713       1   17107    1183   12188    1011    9141   11122+
+          12590    7544    8846   11327
CTETRA      9714       1   17107   12188   17108    1011   12590   12596+
+          17141    7544   11327    7545
CTETRA      9715       1   17108   12609    1011    1009   12713    8861+
+           7545    9140    7492   11329
CTETRA      9716       1   12609      74    1011    1009    1482    7514+
+           8861    7492    7494   11329
CTETRA      9717       1   12188    1011     485     883   11327   11328+
+           6655    6657    7517    6658
CTETRA      9718       1   15255   15266     326     881   15551    2514+
+           7679   11330   11331    9122
CTETRA      9719       1   17464   15266   15255     881   15554   15551+
+          15516    6646   11331   11330
CTETRA      9720       1   17464   15255   17465     881   15516   15514+
+          17484    6646   11330    7997
CTETRA      9721       1   17465   15255     329     881   15514    9901+
+           7585    7997   11330    9902
CTETRA      9722       1   15255     326     329     881    7679    2529+
+           9901   11330    9122    9902
CTETRA      9723       1   13676     181     182    1128    4867    1913+
+           9575   11332    9123    8387
CTETRA      9724       1   13676     732     181    1128   10768    5399+
+           4867   11332   10770    9123
CTETRA      9725       1   17857     732   13676    1128    7526   10768+
+          14207    8386   10770   11332
CTETRA      9726       1   17857   13676     182    1128   14207    9575+
+           8298    8386   11332    8387
CTETRA      9727       1   15045    1222    1103    1202    9444    9335+
+           9338   11333    9337    9056
CTETRA      9728       1   15045      80    1222    1202    9445    9433+
+           9444   11333    9434    9337
CTETRA      9729       1   15045     210      80    1202    9660    7551+
+           9445   11333    9664    9434
CTETRA      9730       1   17829    1202     210    1214    9101    9664+
+           8456    9195   11334    9663
CTETRA      9731       1   17829      32    1202    1214    1318    9102+
+           9101    9195    9197   11334
CTETRA      9732       1   15045    1202    1103    1191   11333    9056+
+           9338    9340   11335    8943
CTETRA      9733       1   15044   15046    1015    1132   15124   11336+
+          11337    8451    8441   11338
CTETRA      9734       1   15046     866    1015    1132   11082    7919+
+          11336    8441   11083   11338
CTETRA      9735       1   16606    1015     866    1111    7554    7919+
+           6518    8247   11339    8248
CTETRA      9736       1   17939    1015   16606    1111    7555    7554+
+          16677    8633   11339    8247
CTETRA      9737       1   17939   16731   16698    1015   16902   16903+
+          16895    7555   11340   11341
CTETRA      9738       1   17746   16698   16731    1015   16755   16903+
+          16900   11342   11341   11340
CTETRA      9739       1   17746   15044    1015    1163   15118   11337+
+          11342    8642    8644   11343
CTETRA      9740       1   16731     865     866    1111   10926    6520+
+          11344   11345    8249    8248
CTETRA      9741       1   17939     865   16731    1111    8632   10926+
+          16902    8633    8249   11345
CTETRA      9742       1   17939   16731    1015    1111   16902   11340+
+           7555    8633   11345   11339
CTETRA      9743       1   16731     866    1015    1111   11344    7919+
+          11340   11345    8248   11339
CTETRA      9744       1   17746    1015   15044    1018   11342   11337+
+          15118    8132    7564   11346
CTETRA      9745       1   17746   16698    1015    1018   16755   11341+
+          11342    8132   11347    7564
CTETRA      9746       1   17940    1018   15045    1191    8134    8133+
+          15119    8942   11348    9340
CTETRA      9747       1   17746   15044   15045    1018   15118   15117+
+          15116    8132   11346    8133
CTETRA      9748       1   16698    1015    1018      32   11341    7564+
+          11347   11349    7566    7565
CTETRA      9749       1   17939    1015   16698      32    7555   11341+
+          16895    1319    7566   11349
CTETRA      9750       1   17939   16698   17735      32   16895   16758+
+          17736    1319   11349    1320
CTETRA      9751       1   17735   16598      32    1203   16651    8917+
+           1320    9190    9058   11350
CTETRA      9752       1   16598    1202      32    1203    9057    9102+
+           8917    9058    9060   11350
CTETRA      9753       1   16698    1202      32    1191   11351    9102+
+          11349    8944   11335   11352
CTETRA      9754       1   16698      32    1018    1191   11349    7565+
+          11347    8944   11352   11348
CTETRA      9755       1   17532   15864   15859    1019   15939   15938+
+          15935    7574   11353   11354
CTETRA      9756       1   15859   15864     228    1019   15938    2117+
+           7688   11354   11353    8195
CTETRA      9757       1   15864     112     228    1019    2999    2998+
+           2117   11353    7778    8195
CTETRA      9758       1   15200    1019     112    1028    7777    7778+
+           1624    7622   11355    8468
CTETRA      9759       1   17532    1019   15200    1028    7574    7777+
+          15600    7621   11355    7622
CTETRA      9760       1   17532    1019   15859    1020    7574   11354+
+          15935    7575    7577   11356
CTETRA      9761       1   17531   17532   15859    1020   17549   15935+
+          15932    9201    7575   11356
CTETRA      9762       1   17531   15283    1020    1107   15603    9040+
+           9201    8199    8201   11357
CTETRA      9763       1   15283     406    1020    1107    4111    9041+
+           9040    8201    9227   11357
CTETRA      9764       1   15859     565     406    1020    4119    4121+
+           4118   11356    7703    9041
CTETRA      9765       1   15859     565    1020    1106    4119    7703+
+          11356    8188    8187   11358
CTETRA      9766       1   15859    1020     228    1106   11356    9226+
+           7688    8188   11358   10156
CTETRA      9767       1   15859    1019     228    1020   11354    8195+
+           7688   11356    7577    9226
CTETRA      9768       1   15046     774     776    1022   10842   10843+
+          10850   11359    7928    8251
CTETRA      9769       1   13609    1022     774    1072   11360    7928+
+           5851    7925   11361    7926
CTETRA      9770       1   16615    1095    1022    1071    8120   11362+
+           7582    7922    8122    8461
CTETRA      9771       1   17829    1022   16615    1095    7583    7582+
+          16674   11085   11362    8120
CTETRA      9772       1   17829     776    1022    1220    8250    8251+
+           7583    9253   10851   11363
CTETRA      9773       1   13609      27    1095    1072    8244    8119+
+          11364    7925    8246   11365
CTETRA      9774       1   15046     866      27    1095   11082    6519+
+           7183   11366   11086    8119
CTETRA      9775       1   17829    1095     866    1220   11085   11086+
+           7918    9253   11367   11084
CTETRA      9776       1   17829    1022    1095    1220    7583   11362+
+          11085    9253   11363   11367
CTETRA      9777       1   13609    1095    1022    1072   11364   11362+
+          11360    7925   11365   11361
CTETRA      9778       1   15044    1015   15046    1220   11337   11336+
+          15124   11368    9254   11369
CTETRA      9779       1   15044   15046     776    1220   15124   10850+
+          10849   11368   11369   10851
CTETRA      9780       1   15046    1022     776    1220   11359    8251+
+          10850   11369   11363   10851
CTETRA      9781       1   15046    1095    1022    1220   11366   11362+
+          11359   11369   11367   11363
CTETRA      9782       1   15046     866    1095    1220   11082   11086+
+          11366   11369   11084   11367
CTETRA      9783       1   15046    1015     866    1220   11336    7919+
+          11082   11369    9254   11084
CTETRA      9784       1   16912     122      82    1054    3875    7818+
+          10142   11370    7821    7820
CTETRA      9785       1   16912     531     122    1054   10391    7911+
+           3875   11370   10397    7821
CTETRA      9786       1   16912     943     531    1054   10361   10363+
+          10391   11370   10362   10397
CTETRA      9787       1   16912      82     943    1054   10142    7596+
+          10361   11370    7820   10362
CTETRA      9788       1   16062     114     260    1027   11244    2238+
+          11243   11371    7610    7612
CTETRA      9789       1   16062     112     114    1027    4107    1627+
+          11244   11371    7611    7610
CTETRA      9790       1   16062     115     112    1027    9509    1630+
+           4107   11371    9507    7611
CTETRA      9791       1   16062     308     115    1027    9258    8336+
+           9509   11371    8340    9507
CTETRA      9792       1   16062     260     308    1027   11243    8274+
+           9258   11371    7612    8340
CTETRA      9793       1   16062     114     112    1137   11244    1627+
+           4107   11372    9501    9500
CTETRA      9794       1   16062     952     114    1137   11245    9503+
+          11244   11372   11247    9501
CTETRA      9795       1   17667     952   16062    1137    7120   11245+
+          16373    8480   11247   11372
CTETRA      9796       1   17666   17667   16062    1137   17687   16373+
+          16374    8478    8480   11372
CTETRA      9797       1   17666   16062     407    1137   16374   10157+
+           5555    8478   11372   10158
CTETRA      9798       1   16062     112     407    1137    4107    3002+
+          10157   11372    9500   10158
CTETRA      9799       1   16058     562     242    1032   10441    4103+
+           7396   11373    8970    8176
CTETRA      9800       1   17588     562   16058    1032    7647   10441+
+          16412    7649    8970   11373
CTETRA      9801       1   17588   15739    1032    1108   15816    7650+
+           7649    8207    8203   11374
CTETRA      9802       1   15739     242    1032    1108    2972    8176+
+           7650    8203    8202   11374
CTETRA      9803       1   16058     242   16090    1108    7396    8493+
+          16490   11375    8202   11376
CTETRA      9804       1   16058    1032     242    1108   11373    8176+
+           7396   11375   11374    8202
CTETRA      9805       1   17588    1032   16058    1108    7649   11373+
+          16412    8207   11374   11375
CTETRA      9806       1   17587   17588   16058    1108   17610   16412+
+          16491    8206    8207   11375
CTETRA      9807       1   17587   16058   16090    1108   16491   16490+
+          16492    8206   11375   11376
CTETRA      9808       1   13386    1036     502    1046    8717    7682+
+           8713    7761   11377    8714
CTETRA      9809       1   17092    1036   13386    1046    8716    8717+
+          13417    7775   11377    7761
CTETRA      9810       1   17092   12150   17093    1036   12436   12439+
+          17097    8716   11378    7681
CTETRA      9811       1   17093   12150     502    1036   12439    3638+
+           3653    7681   11378    7682
CTETRA      9812       1   12086     869   12091    1037   11096   11095+
+          12223   11379    8848   11380
CTETRA      9813       1   12086     526     869    1037    8394    6541+
+          11096   11379    9151    8848
CTETRA      9814       1   12919    1037     526    1235    7697    9151+
+           3805   10666   11381   10807
CTETRA      9815       1   12919     781    1037    1235    5885    7698+
+           7697   10666   10668   11381
CTETRA      9816       1   12086   12091     781    1037   12223   10867+
+          10870   11379   11380    7698
CTETRA      9817       1   12086     781     584    1235   10870   10665+
+           7863   11382   10668   10667
CTETRA      9818       1   12086    1037     781    1235   11379    7698+
+          10870   11382   11381   10668
CTETRA      9819       1   12086     526    1037    1235    8394    9151+
+          11379   11382   10807   11381
CTETRA      9820       1   12086     760     526    1235   10804    7008+
+           8394   11382   10808   10807
CTETRA      9821       1     760     777    1235     585    8709   10858+
+          10808   10805    9171   11383
CTETRA      9822       1   12086    1235     584     585   11382   10667+
+           7863   11384   11383    4255
CTETRA      9823       1   12091    1037     869    1184   11380    8848+
+          11095   11385    8851    8850
CTETRA      9824       1   12091     781    1037    1184   10867    7698+
+          11380   11385   10869    8851
CTETRA      9825       1   12091     783     781    1184   10871   10868+
+          10867   11385   10872   10869
CTETRA      9826       1   12091     582     783    1184    6801    8260+
+          10871   11385    9259   10872
CTETRA      9827       1   12091     869     582    1184   11095    8802+
+           6801   11385    8850    9259
CTETRA      9828       1   16066   16077     565    1189   16446   10446+
+          10449   11386   11387   10448
CTETRA      9829       1   16077     406     565    1189    8704    4121+
+          10446   11387    8921   10448
CTETRA      9830       1   16077   16078     406    1189   16444    4135+
+           8704   11387   11388    8921
CTETRA      9831       1   16066   16078   16077    1189   16442   16444+
+          16446   11386   11388   11387
CTETRA      9832       1   16066    1189     565    1039   11386   10448+
+          10449   11389    8918    7707
CTETRA      9833       1   16066   16078    1189    1039   16442   11388+
+          11386   11389   11390    8918
CTETRA      9834       1   16066     112   16078    1039    7720    1614+
+          16442   11389    7709   11390
CTETRA      9835       1   16066     228     112    1039   10155    2998+
+           7720   11389   10153    7709
CTETRA      9836       1   16066    1020     228    1039   11391    9226+
+          10155   11389    7706   10153
CTETRA      9837       1   16066     565    1020    1039   10449    7703+
+          11391   11389    7707    7706
CTETRA      9838       1   16066     228    1020    1106   10155    9226+
+          11391   11392   10156   11358
CTETRA      9839       1   17665     228   16066    1106    2116   10155+
+          16394    8186   10156   11392
CTETRA      9840       1   17665   16066     565    1106   16394   10449+
+           8185    8186   11392    8187
CTETRA      9841       1   16066    1020     565    1106   11391    7703+
+          10449   11392   11358    8187
CTETRA      9842       1   16078    1189    1039    1040   11388    8918+
+          11390   11393    8920    7712
CTETRA      9843       1   16078     406    1189    1040    4135    8921+
+          11388   11393    8922    8920
CTETRA      9844       1   16078     111     406    1040    1611    5541+
+           4135   11393    8974    8922
CTETRA      9845       1   16078     112     111    1040    1614    1613+
+           1611   11393    7711    8974
CTETRA      9846       1   16078    1039     112    1040   11390    7709+
+           1614   11393    7712    7711
CTETRA      9847       1   15237     512     277    1041    4831    7270+
+           3714   11394    9083    7722
CTETRA      9848       1   17931     512   15237    1041    5780    4831+
+          15431    8964    9083   11394
CTETRA      9849       1   17561   17931   15237    1041   17569   15431+
+          15430    7721    8964   11394
CTETRA      9850       1   17561   15237     277    1041   15430    3714+
+           6891    7721   11394    7722
CTETRA      9851       1   15053     554     740    1104    9158    9078+
+          11395   11396    9080    8166
CTETRA      9852       1   15049     554   15053    1104   10187    9158+
+          15165   11397    9080   11396
CTETRA      9853       1   17407   15049   15053    1104   15162   15165+
+          15163    9081   11397   11396
CTETRA      9854       1   17407   15053     389    1104   15163   10072+
+           8835    9081   11396   10071
CTETRA      9855       1   15053     388     389    1104   10074    2899+
+          10072   11396    8165   10071
CTETRA      9856       1   15053     740     388    1104   11395    5481+
+          10074   11396    8166    8165
CTETRA      9857       1   12735     129    1043    1151    7740    7743+
+           7742    8547    8757   11398
CTETRA      9858       1   12966     930     129    1043   11203    7005+
+           5197   11399    8219    7743
CTETRA      9859       1   17318     930   12966    1043    8217   11203+
+          13361    8218    8219   11399
CTETRA      9860       1   17317   17318   12966    1043   17324   13361+
+          13349    8697    8218   11399
CTETRA      9861       1   17317   12735    1043    1151   12776    7742+
+           8697    9191    8547   11398
CTETRA      9862       1   12966     129     640    1151    5197    5191+
+           5199   11400    8757    8546
CTETRA      9863       1   12966    1043     129    1151   11399    7743+
+           5197   11400   11398    8757
CTETRA      9864       1   17317    1043   12966    1151    8697   11399+
+          13349    9191   11398   11400
CTETRA      9865       1   17316   17317   12966    1151   17325   13349+
+          13348    8545    9191   11400
CTETRA      9866       1   17316   12966     640    1151   13348    5199+
+           5200    8545   11400    8546
CTETRA      9867       1   16090    1108     242    1044   11376    8202+
+           8493   11401    8205    8204
CTETRA      9868       1   17587    1108   16090    1044    8206   11376+
+          16492    7744    8205   11401
CTETRA      9869       1   17587   15740    1044    1109   15814    7745+
+           7744    8212    8211   11402
CTETRA      9870       1   15740     747    1044    1109    6684    8753+
+           7745    8211    8517   11402
CTETRA      9871       1   16090     242     747    1044    8493    5549+
+           5539   11401    8204    8753
CTETRA      9872       1   16090    1044     747    1109   11401    8753+
+           5539   11403   11402    8517
CTETRA      9873       1   17587    1044   16090    1109    7744   11401+
+          16492    8212   11402   11403
CTETRA      9874       1   17586   17587   16090    1109   17609   16492+
+          16498    8210    8212   11403
CTETRA      9875       1   17586   16090     890    1109   16498   11135+
+           9043    8210   11403    8516
CTETRA      9876       1   16090     747     890    1109    5539    6687+
+          11135   11403    8517    8516
CTETRA      9877       1   11605     299      78     936   10479    9415+
+          10416   11404    9424    9423
CTETRA      9878       1   11605    1083     299     936   10480    9421+
+          10479   11404    9166    9424
CTETRA      9879       1   17912    1083   11605     936    8011   10480+
+          11642    7028    9166   11404
CTETRA      9880       1   17040   17912   11605     936   17041   11642+
+          11643    7026    7028   11404
CTETRA      9881       1   17911   17040   11605     936   17042   11643+
+          11645    8677    7026   11404
CTETRA      9882       1   17911   11605    1045     936   11645    9927+
+           7757    8677   11404    9926
CTETRA      9883       1   11605      78    1045     936   10416    9164+
+           9927   11404    9423    9926
CTETRA      9884       1   12150     502    1036    1046    3638    7682+
+          11378   11405    8714   11377
CTETRA      9885       1   12150     503     502    1046    3639    3641+
+           3638   11405    7762    8714
CTETRA      9886       1   12150     633     503    1046   10556    4581+
+           3639   11405    7763    7762
CTETRA      9887       1   17092     633   12150    1046    7455   10556+
+          12436    7775    7763   11405
CTETRA      9888       1   17092   12150    1036    1046   12436   11378+
+           8716    7775   11405   11377
CTETRA      9889       1   17226     502   13387    1048    8712    7238+
+          13423    9137    9131   11406
CTETRA      9890       1   17226   13387   17227    1048   13423   13424+
+          17229    9137   11406    7771
CTETRA      9891       1   17227   13387     504    1048   13424    7237+
+           7249    7771   11406    7772
CTETRA      9892       1   13387     502     504    1048    7238    3647+
+           7237   11406    9131    7772
CTETRA      9893       1   15864    1029     112    1028    9506    8467+
+           2999   11407    7630    8468
CTETRA      9894       1   17533    1029   15864    1028    7629    9506+
+          15940    7623    7630   11407
CTETRA      9895       1   17532   17533   15864    1028   17550   15940+
+          15939    7621    7623   11407
CTETRA      9896       1   17532   15864    1019    1028   15939   11353+
+           7574    7621   11407   11355
CTETRA      9897       1   15864     112    1019    1028    2999    7778+
+          11353   11407    8468   11355
CTETRA      9898       1   17252   12928    1049    1050   13216   10584+
+           8190    8192   11408    7780
CTETRA      9899       1   12928      60    1049    1050    6611    7779+
+          10584   11408    7781    7780
CTETRA      9900       1   12928     374      60    1050    5612    8560+
+           6611   11408    8213    7781
CTETRA      9901       1   12928     375     374    1050   10034    2829+
+           5612   11408   10036    8213
CTETRA      9902       1   17253     375   12928    1050    6816   10034+
+          13215    9170   10036   11408
CTETRA      9903       1   17252   17253   12928    1050   17274   13215+
+          13216    8192    9170   11408
CTETRA      9904       1   14729     740     422    1053   10778    7813+
+           3088   11409    7816    7815
CTETRA      9905       1   14729     465     740    1053    5459    5482+
+          10778   11409    9132    7816
CTETRA      9906       1   14729     736     465    1053   10201    5451+
+           5459   11409   10202    9132
CTETRA      9907       1   14729     423     736    1053   10193   10195+
+          10201   11409   10194   10202
CTETRA      9908       1   14729     422     423    1053    3088    3095+
+          10193   11409    7815   10194
CTETRA      9909       1   15049     422     554    1102   10186   10185+
+          10187   11410   10189   10188
CTETRA      9910       1   15049     626     422    1102   10190   10184+
+          10186   11410   10192   10189
CTETRA      9911       1   17406     626   15049    1102    9104   10190+
+          15149    8153   10192   11410
CTETRA      9912       1   17406   15049   17407    1102   15149   15162+
+          17427    8153   11410    8154
CTETRA      9913       1   17407   15049    1104    1102   15162   11397+
+           9081    8154   11410    9082
CTETRA      9914       1   15049     554    1104    1102   10187    9080+
+          11397   11410   10188    9082
CTETRA      9915       1   12080     486     720    1058    5059    5332+
+          10738   11411    8857    7842
CTETRA      9916       1   12080     382     486    1058   10053    7837+
+           5059   11411   10054    8857
CTETRA      9917       1   17181     382   12080    1058    7404   10053+
+          12306    7841   10054   11411
CTETRA      9918       1   17181   12080     720    1058   12306   10738+
+           7840    7841   11411    7842
CTETRA      9919       1   15209     183     627    1060    4928    4523+
+           4929   11412    8956    8997
CTETRA      9920       1   15196     183   15209    1060    1919    4928+
+          15323   11413    8956   11412
CTETRA      9921       1   17468   15196   15209    1060   15319   15323+
+          15326    7864   11413   11412
CTETRA      9922       1   17468   15209   17469    1060   15326   15327+
+          17474    7864   11412    8196
CTETRA      9923       1   17469   15724    1060    1196   15755    8356+
+           8196    9053    8985   11414
CTETRA      9924       1   15724     627    1060    1196    5900    8997+
+           8356    8985    8987   11414
CTETRA      9925       1   15196     183    1060    1061    1919    8956+
+          11413   11415    8379    7867
CTETRA      9926       1   15726    1061     183     950    8359    8379+
+           2605    7111   11416    7998
CTETRA      9927       1   17468    1061   15726     950    7866    8359+
+          15759    8354   11416    7111
CTETRA      9928       1   17468   15196    1060    1061   15319   11413+
+           7864    7866   11415    7867
CTETRA      9929       1   11607    1062     410    1063   10592    7872+
+           9784   11417    7876    7875
CTETRA      9930       1   17023    1062   11607    1063    7972   10592+
+          11656    7973    7876   11417
CTETRA      9931       1   17023   11607    1064    1063   11656    9783+
+           7877    7973   11417    9782
CTETRA      9932       1   11607     410    1064    1063    9784    7982+
+           9783   11417    7875    9782
CTETRA      9933       1   11605      78     299    1223   10416    9415+
+          10479   11418    9418    9417
CTETRA      9934       1   11605    1065      78    1223   10417    7881+
+          10416   11418   10418    9418
CTETRA      9935       1   11605     594    1065    1223   10414   10413+
+          10417   11418   10419   10418
CTETRA      9936       1   11605    1082     594    1223   10481   10411+
+          10414   11418   10482   10419
CTETRA      9937       1   11605     299    1082    1223   10479    8240+
+          10481   11418    9417   10482
CTETRA      9938       1   11603     835     278    1225   10995    9790+
+           7889   11419    9791    9789
CTETRA      9939       1   11603    1021     835    1225   11007    9073+
+          10995   11419   11006    9791
CTETRA      9940       1   11603     990    1021    1225   11292   11005+
+          11007   11419   11293   11006
CTETRA      9941       1   11603     358     990    1225   10062    7531+
+          11292   11419    9788   11293
CTETRA      9942       1   11603     278     358    1225    7889    9785+
+          10062   11419    9789    9788
CTETRA      9943       1   15044    1132    1015    1163    8451   11338+
+          11337    8644   11420   11343
CTETRA      9944       1   17747    1132   15044    1163    8439    8451+
+          15123    8643   11420    8644
CTETRA      9945       1   17747   16731    1093    1132   16899   11088+
+           8438    8439   11421    8440
CTETRA      9946       1   16731     865    1093    1132   10926   10927+
+          11088   11421   10929    8440
CTETRA      9947       1   16731     866     865    1132   11344    6520+
+          10926   11421   11083   10929
CTETRA      9948       1   16731    1015     866    1132   11340    7919+
+          11344   11421   11338   11083
CTETRA      9949       1   13609    1095      27    1071   11364    8119+
+           8244   11422    8122    8121
CTETRA      9950       1   13609    1022    1095    1071   11360   11362+
+          11364   11422    8461    8122
CTETRA      9951       1   17828    1071    1022    1073    7920    8461+
+           7581    7930   11423    7931
CTETRA      9952       1   17828   17944    1071    1073   17832    7921+
+           7920    7930    8477   11423
CTETRA      9953       1   17944   13609   17898    1071   13992   13990+
+          17908    7921   11422    8149
CTETRA      9954       1   17898   13609   13608    1071   13990   13989+
+          13982    8149   11422   11424
CTETRA      9955       1   13608   13609      27    1071   13989    8244+
+           8102   11424   11422    8121
CTETRA      9956       1   13609     774    1022    1073    5851    7928+
+          11360   11425    7932    7931
CTETRA      9957       1   13609     211     774    1073   10848    8462+
+           5851   11425    8463    7932
CTETRA      9958       1   17944     211   13609    1073    2026   10848+
+          13992    8477    8463   11425
CTETRA      9959       1   17944   13609    1071    1073   13992   11422+
+           7921    8477   11425   11423
CTETRA      9960       1   13609    1022    1071    1073   11360    8461+
+          11422   11425    7931   11423
CTETRA      9961       1     206    1138    1139    1075    9638    8485+
+           9640    7944   11150   11426
CTETRA      9962       1   16504    1139    1138    1206    8483    8485+
+           8482    9095   11427   11147
CTETRA      9963       1   17714    1139   16504    1206    9049    8483+
+          16596    9220   11427    9095
CTETRA      9964       1   17714   16701     205    1139   16771    9091+
+           9048    9049   11428    9050
CTETRA      9965       1   16701     206     205    1139    3552    2000+
+           9091   11428    9640    9050
CTETRA      9966       1   16995     931   11606    1080    7991   10819+
+          11649    7992    7994   11429
CTETRA      9967       1   16995   11606     125    1080   11649    9516+
+           8653    7992   11429    9518
CTETRA      9968       1   11606     236     125    1080    9517    2142+
+           9516   11429    9168    9518
CTETRA      9969       1   11606     931     236    1080   10819    7010+
+           9517   11429    7994    9168
CTETRA      9970       1   17758   16915     345    1084   16960    8038+
+           4820    8046   11430    8719
CTETRA      9971       1   16915     344     345    1084    7964    2620+
+           8038   11430    8034    8719
CTETRA      9972       1   17757     344   16915    1084    6511    7964+
+          16962    8032    8034   11430
CTETRA      9973       1   17757   16915   17758    1084   16962   16960+
+          17769    8032   11430    8046
CTETRA      9974       1   15741    1086     666    1177    8051    8407+
+           6696    8773   11431    9066
CTETRA      9975       1   17585    1086   15741    1177    8052    8051+
+          15809    8772   11431    8773
CTETRA      9976       1   17935   17585   16034    1086   17607   16306+
+          16305    8331    8052   11432
CTETRA      9977       1   17935   16034     711    1086   16305   10688+
+           8330    8331   11432    8332
CTETRA      9978       1   16034     666     711    1086    7699    7113+
+          10688   11432    8407    8332
CTETRA      9979       1   16034     893     666    1177   11138    6698+
+           7699   11433    8774    9066
CTETRA      9980       1   17585     893   16034    1177    8771   11138+
+          16306    8772    8774   11433
CTETRA      9981       1   17585   16034    1086    1177   16306   11432+
+           8052    8772   11433   11431
CTETRA      9982       1   16034     666    1086    1177    7699    8407+
+          11432   11433    9066   11431
CTETRA      9983       1   15046     774    1022    1072   10842    7928+
+          11359   11434    7926   11361
CTETRA      9984       1   17398     774   15046    1072    5850   10842+
+          15126    7924    7926   11434
CTETRA      9985       1   17398   15046   17399    1072   15126   15127+
+          17415    7924   11434    8245
CTETRA      9986       1   17399   15046      27    1072   15127    7183+
+           7182    8245   11434    8246
CTETRA      9987       1   15046    1095      27    1072   11366    8119+
+           7183   11434   11365    8246
CTETRA      9988       1   15046    1022    1095    1072   11359   11362+
+          11366   11434   11361   11365
CTETRA      9989       1   17785   16908     351    1096   16924    5698+
+           5708    8734   11435    8735
CTETRA      9990       1   16908     547     351    1096    3966    3957+
+           5698   11435    8128    8735
CTETRA      9991       1   17784     547   16908    1096    3964    3966+
+          16921    8126    8128   11435
CTETRA      9992       1   17784   16908   17785    1096   16921   16924+
+          17801    8126   11435    8734
CTETRA      9993       1   17781     122   16909     895    7304    3874+
+          16936    6705    8137   11436
CTETRA      9994       1   17781   16909   17782     895   16936   16935+
+          17798    6705   11436    6706
CTETRA      9995       1   17782   16909      94     895   16935    4360+
+           1551    6706   11436    8136
CTETRA      9996       1   16909     122      94     895    3874    3871+
+           4360   11436    8137    8136
CTETRA      9997       1   15245     365     146    1098    8934    6004+
+           9535    8938    8140    8139
CTETRA      9998       1   15033    1098     365    1193    8908    8140+
+           6875    8954   11437    8955
CTETRA      9999       1   17562   17563   15033    1098   17567   15067+
+          15068    8937    8932    8908
CTETRA     10000       1   17563   15245     146    1098   15476    9535+
+           8931    8932    8938    8139
CTETRA     10001       1   15201     364     843    1099    7715    8232+
+          11034   11438    8234    8233
CTETRA     10002       1   15201    1152     364    1099   10753    9038+
+           7715   11438    8559    8234
CTETRA     10003       1   17471    1152   15201    1099    8558   10753+
+          15338    8550    8559   11438
CTETRA     10004       1   17471   15201   17472    1099   15338   15339+
+          17475    8550   11438    8142
CTETRA     10005       1   17472   15721    1099    1147   15746    8143+
+           8142    8551    8533   11439
CTETRA     10006       1   15721     843    1099    1147    8939    8233+
+           8143    8533   11036   11439
CTETRA     10007       1   15201     367    1147    1236    8229    8532+
+          11440   10745   10747   11441
CTETRA     10008       1   15201    1147     843    1236   11440   11036+
+          11034   10745   11441   11035
CTETRA     10009       1   15201    1099     843    1147   11438    8233+
+          11034   11440   11439   11036
CTETRA     10010       1   17472    1099   15201    1147    8142   11438+
+          15339    8551   11439   11440
CTETRA     10011       1   17472   15201   15236    1147   15339   15493+
+          15490    8551   11440   11442
CTETRA     10012       1   15201     367   15236    1147    8229    5267+
+          15493   11440    8532   11442
CTETRA     10013       1   16913    1136    1135    1120   11443    9346+
+           9438    8328    8473    8647
CTETRA     10014       1   16913      47    1135    1136    8649    9344+
+           9438   11443    9347    9346
CTETRA     10015       1   16913    1105      47    1136   10139    8466+
+           8649   11443   10141    9347
CTETRA     10016       1   16913    1212    1105    1136   11200   10140+
+          10139   11443   11202   10141
CTETRA     10017       1     980    1136    1212    1119   11169   11202+
+           9186   11167   11444   11201
CTETRA     10018       1    1212    1119    1136    1120   11201   11444+
+          11202   11445    8327    8473
CTETRA     10019       1   16913    1119    1212    1120    8325   11201+
+          11200    8328    8327   11445
CTETRA     10020       1   17531   15859     563    1107   15932   10444+
+           8198    8199   11446    8200
CTETRA     10021       1   15859     406     563    1107    4118    4112+
+          10444   11446    9227    8200
CTETRA     10022       1   15859    1020     406    1107   11356    9041+
+           4118   11446   11357    9227
CTETRA     10023       1   17531    1020   15859    1107    9201   11356+
+          15932    8199   11357   11446
CTETRA     10024       1   16048    1147     367    1236   11447    8532+
+           9246   11448   11441   10747
CTETRA     10025       1   16048     843    1147    1236   11038   11036+
+          11447   11448   11035   11441
CTETRA     10026       1   16048     364     843    1236    7961    8232+
+          11038   11448   10748   11035
CTETRA     10027       1   16048     725     364    1236   10744    5363+
+           7961   11448   10746   10748
CTETRA     10028       1   16048     367     725    1236    9246    7371+
+          10744   11448   10747   10746
CTETRA     10029       1   16086     302     300    1194    9832    2434+
+           2453   11449    8963    9044
CTETRA     10030       1   17670     302   16086    1194    5742    9832+
+          16481    8961    8963   11449
CTETRA     10031       1   17669   17670   16086    1194   17690   16481+
+          16469    9238    8961   11449
CTETRA     10032       1   17669   16086     458    1194   16469   10256+
+           8266    9238   11449   10257
CTETRA     10033       1   16086     300     458    1194    2453    8512+
+          10256   11449    9044   10257
CTETRA     10034       1   14670     482     954    1171    6863    8807+
+           8277   11450    9269   11254
CTETRA     10035       1   13396    1171     482    1162    8722    9269+
+           7477    8637   11451    8638
CTETRA     10036       1   17384    1171   13396    1162    8720    8722+
+          13481    9265   11451    8637
CTETRA     10037       1   17926   17384   14670    1171   17396   14791+
+          14790    9063    8720   11450
CTETRA     10038       1   17926   14670     954    1171   14790    8277+
+           8276    9063   11450   11254
CTETRA     10039       1   15054      57    1208    1113    9377    9372+
+           9409   11452    9379    9407
CTETRA     10040       1   17411      57   15054    1113    9375    9377+
+          15168    8286    9379   11452
CTETRA     10041       1   17411   15054   17412    1113   15168   15167+
+          17422    8286   11452    8287
CTETRA     10042       1   17412   15054    1156    1113   15167   11212+
+           8585    8287   11452    8587
CTETRA     10043       1   15054    1208    1156    1113    9409    9408+
+          11212   11452    9407    8587
CTETRA     10044       1   13626     826     888    1070   10961    6674+
+          11133   11453    7913    8575
CTETRA     10045       1   17942     826   13626    1070    6150   10961+
+          14029    7914    7913   11453
CTETRA     10046       1   17942   13626   17852    1070   14029   14028+
+          17870    7914   11453    9115
CTETRA     10047       1   17852   13626     933    1070   14028   11213+
+           8292    9115   11453   11214
CTETRA     10048       1   13626      57     933    1070    9378    8291+
+          11213   11453    8574   11214
CTETRA     10049       1   13626     888      57    1070   11133    6679+
+           9378   11453    8575    8574
CTETRA     10050       1   17897   13608     867    1114   13981   11089+
+           8293    8294   11454    8295
CTETRA     10051       1   13608      27     867    1114    8102    6524+
+          11089   11454    8303    8295
CTETRA     10052       1   16615    1114      27    1115    8304    8303+
+           7185    8301   11455    8977
CTETRA     10053       1   17898    1114   16615    1115    8979    8304+
+          16671    8300   11455    8301
CTETRA     10054       1   17897   17898   13608    1114   17906   13982+
+          13981    8294    8979   11454
CTETRA     10055       1   13608    1071      27    1115   11424    8121+
+           8102   11456    8302    8977
CTETRA     10056       1   17898    1071   13608    1115    8149   11424+
+          13982    8300    8302   11456
CTETRA     10057       1   17898   13608    1114    1115   13982   11454+
+           8979    8300   11456   11455
CTETRA     10058       1   13608      27    1114    1115    8102    8303+
+          11454   11456    8977   11455
CTETRA     10059       1   17765    1116   13569    1120    8306   11457+
+          13824    8326    8474   11458
CTETRA     10060       1   13569    1116     980    1119   11457   11168+
+          11166    9076   11459   11167
CTETRA     10061       1   17892     980   13569    1116    7301   11166+
+          13879    8455   11168   11457
CTETRA     10062       1   17891   17892   13569    1116   17901   13879+
+          13880    8312    8455   11457
CTETRA     10063       1   17891   13569   13602    1116   13880   14633+
+          13960    8312   11457    8305
CTETRA     10064       1   17765   13602   13569    1116   13958   14633+
+          13824    8306    8305   11457
CTETRA     10065       1   16608    1135    1117    1118    9343    8459+
+          11460    8314    9437   11461
CTETRA     10066       1   16608    1117    1116    1118   11460    8309+
+           8311    8314   11461    8315
CTETRA     10067       1   16608    1136    1116    1117    9345    8471+
+           8311   11460    8472    8309
CTETRA     10068       1   16608    1135    1136    1117    9343    9346+
+           9345   11460    8459    8472
CTETRA     10069       1   13602    1117    1135    1118    8308    8459+
+           8458   11462   11461    9437
CTETRA     10070       1   13602    1116    1117    1118    8305    8309+
+           8308   11462    8315   11461
CTETRA     10071       1   17891    1116   13602    1118    8312    8305+
+          13960    8313    8315   11462
CTETRA     10072       1   17891   13602     208    1118   13960    9641+
+           8322    8313   11462    9643
CTETRA     10073       1   13602      80     208    1118    9431    8476+
+           9641   11462    9436    9643
CTETRA     10074       1   13602    1135      80    1118    8458    9435+
+           9431   11462    9437    9436
CTETRA     10075       1   12898     662      17    1121   10597    4801+
+           4812   11463    8346    8345
CTETRA     10076       1   17244     662   12898    1121    8671   10597+
+          13152    8778    8346   11463
CTETRA     10077       1   17244   12898     665    1121   13152   10607+
+           7785    8778   11463   10606
CTETRA     10078       1   12898      17     665    1121    4812    4829+
+          10607   11463    8345   10606
CTETRA     10079       1   12167     255     485     995    5521    5523+
+           3510   11464    7855    8382
CTETRA     10080       1   12167    1042     255     995   10873    7854+
+           5521   11464    7732    7855
CTETRA     10081       1   17105    1042   12167     995    7731   10873+
+          12507    7401    7732   11464
CTETRA     10082       1   17105   12167   17106     995   12507   12509+
+          17139    7401   11464    7402
CTETRA     10083       1   17106   12607     995     887   12717    8381+
+           7402    6847    6671   11465
CTETRA     10084       1   12607     485     995     887    6661    8382+
+           8381    6671    6673   11465
CTETRA     10085       1   15044    1015    1220    1133   11337    9254+
+          11368   11466    8445    9255
CTETRA     10086       1   15044    1018    1015    1133   11346    7564+
+          11337   11466    8446    8445
CTETRA     10087       1   15044   15045    1018    1133   15117    8133+
+          11346   11466   11467    8446
CTETRA     10088       1   15044     210   15045    1133    9661    9660+
+          15117   11466    9662   11467
CTETRA     10089       1   15044    1101     210    1133   10854    8151+
+           9661   11466   10855    9662
CTETRA     10090       1   15044     776    1101    1133   10849   10853+
+          10854   11466   10852   10855
CTETRA     10091       1   15044    1220     776    1133   11368   10851+
+          10849   11466    9255   10852
CTETRA     10092       1   17746    1015   16731    1163   11342   11340+
+          16900    8642   11343   11468
CTETRA     10093       1   17746   16731   17747    1163   16900   16899+
+          17749    8642   11468    8643
CTETRA     10094       1   17747   16731    1132    1163   16899   11421+
+           8439    8643   11468   11420
CTETRA     10095       1   16731    1015    1132    1163   11340   11338+
+          11421   11468   11343   11420
CTETRA     10096       1   16701    1205     978    1206   11284   11281+
+           9088   11469    9096   11282
CTETRA     10097       1   17715    1205   16701    1206    9093   11284+
+          16770    9094    9096   11469
CTETRA     10098       1   17714   17715   16701    1206   17725   16770+
+          16771    9220    9094   11469
CTETRA     10099       1   17714   16701    1139    1206   16771   11428+
+           9049    9220   11469   11427
CTETRA     10100       1    1138    1206    1139    1075   11147   11427+
+           8485   11150   11470   11426
CTETRA     10101       1    1138     977    1206    1075   11146   11148+
+          11147   11150   11276   11470
CTETRA     10102       1   16701    1206     978    1075   11469   11282+
+           9088    7945   11470    9089
CTETRA     10103       1   16693     307   16695    1144    9609    9397+
+          16740   11471    8603   11472
CTETRA     10104       1   16693   16695   16694    1144   16740   16744+
+          16737   11471   11472   11473
CTETRA     10105       1   17713   16694   16695    1144   16738   16744+
+          16743    8590   11473   11472
CTETRA     10106       1   17712   17713   16695    1144   17723   16743+
+          16742    8522    8590   11472
CTETRA     10107       1   17712   16507    1144    1153   16589    8523+
+           8522    8761    8561   11474
CTETRA     10108       1   16507     307    1144    1153    8601    8603+
+           8523    8561    9401   11474
CTETRA     10109       1   16695     304     708    1153    9836    8571+
+           9843   11475    8573    8563
CTETRA     10110       1   16695     307     304    1153    9397    9393+
+           9836   11475    9401    8573
CTETRA     10111       1   16695    1144     307    1153   11472    8603+
+           9397   11475   11474    9401
CTETRA     10112       1   17712    1144   16695    1153    8522   11472+
+          16742    8761   11474   11475
CTETRA     10113       1   17712   16695     709    1153   16742   10682+
+           5490    8761   11475    8562
CTETRA     10114       1   16695     708     709    1153    9843    5252+
+          10682   11475    8563    8562
CTETRA     10115       1   16065     212    1145    1146    8421    8527+
+           9696   11476    8531    8530
CTETRA     10116       1   16065    1178     212    1146   11302    9047+
+           8421   11476   11303    8531
CTETRA     10117       1   17661    1178   16065    1146    8783   11302+
+          16385    9004   11303   11476
CTETRA     10118       1   17661   16065    1145    1146   16385    9696+
+           9003    9004   11476    8530
CTETRA     10119       1   15236    1147     367    1148   11442    8532+
+           5267   11477    8536    8535
CTETRA     10120       1   17472    1147   15236    1148    8551   11442+
+          15490    8552    8536   11477
CTETRA     10121       1   17930   17472   15236    1148   17483   15490+
+          15440    9235    8552   11477
CTETRA     10122       1   17930   15236     712    1148   15440   10693+
+           8565    9235   11477   10694
CTETRA     10123       1   15236     367     712    1148    5267    5274+
+          10693   11477    8535   10694
CTETRA     10124       1   15211     728     364    1154   10755    5382+
+           5795   11478    8609    8569
CTETRA     10125       1   15206     728   15211    1154   10760   10755+
+          15343   11479    8609   11478
CTETRA     10126       1   17470   15206   15211    1154   15341   15343+
+          15342    8924   11479   11478
CTETRA     10127       1   17470   15211     727    1154   15342   10750+
+           9034    8924   11478    8568
CTETRA     10128       1   15211     364     727    1154    5795    5379+
+          10750   11478    8569    8568
CTETRA     10129       1   16039     728     364    1091   10758    5382+
+           5386   11480   10756    8092
CTETRA     10130       1   16039     984     728    1091   11073   10761+
+          10758   11480   11074   10756
CTETRA     10131       1   16039     538     984    1091    5387    7332+
+          11073   11480    8091   11074
CTETRA     10132       1   16039     364     538    1091    5386    4854+
+           5387   11480    8092    8091
CTETRA     10133       1   15206     728    1154    1159   10760    8609+
+          11479   11481    8612    8611
CTETRA     10134       1   15206     860     728    1159   11068    9257+
+          10760   11481   11071    8612
CTETRA     10135       1   17470     860   15206    1159    8990   11068+
+          15341    8925   11071   11481
CTETRA     10136       1   17470   15206    1154    1159   15341   11479+
+           8924    8925   11481    8611
CTETRA     10137       1   16605      27      22    1160    7189    1304+
+           6036   11482    8617    9019
CTETRA     10138       1   16605     803      27    1160    6025    7190+
+           7189   11482    8618    8617
CTETRA     10139       1   16605    1192     803    1160    8951    8950+
+           6025   11482    8960    8618
CTETRA     10140       1   16605      22    1192    1160    6036    9042+
+           8951   11482    9019    8960
CTETRA     10141       1   14670    1161     482    1162   11320    8635+
+           6863   11483    8639    8638
CTETRA     10142       1   17385    1161   14670    1162    8815   11320+
+          14796    8816    8639   11483
CTETRA     10143       1   17384   17385   14670    1162   17392   14796+
+          14791    9265    8816   11483
CTETRA     10144       1   17384   14670    1171    1162   14791   11450+
+           8720    9265   11483   11451
CTETRA     10145       1   14670     482    1171    1162    6863    9269+
+          11450   11483    8638   11451
CTETRA     10146       1   16074    1142     406    1166   10450    8673+
+           5635   11484    8676    8675
CTETRA     10147       1   17663    1142   16074    1166    8502   10450+
+          16427    8940    8676   11484
CTETRA     10148       1   17663   16074     822    1166   16427   10954+
+           8787    8940   11484   10955
CTETRA     10149       1   16074     406     822    1166    5635    8470+
+          10954   11484    8675   10955
CTETRA     10150       1   12112     641     643     992    5336    4688+
+          10566   11485    8692    8691
CTETRA     10151       1   12112     720     641     992   10737    5331+
+           5336   11485   10739    8692
CTETRA     10152       1   17182     720   12112     992    8400   10737+
+          12305    7384   10739   11485
CTETRA     10153       1   17182   12112   17183     992   12305   12308+
+          17193    7384   11485    7385
CTETRA     10154       1   17183   12112     643     992   12308   10566+
+           7737    7385   11485    8691
CTETRA     10155       1   11887     181     386     252    4887    6214+
+          10070   11486    6215    2888
CTETRA     10156       1   11887     140     181     252    3538    1909+
+           4887   11486    8854    6215
CTETRA     10157       1   11887     831     140     252   10982    8711+
+           3538   11486   10984    8854
CTETRA     10158       1   17073     831   11887     252    6208   10982+
+          11970    2199   10984   11486
CTETRA     10159       1   17072   17073   11887     252   17083   11970+
+          11971    2197    2199   11486
CTETRA     10160       1   17072   11887     386     252   11971   10070+
+           2886    2197   11486    2888
CTETRA     10161       1   12095     773     142    1168   10836    5822+
+           7268   11487    8695    8694
CTETRA     10162       1   12090     773   12095    1168   10838   10836+
+          12238   11488    8695   11487
CTETRA     10163       1   12090   12095     444    1168   12238    8696+
+           4653   11488   11487    8797
CTETRA     10164       1   12095     142     444    1168    7268    4647+
+           8696   11487    8694    8797
CTETRA     10165       1   12090     773    1168    1170   10838    8695+
+          11488   11489    8706    8799
CTETRA     10166       1   12090      60     773    1170    8064    5872+
+          10838   11489    8707    8706
CTETRA     10167       1   12090     444      60    1170    4653    5882+
+           8064   11489    8798    8707
CTETRA     10168       1   12090    1168     444    1170   11488    8797+
+           4653   11489    8799    8798
CTETRA     10169       1   14699     464     855    1190    7444    6415+
+          11053   11490    8928    8927
CTETRA     10170       1   14699    1207     464    1190    9688    9107+
+           7444   11490    9109    8928
CTETRA     10171       1   14699     555    1207    1190    9684    9685+
+           9688   11490    9686    9109
CTETRA     10172       1   14699     297     555    1190    9824    4024+
+           9684   11490    9826    9686
CTETRA     10173       1   14699     811     297    1190    9829    9825+
+           9824   11490    9828    9826
CTETRA     10174       1   14699     855     811    1190   11053    9827+
+           9829   11490    8927    9828
CTETRA     10175       1   11905      28     103     180    9293    9294+
+           9485   11491    9296    1903
CTETRA     10176       1   11905      29      28     180    9297    1310+
+           9293   11491    9301    9296
CTETRA     10177       1   11905     886      29     180   11492    9299+
+           9297   11491   11131    9301
CTETRA     10178       1   11905     537     886     180   11127    6669+
+          11492   11491   11126   11131
CTETRA     10179       1   11905     658     537     180   11129   11125+
+          11127   11491    4771   11126
CTETRA     10180       1   17086     658   11905     180    4770   11129+
+          12071    1969    4771   11491
CTETRA     10181       1   17086   11905   17087     180   12071   12070+
+          17090    1969   11491    1902
CTETRA     10182       1   17087   11905     103     180   12070    9485+
+           1577    1902   11491    1903
CTETRA     10183       1   12121     203     153     199   11057    6436+
+           6924   11493   11058    8329
CTETRA     10184       1   17919     203   12121     199    1994   11057+
+          12335    1976   11058   11493
CTETRA     10185       1   17919   12121     157     199   12335    9547+
+           1800    1976   11493    1977
CTETRA     10186       1   12121     153     157     199    6924    2068+
+           9547   11493    8329    1977
CTETRA     10187       1   17068     595   11868      26    7883   10484+
+          11910    1303   10483   11494
CTETRA     10188       1   17067   17068   11868      26   17078   11910+
+          11909    1301    1303   11494
CTETRA     10189       1   17067   11868      28      26   11909    9292+
+           1312    1301   11494    9291
CTETRA     10190       1   11868      56      28      26    9483    8700+
+           9292   11494    2428    9291
CTETRA     10191       1   11868     299      56      26    9486    2426+
+           9483   11494    2429    2428
CTETRA     10192       1   11868    1082     299      26    8009    8240+
+           9486   11494    8242    2429
CTETRA     10193       1   11868     594    1082      26   10415   10411+
+           8009   11494   10412    8242
CTETRA     10194       1   11868     595     594      26   10484    4343+
+          10415   11494   10483   10412
CTETRA     10195       1   17872   13757     289     373   14489    9818+
+           5309    4551   11495    9820
CTETRA     10196       1   13757     113     289     373    1623    2370+
+           9818   11495    2817    9820
CTETRA     10197       1   13757     288     113     373    9817    2364+
+           1623   11495    2818    2817
CTETRA     10198       1   17872     288   13757     373    3763    9817+
+          14489    4551    2818   11495
CTETRA     10199       1   16516     463     379    1227   11496    3346+
+           2856    9849   11497    9852
CTETRA     10200       1   16516     380     379     463    2859    2858+
+           2856   11496    3347    3346
CTETRA     10201       1   16516     462     380     463    3336    3338+
+           2859   11496    7600    3347
CTETRA     10202       1   16516     462     463    1227    3336    7600+
+          11496    9849    9851   11497
CTETRA     10203       1   16051     508     119     548    3968    3675+
+           1651   11498   10346    3971
CTETRA     10204       1   17936     508   16051     548    8915    3968+
+          16502    9018   10346   11498
CTETRA     10205       1   17697   17936   16051     548   17702   16502+
+          16340    3993    9018   11498
CTETRA     10206       1   17697   15034     548     553   15064    3970+
+           3993    8257    3990   11499
CTETRA     10207       1   15034     119     548     553    3677    3971+
+           3970    3990    3992   11499
CTETRA     10208       1   16051     119     146     553    1651    3680+
+          11500   11501    3992    3991
CTETRA     10209       1   16051     548     119     553   11498    3971+
+           1651   11501   11499    3992
CTETRA     10210       1   17697     548   16051     553    3993   11498+
+          16340    8257   11499   11501
CTETRA     10211       1   17696   17697   16051     553   17698   16340+
+          16337    8256    8257   11501
CTETRA     10212       1   17696   16051     914     553   16337   11173+
+           8263    8256   11501    7904
CTETRA     10213       1   16051     197     914     553    1968    6888+
+          11173   11501    7905    7904
CTETRA     10214       1   16051     146     197     553   11500    6003+
+           1968   11501    3991    7905
CTETRA     10215       1   15047      23      24     551    8447    1292+
+           8449   11502    3983    8258
CTETRA     10216       1   15047     508      23     551   10347    3674+
+           8447   11502    3984    3983
CTETRA     10217       1   17936     508   15047     551    8915   10347+
+          15140    8623    3984   11502
CTETRA     10218       1   17936   15047      24     551   15140    8449+
+           7188    8623   11502    8258
CTETRA     10219       1   12739     509   12892     575    4906    7134+
+           8814    7869    7620    4197
CTETRA     10220       1   17304   12739   17305     575   12809   12810+
+          17332    4193    7869    4196
CTETRA     10221       1   17304   12892     550     575   13078   10981+
+           3981    4193    4197    4194
CTETRA     10222       1   12892     509     550     575    7134    6183+
+          10981    4197    7620    4194
CTETRA     10223       1   15051     150     626     152    1776    4516+
+          10191   11503    4518    4517
CTETRA     10224       1   17405     150   15051     152    4508    1776+
+          15148    1782    4518   11503
CTETRA     10225       1   17405   15051   17406     152   15148   15147+
+          17428    1782   11503    1783
CTETRA     10226       1   17406   15051     626     152   15147   10191+
+           9104    1783   11503    4517
CTETRA     10227       1   15989     673     144     274   10343    4939+
+           1936   11504    4941    2292
CTETRA     10228       1   15989    1059     673     274   10944    7850+
+          10343   11504    7852    4941
CTETRA     10229       1   15989     147    1059     274    1779    8620+
+          10944   11504    2285    7852
CTETRA     10230       1   15989     143     147     274    1781    1767+
+           1779   11504    2286    2285
CTETRA     10231       1   15989     144     143     274    1936    1757+
+           1781   11504    2292    2286
CTETRA     10232       1   15057     314     137     313   10621    4989+
+           9856   11505    2474    4990
CTETRA     10233       1   17409     314   15057     313    2473   10621+
+          15184    2469    2474   11505
CTETRA     10234       1   17409   13634     313     158   14067    2470+
+           2469    1802    1804   11506
CTETRA     10235       1   13634     137     313     158    2942    4990+
+           2470    1804    6329   11506
CTETRA     10236       1   12176     700     104     696    9758    6153+
+           3236   11507    5185    5148
CTETRA     10237       1   12176     701     700     696    9936    5183+
+           9758   11507    5186    5185
CTETRA     10238       1   12176     101     701     696    2885    5737+
+           9936   11507    5738    5186
CTETRA     10239       1   12176     100     101     696    3234    1573+
+           2885   11507    5147    5738
CTETRA     10240       1   12176     104     100     696    3236    1584+
+           3234   11507    5148    5147
CTETRA     10241       1   17459   15276     721     670   15709   10530+
+           5340    4897    4896    5342
CTETRA     10242       1   15276     672     721     670    4916    6078+
+          10530    4896    7658    5342
CTETRA     10243       1   15735     670     672    1033    4899    7658+
+           6079   11508   11509    7666
CTETRA     10244       1   17458   17459   15735     670   17492   15786+
+          15788    4895    4897    4899
CTETRA     10245       1   17916     676   15037     735    4986   10625+
+          15086    5444    5446   11510
CTETRA     10246       1   17916   15037     814     735   15086    7718+
+           7717    5444   11510    6104
CTETRA     10247       1   15037     558     814     735    6098    6103+
+           7718   11510    6105    6104
CTETRA     10248       1   15037     390     558     735   10627    6310+
+           6098   11510    6108    6105
CTETRA     10249       1   15037     676     390     735   10625    6107+
+          10627   11510    5446    6108
CTETRA     10250       1   16014     608     354     742    5595    6313+
+           9991   11511    6557    5498
CTETRA     10251       1   16014     611     608     742   10516    5584+
+           5595   11511   10518    6557
CTETRA     10252       1   17658     611   16014     742    8412   10516+
+          16207    8410   10518   11511
CTETRA     10253       1   17657   17658   16014     742   17679   16207+
+          16210    5497    8410   11511
CTETRA     10254       1   17657   16014     354     742   16210    9991+
+           2656    5497   11511    5498
CTETRA     10255       1   15732     623     668    1201    4499    4881+
+           4880    9024   11512    9025
CTETRA     10256       1   17462   15252     623    1201   15523   11513+
+           4497   11514   11515   11512
CTETRA     10257       1   17462   15252     765     623   15523   10976+
+           5699    4497   11513    5701
CTETRA     10258       1   15252     668     765     623    7107    7686+
+          10976   11513    4881    5701
CTETRA     10259       1   16051     146     119     800   11500    3680+
+           1651   11516    9534    6007
CTETRA     10260       1   16051     197     146     800    1968    6003+
+          11500   11516    6006    9534
CTETRA     10261       1   16051     119     197     800    1651    2654+
+           1968   11516    6007    6006
CTETRA     10262       1   12878     819     477     820   10946    6122+
+           7236   11517    6126    6125
CTETRA     10263       1   17302     819   12878     820    6127   10946+
+          13032    6128    6126   11517
CTETRA     10264       1   17301   17302   12878     820   17329   13032+
+          13033    7613    6128   11517
CTETRA     10265       1   17301   12878     648     820   13033   10576+
+           4720    7613   11517   10577
CTETRA     10266       1   12878     477     648     820    7236    5609+
+          10576   11517    6125   10577
CTETRA     10267       1   15266      33   15983     853    3811    1322+
+           7147   11518    7567   11519
CTETRA     10268       1   15266   15983      51     853    7147    9357+
+           9360   11518   11519    9358
CTETRA     10269       1   17597      51   15983     853    1382    9357+
+          16120    8281    9358   11519
CTETRA     10270       1   17596   17597   15983     853   17619   16120+
+          16121    6351    8281   11519
CTETRA     10271       1   17596   15983     852     853   16121   10825+
+           6349    6351   11519    6352
CTETRA     10272       1   15983      33     852     853    1322    8434+
+          10825   11519    7567    6352
CTETRA     10273       1   15997     330     733     873    9905    9167+
+           9914   11520    6561    7369
CTETRA     10274       1   15997     327     330     873    2685    2536+
+           9905   11520    6562    6561
CTETRA     10275       1   15997     276     327     873    6567    6169+
+           2685   11520    7368    6562
CTETRA     10276       1   15997     733     276     873    9914    5408+
+           6567   11520    7369    7368
CTETRA     10277       1   15266     326     881     879    2514    9122+
+          11331   11521    7652    6648
CTETRA     10278       1   15266      51     326     879    9360    7500+
+           2514   11521    6645    7652
CTETRA     10279       1   15730     879      51     850    6614    6645+
+           6359    6345   11522    9359
CTETRA     10280       1   17464     879   15730     850    6612    6614+
+          15771    6344   11522    6345
CTETRA     10281       1   17464   15266     881     879   15554   11331+
+           6646    6612   11521    6648
CTETRA     10282       1   12167     995     485     887   11464    8382+
+           3510   11523   11465    6673
CTETRA     10283       1   17106     995   12167     887    7402   11464+
+          12509    6847   11465   11523
CTETRA     10284       1   17106   12167     884     887   12509   11119+
+           6846    6847   11523    6672
CTETRA     10285       1   12167     485     884     887    3510    6662+
+          11119   11523    6673    6672
CTETRA     10286       1   13736     923     224     897   11190    7411+
+           9676   11524   11191    6947
CTETRA     10287       1   17360     923   13736     897    8021   11190+
+          14422    8259   11191   11524
CTETRA     10288       1   17360   13736     690     897   14422   10655+
+           7012    8259   11524    6713
CTETRA     10289       1   13736     223     690     897    3556    5095+
+          10655   11524    6714    6713
CTETRA     10290       1   13736     224     223     897    9676    2101+
+           3556   11524    6947    6714
CTETRA     10291       1   12945     101     267     909    2596    2257+
+           9751   11525    6842    9753
CTETRA     10292       1   12945     272     101     909    9778    2278+
+           2596   11525    6843    6842
CTETRA     10293       1   17310     272   12945     909    8035    9778+
+          13266    8036    6843   11525
CTETRA     10294       1   17310   12945     267     909   13266    9751+
+           8339    8036   11525    9753
CTETRA     10295       1   17344   15039     816     919   15090   10948+
+           8651    9157   11526   10949
CTETRA     10296       1   15039     436     816     919    3210    6895+
+          10948   11526    9133   10949
CTETRA     10297       1   15039     162     436     919    3211    3196+
+           3210   11526    6900    9133
CTETRA     10298       1   15039     918     162     919   11183    6898+
+           3211   11526    6901    6900
CTETRA     10299       1   17344     918   15039     919    7726   11183+
+          15090    9157    6901   11526
CTETRA     10300       1   17468   15196    1061     950   15319   11415+
+           7866    8354   11527   11416
CTETRA     10301       1   15196     183    1061     950    1919    8379+
+          11415   11527    7998   11416
CTETRA     10302       1   15196     144     183     950    1920    1917+
+           1919   11527    7999    7998
CTETRA     10303       1   15196     949     144     950    9669    8966+
+           1920   11527    7112    7999
CTETRA     10304       1   17467     949   15196     950    7109    9669+
+          15320    7110    7112   11527
CTETRA     10305       1   17467   15196   17468     950   15320   15319+
+          17473    7110   11527    8354
CTETRA     10306       1   15266      33     853     850    3811    7567+
+          11518   11528    7146    7568
CTETRA     10307       1   15266     851      33     850   10979    7145+
+           3811   11528    6348    7146
CTETRA     10308       1   17463     851   15266     850    6347   10979+
+          15553    6343    6348   11528
CTETRA     10309       1   17463   15266   17464     850   15553   15554+
+          17489    6343   11528    6344
CTETRA     10310       1   17464   15266     879     850   15554   11521+
+           6612    6344   11528   11522
CTETRA     10311       1   15266      51     879     850    9360    6645+
+          11521   11528    9359   11522
CTETRA     10312       1   15266     853      51     850   11518    9358+
+           9360   11528    7568    9359
CTETRA     10313       1   12135      20     956     957    4489    8666+
+          11319   11529    8667    7163
CTETRA     10314       1   12135     631      20     957   10550    4548+
+           4489   11529   10551    8667
CTETRA     10315       1   17113     631   12135     957    6973   10550+
+          12394    7162   10551   11529
CTETRA     10316       1   17113   12135     956     957   12394   11319+
+           7160    7162   11529    7163
CTETRA     10317       1   17401   15047   15043     965   15128   15129+
+          15110    8910   11530   11531
CTETRA     10318       1   15043   15047      25     965   15129    8448+
+           9860   11531   11530    7674
CTETRA     10319       1   15047      24      25     965    8449    1300+
+           8448   11530    7662    7674
CTETRA     10320       1   15047      21      24     965    9288    7661+
+           8449   11530    7226    7662
CTETRA     10321       1   17400      21   15047     965    1284    9288+
+          15133    7224    7226   11530
CTETRA     10322       1   17400   15047   17401     965   15133   15128+
+          17420    7224   11530    8910
CTETRA     10323       1   11600     762     193     973   10813    5845+
+           7141   11532   10814    7264
CTETRA     10324       1   16998     762   11600     973    5661   10813+
+          11624    9182   10814   11532
CTETRA     10325       1   16997   16998   11600     973   17004   11624+
+          11621    9181    9182   11532
CTETRA     10326       1   16997   11600     110     973   11621    9494+
+           1603    9181   11532    7263
CTETRA     10327       1   11600     193     110     973    7141    7261+
+           9494   11532    7264    7263
CTETRA     10328       1   12188    1011      74    1009   11327    7514+
+           7475   11533   11329    7494
CTETRA     10329       1   17108    1011   12188    1009    7545   11327+
+          12596    9140   11329   11533
CTETRA     10330       1   17108   12188      79    1009   12596    9427+
+           9139    9140   11533    7493
CTETRA     10331       1   12188      74      79    1009    7475    1485+
+           9427   11533    7494    7493
CTETRA     10332       1   11603     990     192    1012   11292    7366+
+          10058   11534   11294    7524
CTETRA     10333       1   11603    1021     990    1012   11007   11005+
+          11292   11534   11004   11294
CTETRA     10334       1   11603     836    1021    1012   11009    7580+
+          11007   11534   10998   11004
CTETRA     10335       1   13652    1012     836    1237   11535   10998+
+          11000   10891   11536   11001
CTETRA     10336       1   13652     787    1012    1237   10886    7523+
+          11535   10891   10893   11536
CTETRA     10337       1   11603     192     787    1012   10058    5932+
+          10889   11534    7524    7523
CTETRA     10338       1   17923   12914     871    1038   13185   11097+
+           6547    8399   11537   11099
CTETRA     10339       1   12914      37     871    1038    6267    6814+
+          11097   11537    7701   11099
CTETRA     10340       1   12914      38      37    1038    9304    1341+
+           6267   11537    7702    7701
CTETRA     10341       1   17233      38   12914    1038    7714    9304+
+          13186    8167    7702   11537
CTETRA     10342       1   17923   17233   12914    1038   17254   13186+
+          13185    8399    8167   11537
CTETRA     10343       1   13606     867      22    1057   11090    6523+
+           1294   11538   11091    7903
CTETRA     10344       1   17897     867   13606    1057    8293   11090+
+          13985    7832   11091   11538
CTETRA     10345       1   17896   17897   13606    1057   17907   13985+
+          13983    7830    7832   11538
CTETRA     10346       1   17896   13606     849    1057   13983   11048+
+           9219    7830   11538    7902
CTETRA     10347       1   13606      22     849    1057    1294    6342+
+          11048   11538    7903    7902
CTETRA     10348       1   13627     402     322    1081   11208    8030+
+           9887   11539   11210    8006
CTETRA     10349       1   17853     402   13627    1081    2963   11208+
+          14035    8007   11210   11539
CTETRA     10350       1   17853   13627     320    1081   14035    9866+
+           6906    8007   11539    8005
CTETRA     10351       1   13627     322     320    1081    9887    2502+
+           9866   11539    8006    8005
CTETRA     10352       1   13722       7    1088    1089    7016    8078+
+          11289   11540    8082    8081
CTETRA     10353       1   13722     490       7    1089   10307    3580+
+           7016   11540   10308    8082
CTETRA     10354       1   17363     490   13722    1089    3560   10307+
+          14354    9198   10308   11540
CTETRA     10355       1   17363   13722   17364    1089   14354   14355+
+          17372    9198   11540    8822
CTETRA     10356       1   17364   13722    1088    1089   14355   11289+
+           8821    8822   11540    8081
CTETRA     10357       1   12954    1090     251    1092   11055    8095+
+           6402   11541    8098    8097
CTETRA     10358       1   17311    1090   12954    1092    8084   11055+
+          13307    8782    8098   11541
CTETRA     10359       1   17311   12954     272    1092   13307    9777+
+           8338    8782   11541    9776
CTETRA     10360       1   12954     251     272    1092    6402    2279+
+           9777   11541    8097    9776
CTETRA     10361       1   12919     777     760     908   10856    8709+
+          10806   11542   10857    8672
CTETRA     10362       1   17251     777   12919     908    6798   10856+
+          13177    6804   10857   11542
CTETRA     10363       1   17250   17251   12919     908   17272   13177+
+          13181    6802    6804   11542
CTETRA     10364       1   17250   12919     684     908   13181   10644+
+           8393    6802   11542    8107
CTETRA     10365       1   12919     526     684     908    3805    5055+
+          10644   11542    8108    8107
CTETRA     10366       1   12919     760     526     908   10806    7008+
+           3805   11542    8672    8108
CTETRA     10367       1   17404   15052   17405    1094   15156   15154+
+          17429    8826   11543    8976
CTETRA     10368       1   17405   15052     150    1094   15154    1777+
+           4508    8976   11543    8111
CTETRA     10369       1   15052     166     150    1094    8831    1830+
+           1777   11543    8112    8111
CTETRA     10370       1   17404     166   15052    1094    5162    8831+
+          15156    8826    8112   11543
CTETRA     10371       1   17401     965   15043    1100    8910   11531+
+          15110    8911    8147   11544
CTETRA     10372       1   17401   15043     316    1100   15110    9859+
+           8913    8911   11544    9858
CTETRA     10373       1   15043      25     316    1100    9860    8443+
+           9859   11544    8146    9858
CTETRA     10374       1   15043     965      25    1100   11531    7674+
+           9860   11544    8147    8146
CTETRA     10375       1   13401     379     463    1227    9260    3346+
+           8589   11545    9852   11497
CTETRA     10376       1   13401     708     379    1227    9841    7166+
+           9260   11545    9850    9852
CTETRA     10377       1   13401     462     708    1227    8588    6266+
+           9841   11545    9851    9850
CTETRA     10378       1   13401     463     462    1227    8589    7600+
+           8588   11545   11497    9851
CTETRA     10379       1   16694     205     204    1157    9635    1996+
+           9596   11546    9636    9599
CTETRA     10380       1   17713     205   16694    1157    8554    9635+
+          16738    8591    9636   11546
CTETRA     10381       1   17713   16694    1144    1157   16738   11473+
+           8590    8591   11546    8592
CTETRA     10382       1   16693    1144   16694    1157   11471   11473+
+          16737   11547    8592   11546
CTETRA     10383       1   16693   16694    1188    1157   16737    9606+
+           9608   11547   11546    9051
CTETRA     10384       1   16694     204    1188    1157    9596    9598+
+           9606   11546    9599    9051
CTETRA     10385       1   16693    1157    1188    1158   11547    9051+
+           9608   11548    8595    8890
CTETRA     10386       1   16693    1144    1157    1158   11471    8592+
+          11547   11548    8596    8595
CTETRA     10387       1   16693     307    1144    1158    9609    8603+
+          11471   11548    8727    8596
CTETRA     10388       1   16693    1188     307    1158    9608    8888+
+           9609   11548    8890    8727
CTETRA     10389       1   17941   13654     791    1030   14125   10900+
+           5961    8658   11549   10901
CTETRA     10390       1   13654     410     791    1030    7212    5969+
+          10900   11549    7633   10901
CTETRA     10391       1   13654      54     410    1030    7326    3029+
+           7212   11549    7634    7633
CTETRA     10392       1   13654     417      54    1030   10176    3061+
+           7326   11549    8657    7634
CTETRA     10393       1   17941     417   13654    1030    8656   10176+
+          14125    8658    8657   11549
CTETRA     10394       1   17915   11905     537    1169   12073   11127+
+           3903    8701   11550    8702
CTETRA     10395       1   11905     886     537    1169   11492    6669+
+          11127   11550    9002    8702
CTETRA     10396       1   11905      29     886    1169    9297    9299+
+          11492   11550    9298    9002
CTETRA     10397       1   17915      29   11905    1169    1311    9297+
+          12073    8701    9298   11550
CTETRA     10398       1   17895   13563     566    1174   13806   10452+
+           8584    9054   11551   10453
CTETRA     10399       1   13563     121     566    1174    6764    4124+
+          10452   11551    8743   10453
CTETRA     10400       1   13563     840     121    1174   11023    8613+
+           6764   11551    8744    8743
CTETRA     10401       1   17895     840   13563    1174    8141   11023+
+          13806    9054    8744   11551
CTETRA     10402       1   16027     130     601    1176    2680    6164+
+          10500   11552    9090    8767
CTETRA     10403       1   16027     496     130    1176   10320    3589+
+           2680   11552   10319    9090
CTETRA     10404       1   17577     496   16027    1176    3607   10320+
+          16258    8766   10319   11552
CTETRA     10405       1   17577   16027     601    1176   16258   10500+
+           6307    8766   11552    8767
CTETRA     10406       1   15219     666     747    1112    8055    6396+
+           8056   11553    8280    8279
CTETRA     10407       1   15219     870     666    1112   11241    8792+
+           8055   11553    8791    8280
CTETRA     10408       1   17452     870   15219    1112    6544   11241+
+          15437    8790    8791   11553
CTETRA     10409       1   17452   15740    1112    1122   15804    8460+
+           8790    8349    8351   11554
CTETRA     10410       1   15740     747    1112    1122    6684    8279+
+           8460    8351    9071   11554
CTETRA     10411       1   13652    1012     787    1179   11535    7523+
+          10886   11555    8836    8794
CTETRA     10412       1   13652     836    1012    1179   11000   10998+
+          11535   11555   10999    8836
CTETRA     10413       1   17855     836   13652    1179    6722   11000+
+          14115    8793   10999   11555
CTETRA     10414       1   17855   13652     787    1179   14115   10886+
+           6725    8793   11555    8794
CTETRA     10415       1   11902     882     969    1185    8801   11114+
+          10986   11556   11115   11271
CTETRA     10416       1   11902     657     882    1185    8996    6653+
+           8801   11556    8869   11115
CTETRA     10417       1   17074     657   11902    1185    4766    8996+
+          12048    8867    8869   11556
CTETRA     10418       1   17074   11902     832    1185   12048   10985+
+           6459    8867   11556   10987
CTETRA     10419       1   11902     969     832    1185   10986    7938+
+          10985   11556   11271   10987
CTETRA     10420       1   15209    1060     627    1196   11412    8997+
+           4929   11557   11414    8987
CTETRA     10421       1   17469    1060   15209    1196    8196   11412+
+          15327    9053   11414   11557
CTETRA     10422       1   17469   15209     860    1196   15327   11070+
+           9052    9053   11557    8986
CTETRA     10423       1   15209     627     860    1196    4929    6477+
+          11070   11557    8987    8986
CTETRA     10424       1   15982    1195     609    1181   10792    9005+
+           8804   11558    8969    9006
CTETRA     10425       1   17660    1195   15982    1181    8968   10792+
+          16382    8829    8969   11558
CTETRA     10426       1   17659   17660   15982    1181   17681   16382+
+          16208    8827    8829   11558
CTETRA     10427       1   17659   15982     612    1181   16208   10519+
+           4423    8827   11558   10520
CTETRA     10428       1   15982     609     612    1181    8804    6902+
+          10519   11558    9006   10520
CTETRA     10429       1   16698      32    1202    1203   11349    9102+
+          11351   11559   11350    9060
CTETRA     10430       1   17735      32   16698    1203    1320   11349+
+          16758    9190   11350   11559
CTETRA     10431       1   17734   17735   16698    1203   17745   16758+
+          16759    9189    9190   11559
CTETRA     10432       1   17734   16698      46    1203   16759    9329+
+           2925    9189   11559    9331
CTETRA     10433       1   16698    1103      46    1203    8163    9330+
+           9329   11559    9059    9331
CTETRA     10434       1   16698    1203    1202    1191   11559    9060+
+          11351    8944   11560   11335
CTETRA     10435       1   16693   16695     307     109   16740    9397+
+           9609   11561    9398    9396
CTETRA     10436       1   17703   16695   16693     109   16741   16740+
+          16734    1602    9398   11561
CTETRA     10437       1   17937   17703   16693     109   17705   16734+
+          16733    1600    1602   11561
CTETRA     10438       1   17937   16693     190     109   16733    9615+
+           9086    1600   11561    9087
CTETRA     10439       1   16693     307     190     109    9609    9395+
+           9615   11561    9396    9087
CTETRA     10440       1   17859   13630     441     745   14045   10223+
+           8881    5519   11562   10224
CTETRA     10441       1   13630     309     441     745    5253    7272+
+          10223   11562    9117   10224
CTETRA     10442       1   13630     961     309     745   11265    9116+
+           5253   11562    8880    9117
CTETRA     10443       1   17858     961   13630     745    8879   11265+
+          14042    5518    8880   11562
CTETRA     10444       1   17858   13630   17859     745   14042   14045+
+          17863    5518   11562    5519
CTETRA     10445       1   16048    1147     843    1150   11447   11036+
+          11038   11563    9187   11037
CTETRA     10446       1   16048     367    1147    1150    9246    8532+
+          11447   11563    9188    9187
CTETRA     10447       1   16048    1218     367    1150   10692    9230+
+           9246   11563    9232    9188
CTETRA     10448       1   17605    1218   16048    1150    9234   10692+
+          16335    8543    9232   11563
CTETRA     10449       1   17604   17605   16048    1150   17627   16335+
+          16336    8541    8543   11563
CTETRA     10450       1   17604   16048     843    1150   16336   11038+
+           6285    8541   11563   11037
CTETRA     10451       1   15045    1018    1133    1214    8133    8446+
+          11467   11564    9196    9249
CTETRA     10452       1    1018      32    1214    1191    7565    9197+
+           9196   11348   11352   11565
CTETRA     10453       1   15045    1214    1202    1191   11564   11334+
+          11333    9340   11565   11335
CTETRA     10454       1   15045     210    1202    1214    9660    9664+
+          11333   11564    9663   11334
CTETRA     10455       1   15045    1133     210    1214   11467    9662+
+           9660   11564    9249    9663
CTETRA     10456       1   11604     835    1021    1230   10992    9073+
+          11008   11566   10994   10018
CTETRA     10457       1   11604     321     835    1230    9882    9875+
+          10992   11566   10019   10994
CTETRA     10458       1   11604     817     321    1230   10013    9872+
+           9882   11566   10017   10019
CTETRA     10459       1   11604    1021     817    1230   11008   10015+
+          10013   11566   10018   10017
CTETRA     10460       1   15057     313     137     158   11505    4990+
+           9856   11567   11506    6329
CTETRA     10461       1   17409     313   15057     158    2469   11505+
+          15184    1802   11506   11567
CTETRA     10462       1   17409   15057   17410     158   15184   15183+
+          17425    1802   11567    1803
CTETRA     10463       1   17410   15057     310     158   15183    4999+
+           4998    1803   11567    6649
CTETRA     10464       1   15057     309     310     158    9853    2461+
+           4999   11567    6328    6649
CTETRA     10465       1   15057     137     309     158    9856    2929+
+           9853   11567    6329    6328
CTETRA     10466       1   15219    1112     747    1122   11553    8279+
+           8056   11568   11554    9071
CTETRA     10467       1   17452    1112   15219    1122    8790   11553+
+          15437    8349   11554   11568
CTETRA     10468       1   17452   15219   17453    1122   15437   15390+
+          17481    8349   11568    8350
CTETRA     10469       1   17453   15219    1204    1122   15390   11185+
+           9247    8350   11568    9070
CTETRA     10470       1   15219     747    1204    1122    8056    9069+
+          11185   11568    9071    9070
CTETRA     10471       1   16920     307     190    1217    9603    9395+
+           9614   11569    9610    9616
CTETRA     10472       1   16920    1188     307    1217    9604    8888+
+           9603   11569    9611    9610
CTETRA     10473       1   16920     349    1188    1217    9633    9607+
+           9604   11569    9634    9611
CTETRA     10474       1   17790     349   16920    1217    2627    9633+
+          16985    9224    9634   11569
CTETRA     10475       1   17937   17790   16920    1217   17791   16985+
+          16986    9222    9224   11569
CTETRA     10476       1   17937   16920     190    1217   16986    9614+
+           9086    9222   11569    9616
CTETRA     10477       1   17458   15287     672    1239   15629    4915+
+           4914   11029   11032   11033
CTETRA     10478       1   17703     906   16695    1226    6777    7809+
+          16741    9833    9847    9844
CTETRA     10479       1   17117   17118   12619     584   17124   12693+
+          12696    4252    5205    4253
CTETRA     10480       1   17789   16919   17790     206   16979   16980+
+          17793    3551    9136    1998
CTETRA     10481       1   16993   11609     963    1079   11659    8905+
+           7204    7984    9173   11570
CTETRA     10482       1   17462     622   15252    1201    4495    8222+
+          15523   11514    9026   11515
CTETRA     10483       1   17239   12883   12859     485   13040   13041+
+          13038    7690    8374    7691
CTETRA     10484       1   17241   12881   12884      74   13052   13045+
+          13051    8736    6181    8068
CTETRA     10485       1   17404     470   15050     699    3396    8929+
+          15146    5163    8148    5164
CTETRA     10486       1   16992   13653   16993     962   14118   14119+
+          17011    9106    7203    7202
CTETRA     10487       1   17924   17435   14728     554   17439   15018+
+          15017    5025    4000    3999
CTETRA     10488       1   17241   17242   12881      77   17263   13099+
+          13052    8660    7797    8661
CTETRA     10489       1   17928   17564   15244     145   17565   15470+
+          15469    3985    1758    3986
CTETRA     10490       1   17703   16695    1172    1226   16741    9399+
+           8724    9833    9844   11571
CTETRA     10491       1   17446     416   13409     494    6595    3633+
+          13544    4786   10172    3577
CTETRA     10492       1   17929   15297   17520     414   15665   15666+
+          17556    3052    3046    3045
CTETRA     10493       1   17091     432   12149    1232    9213    8076+
+          12438   10555   10205   10204
CTETRA     10494       1   17044     572   13391     615    9217    4163+
+          13447    4436   10300   10099
CTETRA     10495       1   17655     559   15851    1077    7967    8515+
+          15872    7975   10434   10433
CTETRA     10496       1   17118   12092   17119     586   12224   12220+
+          17125    5206    4262    4261
CTETRA     10497       1   16999   17000   11603     818   17006   11634+
+          11631    6716    6118    6717
CTETRA     10498       1   17239     825   12607    1238    8862    7853+
+          12644   11572   10957   10956
CTETRA     10499       1   17183     997   12735    1213    7569    8756+
+          12774    9192   11573   11574
CTETRA     10500       1   17746   17940   16698    1018   17748   16756+
+          16755    8132    8134   11347
CTETRA     10501       1   17562    1098   15033    1193    8937    8908+
+          15068    8953   11437    8954
CTETRA     10502       1   17305     575   12739     768    4196    7869+
+          12810    5733   11575    5734
CTETRA     10503       1   17458     670   15735    1033    4895    4899+
+          15788    7665   11509   11508
CTETRA     10504       1   17520   15853     414     415   15883    6333+
+           3045    3047    6784    3048
CTETRA     10505       1   17520     718   15853     415    5321   11101+
+          15883    3047   11102    6784
CTETRA     10506       1   15853     442     414     415    6332    3636+
+           6333    6784    8759    3048
CTETRA     10507       1   15297     132     718     415    3622    6575+
+           5322    3049    6785   11102
CTETRA     10508       1     132     442     877     415    3625    6592+
+           6783    6785    8759    6786
CTETRA     10509       1   15853     877     442     415    6593    6592+
+           6332    6784    6786    8759
CTETRA     10510       1   15032     145     552    1224    2057    3988+
+          10404    9530    9532   10406
CTETRA     10511       1   17928   15032     145     552   15060    2057+
+           3985    3987   10404    3988
CTETRA     10512       1   17928   15244     535     552   15469    8253+
+           8252    3987    3989   10405
CTETRA     10513       1   17928     535   15032     552    8252   10403+
+          15060    3987   10405   10404
CTETRA     10514       1   17117     760   12086     585    5641   10804+
+          12208    4254   10805   11384
CTETRA     10515       1   17117   12086     584     585   12208    7863+
+           4252    4254   11384    4255
CTETRA     10516       1   12086     760    1235     585   10804   10808+
+          11382   11384   10805   11383
CTETRA     10517       1     584    1235     777     585   10667   10858+
+           7858    4255   11383    9171
CTETRA     10518       1   17119   12620     586     587   12691    5859+
+           4261    4263    5591    4264
CTETRA     10519       1   12620    1050    1049     753    8193    7780+
+           8191    8214    7783    7782
CTETRA     10520       1   12620      60     586     753    4743    5860+
+           5859    8214    5598   10671
CTETRA     10521       1   17119   12092   12081     753   12220   12210+
+          12218   11576    5597    5596
CTETRA     10522       1   17119     587   12092     753    4263    4265+
+          12220   11576   10033    5597
CTETRA     10523       1   17446   13409     247     494   13544    4765+
+           4755    4786    3577    4774
CTETRA     10524       1   17446   15249     416     494   15538    6596+
+           6595    4786    4773   10172
CTETRA     10525       1   15249     442     416     494    3223    3635+
+           6596    4773    3578   10172
CTETRA     10526       1     247     249     442     494    4772    3576+
+           3413    4774    3579    3578
CTETRA     10527       1   13409     249     247     494    2190    4772+
+           4765    3577    3579    4774
CTETRA     10528       1   17924   14728     681     682   15017    5483+
+           5024    5026    5028   10639
CTETRA     10529       1   17924     681   15053     682    5024   10638+
+          15188    5026   10639   11577
CTETRA     10530       1   14728     682     554    1234    5028    5027+
+           3999   10640   10642   10779
CTETRA     10531       1   17924   15053     554     682   15188    9158+
+           5025    5026   11577    5027
CTETRA     10532       1   17404     166   13557     699    5162    5000+
+          14002    5163    5165    5177
CTETRA     10533       1   17404   13557     470     699   14002    3397+
+           3396    5163    5177    8148
CTETRA     10534       1   15050     318     166     699   10457    5002+
+           5161    5164    5178    5165
CTETRA     10535       1   15050     470     318     699    8929    4188+
+          10457    5164    8148    5178
CTETRA     10536       1   17119     651     587     753    4747    5590+
+           4263   11576   10032   10033
CTETRA     10537       1   12092     587     586     753    4265    4264+
+           4262    5597   10033   10671
CTETRA     10538       1   12620     586     587     753    5859    4264+
+           5591    8214   10671   10033
CTETRA     10539       1   17119   12081     651     753   12218   10030+
+           4747   11576    5596   10032
CTETRA     10540       1   12081     374     651     753   10029   10028+
+          10030    5596    8215   10032
CTETRA     10541       1      60    1050     374     753    7781    8213+
+           8560    5598    7783    8215
CTETRA     10542       1   12620    1049      60     753    8191    7779+
+           4743    8214    7782    5598
CTETRA     10543       1   12739     575   12892     768    7869    4197+
+           8814    5734   11575   11578
CTETRA     10544       1   17305   12892     575     768   13079    4197+
+           4196    5733   11578   11575
CTETRA     10545       1   12739   12892     429     768    8814    7135+
+           4905    5734   11578    5735
CTETRA     10546       1   17305     429   12892     768    5731    7135+
+          13079    5733    5735   11578
CTETRA     10547       1   13652     898     789    1237   10895   10894+
+           7376   10891   11579   10892
CTETRA     10548       1   16999   11603     788     898   11631   10840+
+           7572    6718    6720   10896
CTETRA     10549       1   16999     788     789     898    7572    5937+
+           7375    6718   10896   10894
CTETRA     10550       1   13652     818     898    1237    6121    6719+
+          10895   10891   11002   11579
CTETRA     10551       1   16999   13652     818     898   14113    6121+
+           6716    6718   10895    6719
CTETRA     10552       1   16993   11609     962     963   11659    8904+
+           7202    7204    8905    7205
CTETRA     10553       1   16993   13653     410     963   14119    7211+
+           7983    7204    7206    8906
CTETRA     10554       1   13653     962     410     963    7203    8903+
+           7211    7206    7205    8906
CTETRA     10555       1   17458     672    1033    1239    4914    7666+
+           7665   11029   11033   11580
CTETRA     10556       1   17458   15276     670    1033   15630    4896+
+           4895    7665    7667   11509
CTETRA     10557       1   15276     672     670    1033    4916    7658+
+           4896    7667    7666   11509
CTETRA     10558       1   17172   12746     429     695   12833    5732+
+           5723    6422    7504    5139
CTETRA     10559       1   12159     429     574     695    5142    5138+
+           5144    6423    5139    5141
CTETRA     10560       1     574     220     219     695    5137    2088+
+           9568    5141    5140    7505
CTETRA     10561       1   12746     574     219     695    6166    9568+
+           2084    7504    5141    7505
CTETRA     10562       1   12746     220     429     695    2087    5136+
+           5732    7504    5140    5139
CTETRA     10563       1   17173   12746     695    1034   12835    7504+
+           6424    7822    7823    7669
CTETRA     10564       1   17172   17173   12746     695   17196   12835+
+          12833    6422    6424    7504
CTETRA     10565       1   12607    1238     485     634   10956   10958+
+           6661    8375   11581    7692
CTETRA     10566       1   17239   12859     825    1238   13038    8863+
+           8862   11572   11582   10957
CTETRA     10567       1   12859     485     825    1238    7691    6147+
+           8863   11582   10958   10957
CTETRA     10568       1   17173     695   12159    1034    6424    6423+
+          12473    7822    7669    7668
CTETRA     10569       1   17173   12159     574    1034   12473    5144+
+           6165    7822    7668    7670
CTETRA     10570       1   12746     574     695    1034    6166    5141+
+           7504    7823    7670    7669
CTETRA     10571       1   17789   16919     206    1075   16979    9136+
+           3551    7943   11149    7944
CTETRA     10572       1   17789     978     977    1075    7290    7292+
+           7289    7943    9089   11276
CTETRA     10573       1   16701     206    1139    1075    3552    9640+
+          11428    7945    7944   11426
CTETRA     10574       1     977     978    1206    1075    7292   11282+
+          11148   11276    9089   11470
CTETRA     10575       1   16701    1139    1206    1075   11428   11427+
+          11469    7945   11426   11470
CTETRA     10576       1   17655   15851     133    1077   15872    7995+
+           7618    7975   10433    7976
CTETRA     10577       1   17655   16002     559    1077   16148    7968+
+           7967    7975    7977   10434
CTETRA     10578       1   16002     133     559    1077    6430    4069+
+           7968    7977    7976   10434
CTETRA     10579       1   16993   13683     106    1079   14228    1591+
+           1590    7984    7986    8416
CTETRA     10580       1   11609     106     410    1079    9172    6239+
+           8902    9173    8416    7985
CTETRA     10581       1   11609     410     963    1079    8902    8906+
+           8905    9173    7985   11570
CTETRA     10582       1   16993     963     410    1079    7204    8906+
+           7983    7984   11570    7985
CTETRA     10583       1   12883     885     634    1126    8843   11583+
+           4595    8373    8844   11584
CTETRA     10584       1   17239   12607   17240     634   12644   12645+
+          17261    4593    8375    4594
CTETRA     10585       1   17239   12883     485     634   13040    8374+
+           7690    4593    4595    7692
CTETRA     10586       1   17239    1238   12607     634   11572   10956+
+          12644    4593   11581    8375
CTETRA     10587       1   17239   12859    1238     634   13038   11582+
+          11572    4593    7693   11581
CTETRA     10588       1   12859     485    1238     634    7691   10958+
+          11582    7693    7692   11581
CTETRA     10589       1   12607     885     634    1127    6664   11583+
+           8375    8376    8384    8377
CTETRA     10590       1   17240     885   12608    1126    8859    8860+
+          12646    8371    8844   11585
CTETRA     10591       1   12883   12884     485     883   13049    6659+
+           8374    8370    8630    6658
CTETRA     10592       1   12188      74    1011     883    7475    7514+
+          11327    6657    7518    7517
CTETRA     10593       1   12607     884   12608     885    6663    8858+
+          12647    6664    6666    8860
CTETRA     10594       1     485    1183     884     885   11121   11116+
+           6662    6665   11117    6666
CTETRA     10595       1   12608     885    1183     883    8860   11117+
+           8845    7516    8842    8847
CTETRA     10596       1   17410   13625     310     854   14039    3770+
+           4998    6376   10972    8570
CTETRA     10597       1   15056     310    1165     854    4991    9174+
+          10333    6377    8570   10334
CTETRA     10598       1   13625     440     310     854   10221    3216+
+           3770   10972   10973    8570
CTETRA     10599       1     310     440    1199     854    3216   10220+
+           9176    8570   10973   10970
CTETRA     10600       1   13625    1199     854    1233   10971   10970+
+          10972   10965   10974   10336
CTETRA     10601       1   17411     854   15056    1233    6378    6377+
+          15176   10963   10336   10335
CTETRA     10602       1   17410   17411   13625     854   17423   14038+
+          14039    6376    6378   10972
CTETRA     10603       1   17241   12609      77    1164   12649    8659+
+           8660    8662    8745    8663
CTETRA     10604       1   17241   12881      74    1164   13052    6181+
+           8736    8662    8664    9404
CTETRA     10605       1   12609      74      77    1164    1482    1476+
+           8659    8745    9404    8663
CTETRA     10606       1   17703   16695     109    1172   16741    9398+
+           1602    8724    9399    8725
CTETRA     10607       1   17703   13402     304    1172   13498    8549+
+           8548    8724    8726    9837
CTETRA     10608       1   13402     109     307    1172    1601    9396+
+           9394    8726    8725    9400
CTETRA     10609       1   13402     307     304    1172    9394    9393+
+           8549    8726    9400    9837
CTETRA     10610       1   12609      74    1173    1124    1482    8738+
+           8746    8989    8988   11586
CTETRA     10611       1   12884    1173      74    1124    8739    8738+
+           8068   11587   11586    8988
CTETRA     10612       1   17241   12608   12609    1124   12648   12650+
+          12649   11588    8363    8989
CTETRA     10613       1   12609      74    1164    1173    1482    9404+
+           8745    8746    8738    8747
CTETRA     10614       1   17241    1164      74    1173    8662    9404+
+           8736    8737    8747    8738
CTETRA     10615       1   12883     485     885     883    8374    6665+
+           8843    8370    6658    8842
CTETRA     10616       1     485    1183     885     883   11121   11117+
+           6665    6658    8847    8842
CTETRA     10617       1   17240   12884     883    1123   13050    8630+
+           8369    8360    8362   11589
CTETRA     10618       1   17240   12884   12883     883   13050   13049+
+          13048    8369    8630    8370
CTETRA     10619       1   12884      74     484     883    8068    4910+
+           6660    8630    7518    8631
CTETRA     10620       1     485    1011    1183     883   11328    8846+
+          11121    6658    7517    8847
CTETRA     10621       1   12157     484   12188     883    4294    4302+
+          12586    6656    8631    6657
CTETRA     10622       1   12157     485     484     883    4293    4295+
+           4294    6656    6658    8631
CTETRA     10623       1   17940   15045    1200    1191   15119    9017+
+           9099    8942    9340    9341
CTETRA     10624       1   17940   16698    1018    1191   16756   11347+
+           8134    8942    8944   11348
CTETRA     10625       1    1202    1214      32    1191   11334    9197+
+           9102   11335   11565   11352
CTETRA     10626       1   17940   16914    1103    1191   16951    9333+
+           8161    8942   10862    8943
CTETRA     10627       1   17940    1200   16914    1191    9099   10861+
+          16951    8942    9341   10862
CTETRA     10628       1    1103    1202    1203    1191    9056    9060+
+           9059    8943   11335   11560
CTETRA     10629       1   16698    1103    1203    1191    8163    9059+
+          11559    8944    8943   11560
CTETRA     10630       1   15045    1018    1214    1191    8133    9196+
+          11564    9340   11348   11565
CTETRA     10631       1   17562   15245    1098    1193   15474    8938+
+           8937    8953   11590   11437
CTETRA     10632       1   17562     365   15245    1193    6879    8934+
+          15474    8953    8955   11590
CTETRA     10633       1   15245     365    1098    1193    8934    8140+
+           8938   11590    8955   11437
CTETRA     10634       1   12608      74    1124    1125    7515    8988+
+           8363    8366    9150    8367
CTETRA     10635       1   17241    1173   12884    1123    8737    8739+
+          13051    8361   11591    8362
CTETRA     10636       1   17241   12609    1173    1124   12649    8746+
+           8737   11588    8989   11586
CTETRA     10637       1   17764     905   16913    1119    6770    6993+
+          16947    9075    9077    8325
CTETRA     10638       1   16913     905    1212    1119    6993   11164+
+          11200    8325    9077   11201
CTETRA     10639       1   16913    1212    1136    1120   11200   11202+
+          11443    8328   11445    8473
CTETRA     10640       1     980    1116    1136    1119   11168    8471+
+          11169   11167   11459   11444
CTETRA     10641       1   13569    1116    1119    1120   11457   11459+
+           9076   11458    8474    8327
CTETRA     10642       1   17764   16913   17765    1119   16947   16948+
+          17767    9075    8325    8324
CTETRA     10643       1   17764   17765   13569    1119   17767   13824+
+          13823    9075    8324    9076
CTETRA     10644       1   17183   12735     640    1213   12774    7192+
+           7191    9192   11574    9193
CTETRA     10645       1   12735   12110     640    1213    9134    5192+
+           7192   11574    9194    9193
CTETRA     10646       1   12735     997   12110    1213    8756    7570+
+           9134   11574   11573    9194
CTETRA     10647       1   17183   12110     997    1213   12297    7570+
+           7569    9192    9194   11573
CTETRA     10648       1   17703   13401     906    1226   13499    6778+
+           6777    9833    9835    9847
CTETRA     10649       1   16695     906     708    1226    7809    9846+
+           9843    9844    9847    9845
CTETRA     10650       1   13401     304     708    1226    2441    8571+
+           9841    9835    9834    9845
CTETRA     10651       1   16695     304    1172    1226    9836    9837+
+           9399    9844    9834   11571
CTETRA     10652       1   17703    1172     304    1226    8724    9837+
+           8548    9833   11571    9834
CTETRA     10653       1   16990   13655   16991    1068   14117   14116+
+          17013    7896   10702    9239
CTETRA     10654       1   16991    1008   11610    1068    7488   10700+
+          11669    9239   10078    9240
CTETRA     10655       1   16990   11610    1014    1068   11670    9977+
+           7894    7896    9240    7897
CTETRA     10656       1    1014    1130     917    1068    9951    8427+
+           7895    7897    8428    7898
CTETRA     10657       1    1130     858     916    1068    9029   11063+
+           8426    8428   10079    8429
CTETRA     10658       1   16990     917     916    1068    6885    6887+
+           6884    7896    7898    8429
CTETRA     10659       1   17044   13391     391     615   13447    9244+
+           4433    4436   10099    4437
CTETRA     10660       1   17044   11904     572     615   12066    9218+
+           9217    4436   10292   10300
CTETRA     10661       1   17044     489   11904     615    6859   10290+
+          12066    4436    7359   10292
CTETRA     10662       1   11904     571     572     615   10289   10102+
+           9218   10292    7358   10300
CTETRA     10663       1   17044     614     489     615    4435    6861+
+           6859    4436    4438    7359
CTETRA     10664       1   17091     633   13384    1232    7454    8723+
+          13416   10555   10554   10553
CTETRA     10665       1   17091   13384     432    1232   13416    9214+
+           9213   10555   10553   10205
CTETRA     10666       1   12149     431     633    1232    3473    4582+
+          10552   10204   10206   10554
CTETRA     10667       1   13384     431     432    1232    9177    3170+
+           9214   10553   10206   10205
CTETRA     10668       1   17411   13625     854    1233   14038   10972+
+           6378   10963   10965   10336
CTETRA     10669       1   13625     826    1199    1233   10962   10969+
+          10971   10965   10964   10974
CTETRA     10670       1   15056    1165     889    1233   10333   10338+
+          11134   10335   10337   10967
CTETRA     10671       1   17411      57     888    1233    9375    6679+
+          11132   10963   10966   10968
CTETRA     10672       1    1165     854    1199    1233   10334   10970+
+           9175   10337   10336   10974
CTETRA     10673       1   17458     139   15287    1239    1730   11028+
+          15629   11029   11031   11032
CTETRA     10674       1   15735     672     139    1239    6079    7660+
+           6071   11030   11033   11031
CTETRA     10675       1   15735    1033     672    1239   11508    7666+
+           6079   11030   11580   11033
CTETRA     10676       1   17458    1033   15735    1239    7665   11508+
+          15788   11029   11580   11030
CTETRA     10677       1   17765   16913    1135    1120   16948    9438+
+           8457    8326    8328    8647
CTETRA     10678       1   17765   13569    1119    1120   13824    9076+
+           8324    8326   11458    8327
CTETRA     10679       1    1135    1136    1117    1120    9346    8472+
+           8459    8647    8473    8475
CTETRA     10680       1    1136    1119    1116    1120   11444   11459+
+           8471    8473    8327    8474
CTETRA     10681       1   17765    1117    1116    1120    8307    8309+
+           8306    8326    8475    8474
CTETRA     10682       1   17462   15732     622    1201   15777    4496+
+           4495   11514    9024    9026
CTETRA     10683       1   17462     623   15732    1201    4497    4499+
+          15777   11514   11512    9024
CTETRA     10684       1   15252     622     668    1201    8222    5288+
+           7107   11515    9026    9025
CTETRA     10685       1   15252     668     623    1201    7107    4881+
+          11513   11515    9025   11512
CTETRA     10686       1   17240   12608   17241    1123   12646   12648+
+          17262    8360    8365    8361
CTETRA     10687       1   12608    1123     883    1125    8365   11589+
+           7516    8366    8368    9149
CTETRA     10688       1   17240   12608    1123    1126   12646    8365+
+           8360    8371   11585   11592
CTETRA     10689       1   17241   12608    1124    1123   12648    8363+
+          11588    8361    8365    8364
CTETRA     10690       1   17241    1124    1173    1123   11588   11586+
+           8737    8361    8364   11591
CTETRA     10691       1   12884    1173    1124    1123    8739   11586+
+          11587    8362   11591    8364
CTETRA     10692       1   17240   12607     885    1126   12645    6664+
+           8859    8371   11593    8844
CTETRA     10693       1   12608     883    1123    1126    7516   11589+
+           8365   11585    8372   11592
CTETRA     10694       1   17240    1123     883    1126    8360   11589+
+           8369    8371   11592    8372
CTETRA     10695       1   12608     885     883    1126    8860    8842+
+           7516   11585    8844    8372
CTETRA     10696       1   17240   12883     634    1126   13048    4595+
+           4594    8371    8373   11584
CTETRA     10697       1   17240     634   12607    1126    4594    8375+
+          12645    8371   11584   11593
CTETRA     10698       1   12607     634     885    1126    8375   11583+
+           6664   11593   11584    8844
CTETRA     10699       1   12884     883    1123    1125    8630   11589+
+           8362   11594    9149    8368
CTETRA     10700       1   12884      74     883    1125    8068    7518+
+           8630   11594    9150    9149
CTETRA     10701       1   12884    1124      74    1125   11587    8988+
+           8068   11594    8367    9150
CTETRA     10702       1   12884    1123    1124    1125    8362    8364+
+          11587   11594    8368    8367
CTETRA     10703       1   12883     634     885    1127    4595   11583+
+           8843   11595    8377    8384
CTETRA     10704       1   12883     485     634    1127    8374    7692+
+           4595   11595    8378    8377
CTETRA     10705       1   12883     885     485    1127    8843    6665+
+           8374   11595    8384    8378
CTETRA     10706       1   15244     535     552    1224    8253   10405+
+           3989   11596   10407   10406
CTETRA     10707       1   15244     119     535    1224    2059    6542+
+           8253   11596    9531   10407
CTETRA     10708       1   15244     145     119    1224    3986    3678+
+           2059   11596    9532    9531
CTETRA     10709       1   15244     552     145    1224    3989    3988+
+           3986   11596   10406    9532
CTETRA     10710       1   15053     554     682    1234    9158    5027+
+          11577   11597   10779   10642
CTETRA     10711       1   15053     740     554    1234   11395    9078+
+           9158   11597   10780   10779
CTETRA     10712       1   15053     388     740    1234   10074    5481+
+          11395   11597   10643   10780
CTETRA     10713       1   15053     681     388    1234   10638    5456+
+          10074   11597   10641   10643
CTETRA     10714       1   15053     682     681    1234   11577   10639+
+          10638   11597   10642   10641
CTETRA     10715       1   11603     898     818    1237    6720    6719+
+           6717   11598   11579   11002
CTETRA     10716       1   11603     789     898    1237   10890   10894+
+           6720   11598   10892   11579
CTETRA     10717       1   11603     787     789    1237   10889   10885+
+          10890   11598   10893   10892
CTETRA     10718       1   11603    1012     787    1237   11534    7523+
+          10889   11598   11536   10893
CTETRA     10719       1   11603     836    1012    1237   11009   10998+
+          11534   11598   11001   11536
CTETRA     10720       1   11603     818     836    1237    6717    6232+
+          11009   11598   11002   11001
$*
$* PROPERTY CARDS
$*
$*  Property: PSOLID1
PSOLID         1       1       0                           SMECH
$*
$* MATERIAL CARDS
$*
$*  Material: Aluminum_6061::025-LSM-CP_fem1::[1]
MAT1           11.0005+7        0.3300002.5368-41.2433-5
MATT1          1       1               2               3
TABLEM1        1                       1                                +
+        68.00001.0005+7 69.99801.0005+7 75.00201.0005+7100.00409.9046+6+
+       125.00609.9046+6150.00809.8046+6174.99209.7045+6199.99409.6045+6+
+       224.99609.5045+6249.99809.4044+6275.00009.3043+6300.00209.2042+6+
+       325.00409.1043+6350.00608.9042+6375.00808.8041+6399.99208.6041+6+
+       424.99408.5040+6449.99608.3038+6474.99808.1038+6500.00007.9037+6+
+       525.00207.7035+6550.00407.5035+6575.00607.3034+6600.00807.1034+6+
+       624.99206.9032+6649.99406.7031+6674.99606.4030+6699.99806.2028+6+
+       725.00006.0028+6750.00205.7026+6775.00405.5026+6800.00605.2024+6+
+           ENDT
TABLEM1        2                       1                                +
+        68.00000.330000 69.99800.330000    ENDT
TABLEM1        3                       1                                +
+        68.00001.2433-5199.99401.2880-5224.99601.2970-5249.99801.3060-5+
+       275.00001.3150-5300.00201.3240-5325.00401.3330-5350.00601.3410-5+
+       375.00801.3500-5399.99201.3580-5424.99401.3660-5449.99601.3740-5+
+       474.99801.3820-5500.00001.3890-5525.00201.3970-5550.00401.4040-5+
+       575.00601.4110-5600.00801.4180-5    ENDT
$*
$* LOAD AND CONSTRAINT CARDS
$*
$*  Constraint: Fixed(1)
SPC            1       3  123456  0.0000
SPC            1       4  123456  0.0000
SPC            1       5  123456  0.0000
SPC            1       6  123456  0.0000
$*  Load: Force(1)
FORCE          2       1       0 67.5000  0.00001.000000  0.0000
FORCE          2       2       0 67.5000  0.00001.000000  0.0000
$*  Load: Force(2)
FORCE          3       1       0 67.5000  0.0000  0.00001.000000
FORCE          3       2       0 67.5000  0.0000  0.00001.000000
LOAD         1011.0000001.000000       21.000000       3
ENDDATA ac1f8900
